Cu
 1.0000000000000000
     7.6685730419681093    0.0000000000000000    0.0000000000000000
     0.0000000000000000    8.8549054201611881    0.0000000000000000
     0.0000000000000000    0.0000000000000000   25.0454546774459672
 Cu 
 144
Direct
  0.1650682117151373  0.0820827250055328  0.0003654982511260
  0.9829317389477865  0.6661297724625530  0.5829779557464335
  0.4810726513388193  0.9183780027284599  0.5832596765716899
  0.8164806270851171  0.9165532247872391  0.5838795989036630
  0.1497177950633077  0.9165853304518480  0.5827707741995832
  0.3140941359482664 -0.0006702580415980  0.6669110326310803
  0.6504666296046320 -0.0012830598970104  0.6667467385775762
  0.6513444970340441  0.6648640179686053  0.5829403754795296
  0.9846116395759300 -0.0013300620686596  0.6659230012075963
  0.8161865245053141  0.2488210462429122  0.6664409519187865
  0.1497624284461138  0.2520458290903270  0.6665532921905032
  0.3189601042080236  0.4980313243041452  0.6668439365942203
  0.6516509504801180  0.4992926378839040  0.6658761368643709
  0.9819568124964976  0.4996254164528121  0.6665585549151116
  0.4817277585645021  0.7514094974484609  0.6666471049860818
  0.4823804410146624  0.2492973769073445  0.6673840363123684
  0.8166393450166008  0.7515172420334844  0.6671003276471564
  0.3161796580035114  0.6644422840884042  0.5831111470811020
  0.8160240784710399  0.4151828263783717  0.5827719587235468
  0.1493308300821880  0.0840644886000063  0.5004615435091421
  0.3165663762606724  0.3338835739083493  0.5002805367257586
  0.6522037502664529  0.3316368792324652  0.5001141694689992
  0.9858083514110934  0.3326787646075239  0.4997476539559277
  0.4829370321704832  0.5844294770714918  0.5006021243684483
  0.8147287306695847  0.5829502619850392  0.5006667944993188
  0.1517796968379888  0.4187024940035002  0.5835234227248133
  0.1525655872032127  0.5843138718151024  0.4998134874902932
  0.6480251991953999  0.8342642456189232  0.4997091553385891
  0.9850265895468800  0.8353087311253731  0.5004233825945201
  0.3182693548623214  0.1661787063212295  0.5832427923921022
  0.6487048308204491  0.1672081403380367  0.5836902317588193
  0.9834326421702539  0.1644640591891056  0.5829053237581008
  0.4820100912528990  0.4145591280112890  0.5826066710570370
  0.3186287786215878  0.8331202035812424  0.4995339946426046
  0.8186592544867516  0.0853408643524276  0.5003264440758821
  0.1499574451601035  0.7516021632873161  0.6659976707805095
  0.8190819551447308  0.0828540442139047  0.7502831189341702
  0.9821468805365384  0.6661108214352562  0.8341190339968967
  0.4834822677294081  0.9165691891622876  0.8333635023386112
  0.8172575989491199  0.9173291138058368  0.8329879562898439
  0.1501454157935790  0.9183899639355921  0.8333834287154301
  0.3170754004697138  0.0004268494212392  0.9170541463655034
  0.6503005313113912  0.0002339154329487  0.9170256829315896
  0.6475431180530931  0.6659369393136582  0.8332801893968325
  0.9823833967981913 -0.0009457933698942  0.9161467794103224
  0.8189842242795081  0.2512297881573148  0.9163764012778979
  0.1516497265810701  0.2485628952573143  0.9162343244565879
  0.3161001195499687  0.4988647449402481  0.9166263782356384
  0.6504708356428784  0.5004817870553049  0.9172481281188516
  0.9831704388896457  0.4977647648008092  0.9160946111663716
  0.4822400754601954  0.7496790428231322  0.9170819272918062
  0.4831267966592895  0.2478530443978589  0.9159821617435966
  0.4827105967236339  0.0838324100839654  0.7494416315941985
  0.3184337621657668  0.6675232280230506  0.8337091626395212
  0.8169461271629174  0.4188383898462989  0.8337158799453822
  0.1496985943254340  0.0834736648940073  0.7501593638105034
  0.3188648802954352  0.3317741264361062  0.7505070706878229
  0.6496364338275968  0.3325761393439911  0.7499495722896991
  0.9814911826726923  0.3321175527929953  0.7504475940512145
  0.4856646429222154  0.5845112041042050  0.7494042721452456
  0.8185227676345341  0.5816486583825196  0.7501861053126634
  0.1524464497318033  0.4180115057626609  0.8340364376453488
  0.1490919478289885  0.5830797028687231  0.7507722282117510
  0.6525562065997627  0.8314562795392529  0.7493487361972112
  0.9814848206554025  0.8323398100106342  0.7501530146323359
  0.3142616607615508  0.1686860961020598  0.8334421804201660
  0.6501929627887941  0.1674099996836565  0.8337416343534313
  0.9854735643968998  0.1685523408053460  0.8331076980970658
  0.4850667081507345  0.4163432960900325  0.8335552370099714
  0.3156967632777160  0.8335530867562688  0.7499042433554253
  0.4857235979798457  0.0837942142492889  0.5004024841550306
  0.8341531611316336  0.7479331912248900  0.4171631298791371
  0.4999605351551852  0.7484791640626020  0.4171650361773503
  0.3323219204343525  0.6674009653746129  0.0829312986236999
  0.6677772167574684  0.6649763791669722  0.0829803151529913
  0.1689110768142589  0.9147968196412664  0.0830101044759878
  0.5013155056987267  0.9163190075547469  0.0828127227467971
  0.8317984739843585  0.9145518255300029  0.0826880474648384
 -0.0010522491835115 -0.0013477588589574  0.1664828906737864
  0.0020938643453400  0.6649179088871394  0.0838427617185441
  0.3351985815386177 -0.0014187884107688  0.1663442931305990
  0.1643377085945198  0.2495027391626426  0.1661366331643752
  0.4984510755709234  0.2484824858912295  0.1660704319247351
  0.8310278933423322  0.2491394950016005  0.1667106614532020
 -0.0019013171235293  0.5010127949172125  0.1659469919897954
  0.3340252609019061  0.5009371753808397  0.1661074409873470
  0.6692494614655942  0.5018553423162809  0.1660718073467548
  0.6652421028220775 -0.0013486407259712  0.1672049705574134
  0.1651475799731058  0.7479186731577362  0.1666879030855710
  0.8338263736215685  0.4145502630732174  0.0829953075008227
  0.1689787623829836  0.4159430182397981  0.0838127835215138
  0.4974191987297525  0.0820298133568429  0.0000842558757580
  0.8322613026735842  0.0822741939872236 -0.0005815707631161
  0.0007986778884871  0.3333262042732965  0.0003138059188091
  0.3355324136560974  0.3311125180460412 -0.0003300104633449
  0.6643431725965423  0.3331056614381276 -0.0003920474075651
  0.1673373941681684  0.5812902967776467 -0.0001124893863074
  0.5006132026546560  0.4148507762896637  0.0825546472002120
  0.5021573045733514  0.5828944476510651 -0.0007115166599163
 -0.0011047303777001  0.8318243761431964  0.0005602435342183
  0.3310395312365989  0.8319109885104672  0.0007383631378792
  0.6660538530071528  0.8316560222090416 -0.0004592222168500
 -0.0015683643484157  0.1647403757346107  0.0830440555423118
  0.3342206320231881  0.1675497190715813  0.0825839734096067
  0.6649863634777728  0.1668582471329433  0.0828318610462100
  0.8337588852008621  0.5849619257660292 -0.0001581047311236
  0.4999405080304531  0.7496706650542668  0.1672556804479954
  0.8310206785985282  0.7511771842629880  0.1667920191535400
  0.1679680979961623  0.0817523780090435  0.2507484029363847
  0.6675070398362455  0.6673263391646653  0.3333453964422648
  0.1667562522703701  0.9160875118678904  0.3336757565121919
  0.4981074049999872  0.9146891147739789  0.3332043390455471
  0.8338381834080009  0.9188396971263098  0.3337826402678343
 -0.0018087291968654 -0.0004672042856954  0.4173390293971616
  0.3337603560935775  0.0012891496071404  0.4159145438775726
  0.3357158935037852  0.6679008440293455  0.3338515024732709
  0.6677738187868041 -0.0017335202385844  0.4168590436603690
  0.5019803945817772  0.2509778891402354  0.4161902933724533
  0.8308782797734597  0.2496426195153207  0.4165642145872779
  0.0024929547408218  0.5000017928137132  0.4162348666491998
  0.3317678422446363  0.5020887184901148  0.4160359510581472
  0.6658292192854454  0.4987332530798477  0.4164472623843540
  0.1657038282889317  0.7507300544091171  0.4165356781469747
  0.1692135610039270  0.2513129128058337  0.4164019148077823
 -0.0000686115776714  0.6680549012724770  0.3332385242088685
  0.8327302964455370  0.4155923098983776  0.3340328995301267
  0.4983156794687638  0.4152403613957537  0.3338158348488651
  0.4980437575646048  0.0842257363604423  0.2505915389804260
  0.8323457839471445  0.0853804772795123  0.2506548035365566
 -0.0003449476425092  0.3317547891075943  0.2507857071140322
  0.3357467803135766  0.3329436954322725  0.2502953709725099
  0.6641360393078205  0.3339781525474774  0.2505620123282226
  0.1683943508685158  0.5834605386373792  0.2503604187602788
  0.5018503288504977  0.5840658608408200  0.2501630715705892
  0.8325088901875273  0.5818381416181077  0.2494532809860675
  0.0021020738541983  0.8342916896989868  0.2497738865588480
  0.3339310703653336  0.8353101155518430  0.2495943744230600
  0.6647163893450649  0.8334355098353500  0.2499751807667090
  0.0013324584581188  0.1674590025106554  0.3335388055957241
  0.3332820682977149  0.1689011149742567  0.3329182019829044
  0.6672362991855826  0.1648582706540059  0.3338624432520495
  0.1662396996821311  0.4152279942939321  0.3325948375063642
  0.8192038542364964  0.7512441269441040  0.9160215780932707
  0.1485757641929268  0.7491857004075519  0.9162471722871658
