Cu
 1.0000000000000000
     7.6685730419681093    0.0000000000000000    0.0000000000000000
     0.0000000000000000    8.8549054201611881    0.0000000000000000
     0.0000000000000000    0.0000000000000000   25.0454546774459672
 Cu 
 144
Direct
  0.1650971376949393  0.0838385857105725  0.0007622568371732
  0.8659642207659719  0.6644690012107314  0.5832991561651338
  0.3646381016773830  0.9147793264546811  0.5838529184883258
  0.6974285986422282  0.9164170507724486  0.5834815704464531
  0.0336213049215221  0.9149760244270981  0.5832088972590455
  0.1992109919163524  0.0008275551928958  0.6662126454376119
  0.5321520900585770  0.0021897374498438  0.6659662656977324
  0.5345518674255215  0.6675561851975195  0.5827494854956589
  0.8649476361715903 -0.0004000421398762  0.6663921759858165
  0.7019726832253130  0.2508998324122076  0.6661386478797000
  0.0344921334628317  0.2503743349783977  0.6663570843760229
  0.2015427728579730  0.4993764416216965  0.6666512895354362
  0.5340141278656848  0.5014107363589269  0.6665858416320130
  0.8664260974585903  0.4994786152988199  0.6661357520120018
  0.3651750442287429  0.7479577490576855  0.6666148292474816
  0.3655723347286705  0.2503165400623626  0.6666455782155973
  0.7009681677371353  0.7489248098665384  0.6672794986806239
  0.2022305502384415  0.6662428572257608  0.5834782550332789
  0.6984476955373735  0.4147844986036235  0.5834888528545109
  0.0311265415329289  0.0831497545338215  0.4996137864355603
  0.1980000679405426  0.3341073528156095  0.4994721218254414
  0.5347441450667817  0.3324009219212212  0.4997494914314439
  0.8689717988102282  0.3327024175122245  0.5001099648403659
  0.3679445172431128  0.5839999631508496  0.4995119512107552
  0.6974974385760597  0.5811235287706784  0.4992582598049890
  0.0354901533276925  0.4171959424871781  0.5839688896488546
  0.0335224080063510  0.5817633597090631  0.4992909683036137
  0.5337245966995988  0.8317914382954620  0.4995525727926783
  0.8647060428512511  0.8314855853575212  0.4992959729880250
  0.2024299520880385  0.1649076716402928  0.5830683934805916
  0.5316992123170150  0.1687873407285933  0.5830844016126934
  0.8657427252962830  0.1654159965733780  0.5826901713654630
  0.3659375405431894  0.4187413827401181  0.5840317401213239
  0.2007209280938755  0.8349128384425987  0.5007888671150904
  0.7008239234786391  0.0836483533011565  0.4997122899285351
  0.0350481561362848  0.7504687097213225  0.6660793513381128
  0.7017160572582802  0.0855204086493661  0.7505075875116248
  0.8688927711762924  0.6658820472791285  0.8333323841711001
  0.3681900124279671  0.9148411462405152  0.8333488107749003
  0.6984751257780133  0.9145934171382781  0.8329165423924169
  0.0349331757329874  0.9173067748353434  0.8326789819182366
  0.2002627329245966  0.0012417337782662  0.9168568560140572
  0.5341918923870796 -0.0012310529655201  0.9174535437469855
  0.5344264521492567  0.6688372926619772  0.8338986621284575
  0.8686502093674718  0.0004908111294605  0.9164918259872398
  0.6984613119022193  0.2495154535594377  0.9161723362528076
  0.0344534973215976  0.2512449486821915  0.9165454342735847
  0.2012144784485387  0.4994690846849452  0.9163020672157957
  0.5339317781205082  0.5014930033123243  0.9170782346113738
  0.8673447185967040  0.5019657210614662  0.9172324682844016
  0.3680135485389588  0.7499419063379790  0.9173365604089143
  0.3687739903944560  0.2508059464024355  0.9165325364012383
  0.3651089302764413  0.0836986244917717  0.7494600892586202
  0.2020711875203507  0.6674791899952438  0.8339319708951789
  0.6984775592322211  0.4165265018164295  0.8329033584749901
  0.0319699230423830  0.0827346029611593  0.7500907434782679
  0.1998657792743258  0.3311704095438883  0.7506104507447726
  0.5330911689227743  0.3332629827884400  0.7503058696579553
  0.8669933070000015  0.3334988935139541  0.7504849623493035
  0.3666509946860849  0.5834463953516293  0.7499483183188294
  0.6997030193946473  0.5843056593320425  0.7493880510394321
  0.0338150689150866  0.4153443159192147  0.8340501536256598
  0.0344238858309466  0.5814245616724505  0.7503749525211745
  0.5313240392172124  0.8343178692661347  0.7504024793682664
  0.8641429567514921  0.8337579563977847  0.7498700678155658
  0.1974640615883290  0.1644145169047803  0.8329521037848869
  0.5327541556064925  0.1655697874068515  0.8337612176150562
  0.8686210977146470  0.1689099976708774  0.8331683022933920
  0.3685338714984536  0.4179985578395278  0.8329859478793570
  0.1974536795934931  0.8333452234029284  0.7496103153999031
  0.3651503160971695  0.0834732301914243  0.4994692692268867
  0.8311934461291302  0.7485594961619765  0.4158947076636310
  0.4982357934850519  0.7518960884505249  0.4174201339588699
  0.3311332624018803  0.6680641716549148  0.0825920511626702
  0.6689227758336168  0.6673411311723593  0.0825549026355183
  0.1643735601169580  0.9161434177314410  0.0826209202416656
  0.4995709055138764  0.9170985729939507  0.0828615274540707
  0.8333248196568828  0.9173481793026207  0.0835695060476450
  0.0022734064962217  0.0013371181368589  0.1666887960797741
 -0.0016421457402017  0.6648733391039277  0.0829300562161519
  0.3339410464817820 -0.0006237969245864  0.1660887384301064
  0.1670323952494838  0.2481096511998387  0.1666700477362441
  0.4988666904887549  0.2480633686928772  0.1661405226448887
  0.8335300297009713  0.2509998794327610  0.1660482261268666
  0.0017297139428350  0.5016664856394699  0.1659338319218029
  0.3349091924999326  0.4991275467758443  0.1668620010420562
  0.6682438423462816  0.4990342011934277  0.1673429347688756
  0.6670842370236427 -0.0007867608680460  0.1658757416657670
  0.1660036032308576  0.7517418270066990  0.1669047153685671
  0.8330951509362629  0.4150638526771707  0.0836843713066986
  0.1661815131419788  0.4183232250288404  0.0825811252116362
  0.4993826409105610  0.0825838240940607 -0.0005482278631687
  0.8329552938778663  0.0827035133790271  0.0005421102857051
  0.0004472890703307  0.3327440265988811 -0.0007205457199080
  0.3308753834257884  0.3311688188180629 -0.0006442207165132
  0.6657901086995383  0.3355200443300709 -0.0005999515282630
  0.1641862034718887  0.5853413694706886 -0.0006451994441777
  0.5004856875933226  0.4178730608602390  0.0839983273938773
  0.5022921576283809  0.5821502650324351 -0.0005728614193069
  0.0008853475058655  0.8341206976506746  0.0002380562673620
  0.3338518391402540  0.8352840552311326  0.0005120169611442
  0.6688224064441248  0.8343825482055321  0.0000724018003627
  0.0011400628454359  0.1679956969287119  0.0833467285532723
  0.3319008126843206  0.1666678682111765  0.0829034545912829
  0.6645425823984479  0.1677278697924504  0.0827405583846548
  0.8329207415247217  0.5846663119538175  0.0002441340128017
  0.5022105783683622  0.7499908364198351  0.1665894463046308
  0.8321742444652098  0.7483008770824027  0.1664939087179220
  0.1679374896363761  0.0828879881333684  0.2493170188004965
  0.6648547683727953  0.6685703583369971  0.3336745404598620
  0.1665728391130768  0.9160079856594685  0.3337918518653651
  0.4991760261232160  0.9151665071979046  0.3327530746973617
  0.8327363442323158  0.9171073864579937  0.3325691572727386
  0.0003150341479089 -0.0010105541206168  0.4160443711225773
  0.3324828541884005 -0.0014681659190013  0.4166269927526058
  0.3357324987982398  0.6687596850533631  0.3332287590156135
  0.6683340049906130 -0.0007736228576082  0.4165853177353468
  0.4987642545730799  0.2484582806000316  0.4164087212768210
  0.8317818570053341  0.2485679528074362  0.4167133941348901
 -0.0003432888013175  0.4984567417182683  0.4159007955754238
  0.3331620622033584  0.4987258013097030  0.4170463966905454
  0.6663777813611913  0.5022410317890712  0.4159182551270384
  0.1659469997049787  0.7490733194469854  0.4166543976375372
  0.1672448533412020  0.2497077414161718  0.4166910749257383
  0.0000014463124075  0.6652868786990398  0.3335916769581168
  0.8337241671832539  0.4145525624485827  0.3335540283152008
  0.4981401243044237  0.4178152443439483  0.3336234094806217
  0.5004011753795408  0.0853477892989966  0.2506244972715858
  0.8326959008523429  0.0832040851409781  0.2507083879494456
  0.0016637275235242  0.3326491946031065  0.2493336318864660
  0.3338184053128945  0.3350563359914881  0.2493459434458247
  0.6669182125644331  0.3354879548647677  0.2497801573875797
  0.1645890137915743  0.5840809253882215  0.2505902396768671
  0.4999599172794555  0.5828104829634155  0.2497242470152860
  0.8319550395774171  0.5821600281788696  0.2505475765785173
  0.0019140890240356  0.8326654583926231  0.2493438444731380
  0.3345752096649688  0.8331947446733168  0.2506601788704600
  0.6688780869103899  0.8340407520163954  0.2505778155767134
  0.0007671847110359  0.1656368710010437  0.3330491526262431
  0.3331896028520827  0.1649759842035489  0.3340166431409838
  0.6651328268032983  0.1680532198816757  0.3339612910598426
  0.1640942209103429  0.4169302147962047  0.3325387161371818
  0.6989823861128140  0.7482088228943513  0.9158883566879594
  0.0345173859111973  0.7505203735444784  0.9172548320330045
