Cu
 1.0000000000000000
     7.6685730419681093    0.0000000000000000    0.0000000000000000
     0.0000000000000000    8.8549054201611881    0.0000000000000000
     0.0000000000000000    0.0000000000000000   25.0454546774459672
 Cu 
 144
Direct
  0.1652478451894547  0.0830744666094710 -0.0002337766241426
  0.6659258553226253  0.8668825361767121  0.5832178473609537
  0.1674375239153535  0.1176021161199778  0.5825699341580693
  0.5005915893053218  0.1166553884975110  0.5837231992235635
  0.8353913050276014  0.1173993775026764  0.5826446264319785
 -0.0006115534819647  0.1996883915807399  0.6660134403137106
  0.3346034194103915  0.2020260277054457  0.6671484349827216
  0.3335630480804036  0.8677483429444219  0.5840127554077031
  0.6691911044360941  0.1989638763567751  0.6669374345723542
  0.5014482391295708  0.4495503450808046  0.6664291600428232
  0.8342261064812194  0.4484056103721986  0.6660606014502209
  0.0002501021520929  0.7007589321061615  0.6661684749271061
  0.3351581736006501  0.6994063129642049  0.6663414454884032
  0.6680446194076120  0.7007281395702994  0.6671383682432014
  0.1661048398748163  0.9491351126583765  0.6674386205091855
  0.1682303192375029  0.4509308245716072  0.6667774859828639
  0.4994673924619882  0.9504265213305763  0.6670070426666782
  0.0018155993352169  0.8661759353446029  0.5827202866466581
  0.5001724558514573  0.6152814701335890  0.5827225451823104
  0.8312301743600456  0.2830436934668089  0.4999684566569076
 -0.0025787326338711  0.5351265994208322  0.4999124643699788
  0.3322109666780412  0.5351529948866480  0.5007507723871596
  0.6686188807678822  0.5346296206408788  0.5007898545094612
  0.1656243471188472  0.7822001020970124  0.5002268207972030
  0.4994094958311437  0.7843740122810231  0.4992236190524445
  0.8310305139173016  0.6152888547286046  0.5836077980769736
  0.8353824680524152  0.7834569844338927  0.5003111485171846
  0.3345925059257804  0.0344359395946831  0.5007506494538174
  0.6674310933465708  0.0328242891523666  0.5001873278572969
 -0.0023805421500205  0.3648382944939566  0.5826947360612943
  0.3313017061154377  0.3684780442483179  0.5838365476061665
  0.6672029711852075  0.3667193026090400  0.5835033992785414
  0.1652862792222618  0.6165458726779302  0.5841169105063877
 -0.0023942708561213  0.0351464911835367  0.5005051087751359
  0.5012911104675906  0.2820797128515565  0.5003350509883759
  0.8314889743282852  0.9507016024279467  0.6665630723312332
  0.4985215388776347  0.2811303203558611  0.7507709263530473
  0.6670277743875934  0.8666501274827615  0.8334471319929115
  0.1644581475340642  0.1166225142408474  0.8337094934744465
  0.5011586794447683  0.1150587765247657  0.8326515252656113
  0.8358385080249291  0.1175602784092691  0.8327724288006297
 -0.0001794152331138  0.1992137153790982  0.9161842248070764
  0.3330729951751599  0.2014962496544453  0.9161439036638385
  0.3320521587290169  0.8662740210092577  0.8340836513992042
  0.6653582904746254  0.2017230205802706  0.9163871295249286
  0.4981056976115407  0.4517578349740362  0.9161501115399707
  0.8354648767392029  0.4512299320296513  0.9165448070858301
  0.0015078619464341  0.7001328091127663  0.9172927122988028
  0.3339562691829442  0.6986627536566448  0.9167024476120781
  0.6651478008000850  0.7004154861417733  0.9169854657380326
  0.1670299794452597  0.9497025465712507  0.9164323816499184
  0.1659742122395307  0.4494967403648814  0.9164075038229086
  0.1642241851308670  0.2853787287570875  0.7494659186877922
 -0.0021316698598248  0.8653264666097539  0.8328975302465750
  0.5009504880040323  0.6160191478410597  0.8328951775654537
  0.8310034209672065  0.2833144699193723  0.7495482894453804
  0.0005097888438900  0.5330989755693322  0.7495892861905489
  0.3317220769883165  0.5336067504723463  0.7505665629499031
  0.6648163386310758  0.5312298622682956  0.7501847411625976
  0.1668995642358377  0.7853913591834776  0.7495147268823343
  0.4986731040879998  0.7826138174083797  0.7499656580827201
  0.8324176314860979  0.6182283555902049  0.8328137359136454
  0.8318834214469518  0.7854370765882159  0.7499903228413763
  0.3357952750983275  0.0328160240935538  0.7492156204112645
  0.6681662464997635  0.0341999364093260  0.7498974563713680
  0.0018774340988940  0.3684565187052127  0.8333509851651476
  0.3326725022862426  0.3658189266755112  0.8336908354913932
  0.6680519309167472  0.3687228767765774  0.8333118170639996
  0.1655131133874987  0.6151618296904076  0.8328887897289787
  0.0025381533417241  0.0333959320672900  0.7506676303004356
  0.1643804056163532  0.2846842276712110  0.4994876099944864
  0.8346184053403095  0.7485141606068609  0.4171127201913651
  0.5007237456430431  0.7504240635223139  0.4169612749311274
  0.3342751304648569  0.6669340359852309  0.0833557089911864
  0.6651792647563793  0.6683135551984104  0.0836472987003361
  0.1668096502348410  0.9187634306564366  0.0840776270302183
  0.5018073795295639  0.9185350005433666  0.0829227069030997
  0.8335344705367311  0.9149663470915642  0.0828302992445540
  0.0016967414644103 -0.0009248840583937  0.1670940760215102
  0.0008622037637479  0.6658195891608144  0.0837600626215180
  0.3330847421415843  0.0001902032692761  0.1668319116797258
  0.1677668864352013  0.2499841530943429  0.1661231670630228
  0.4983970632486622  0.2507945192261636  0.1667586660852362
  0.8344308134251293  0.2494804502329659  0.1660199741147331
 -0.0014536502239041  0.5020615381832723  0.1660283300230539
  0.3348538972482604  0.4989456466947207  0.1663419271473637
  0.6645716253933655  0.4991586629656193  0.1659046953885780
  0.6662204940641551 -0.0005656800870431  0.1659627590067646
  0.1665087645370040  0.7481130513956152  0.1669280623524083
  0.8343971394838701  0.4176357464453943  0.0830799699094047
  0.1673535788477754  0.4161747485227204  0.0836377048553923
  0.5004157627197912  0.0829491908541412 -0.0000254771457755
  0.8356146221647999  0.0836849913793562  0.0003185563037844
  0.0011825219572124  0.3326765927174462 -0.0007797289733913
  0.3345703476659520  0.3336622770706170  0.0006105947627887
  0.6687020781167167  0.3334905991950036  0.0003819754036097
  0.1663913216646314  0.5853731581636634  0.0004391614499826
  0.4992728345146324  0.4176696367787127  0.0828570017372506
  0.4976908123167537  0.5821558283444922 -0.0006825955164575
  0.0003087268733986  0.8323050327560749 -0.0004648991180488
  0.3311862979942811  0.8349514065879714  0.0003291117390554
  0.6683462293042558  0.8351851322840910  0.0004852726285411
 -0.0007917607869896  0.1651261215904798  0.0825853734428618
  0.3352335229372184  0.1686337225299075  0.0840066403198456
  0.6690319224555410  0.1653740412032874  0.0828588688840327
  0.8326499885951121  0.5848056494388698  0.0007781628239726
  0.4988366971123660  0.7506496618443238  0.1660866142914987
  0.8359219026131141  0.7497160284645077  0.1671798940856576
  0.1658372126161528  0.0823581857983369  0.2496131466600857
  0.6659044380381051  0.6646530170260367  0.3331138596269689
  0.1640967141831601  0.9185869042244363  0.3328675886181676
  0.4996427980896694  0.9188855628266496  0.3337946336328129
  0.8334522144299801  0.9169620295453692  0.3325366329683860
 -0.0016418830237366 -0.0009998240684513  0.4163151464999048
  0.3325989181748868 -0.0007496088824899  0.4170828757479424
  0.3337541275307565  0.6659535717769124  0.3334418296768767
  0.6691725673303426  0.0016693904010876  0.4160992677711095
  0.5005361815668620  0.2491563595694396  0.4170548234416498
  0.8317663166047048  0.2483558792798601  0.4166838909132008
 -0.0019383856772749  0.4989846229644965  0.4170912641275000
  0.3347354412273553  0.4983892790629788  0.4165253093162068
  0.6689693957052529  0.4980447990909619  0.4160580696156073
  0.1671448913939657  0.7502411371215009  0.4171518285345686
  0.1683231083467549  0.2488302388984192  0.4174446528078449
  0.0016876185987257  0.6647155531715969  0.3336904454078897
  0.8319537524470565  0.4164950126897773  0.3325895250324309
  0.4977525151928868  0.4148991427582833  0.3332747216389163
  0.5025198456408249  0.0814310140162174  0.2495938770131691
  0.8316353143138294  0.0829072191435462  0.2494977100169750
 -0.0012214593839182  0.3353994401150693  0.2500038127756874
  0.3325117798888984  0.3331964004711596  0.2504964331839100
  0.6685205052187136  0.3343431524875313  0.2501933403653540
  0.1686375593359762  0.5810918077576798  0.2494074559137159
  0.5004703701922975  0.5834006444342681  0.2501828477422858
  0.8357583552764885  0.5825388962375990  0.2499651229981597
  0.0008184228842382  0.8327550174294434  0.2499681305470566
  0.3313614659897272  0.8353255490291167  0.2495939675298166
  0.6662163706509626  0.8316772840419696  0.2498059605747241
 -0.0025130877169664  0.1685634313708754  0.3331432546604944
  0.3331478075093000  0.1656445155372467  0.3336536318490458
  0.6654339100597313  0.1682297253602976  0.3329161755025775
  0.1665109338586495  0.4179500528356771  0.3338171717204168
  0.4974219270541741  0.9480535177614627  0.9172754992082791
  0.8341563035725842  0.9519547625993492  0.9170199806293353
