Cu
 1.0000000000000000
     7.6685730419681093    0.0000000000000000    0.0000000000000000
     0.0000000000000000    8.8549054201611881    0.0000000000000000
     0.0000000000000000    0.0000000000000000   25.0454546774459672
 Cu 
 144
Direct
  0.1656564160467956  0.0846010902254126 -0.0004177421952445
  0.6668993015239862  0.8154758897350927  0.5826993338063604
  0.1678586905297447  0.0679681019633454  0.5830761991637948
  0.5013507727792086  0.0649069130226683  0.5834004473329795
  0.8338584493114266  0.0654060231013140  0.5840043231952313
 -0.0006724665689132  0.1485259414859904  0.6662260242659901
  0.3350660421574088  0.1507458684089903  0.6666039420417450
  0.3355195932751383  0.8157797168114896  0.5825409472245129
  0.6674113864685541  0.1507084671503653  0.6673920923483616
  0.4977418663525998  0.4011574292359114  0.6672443499755732
  0.8356179257642529  0.4016598295935184  0.6673204736666892
 -0.0012946507167110  0.6495036456979143  0.6665958647433862
  0.3355384703477135  0.6520700504915576  0.6666951731229901
  0.6660915043557025  0.6515602043446403  0.6670981630353192
  0.1663168392313414  0.8981999040685952  0.6666841853968356
  0.1685699646958576  0.3999003715331659  0.6671671848921658
  0.4990574373106403  0.8979230599801860  0.6661728956032265
  0.0002230132628045  0.8156882798069797  0.5832988421304397
  0.5013954396568528  0.5664176756589218  0.5825778835019971
  0.8343633830107439  0.2355058870291137  0.5004789378902640
 -0.0011759098159073  0.4851669977688701  0.5006835264084539
  0.3352362002835150  0.4815060023083597  0.4998117131835010
  0.6644401859165205  0.4819041998856077  0.5000179253649972
  0.1650695836972340  0.7328781784651175  0.5004412942401089
  0.4986816123442477  0.7320256832540195  0.5002317624223882
  0.8311779347996475  0.5647891305165984  0.5839499312335524
  0.8314413215587424  0.7350803793074049  0.4998481597881331
  0.3331917194614741  0.9819414548829362  0.4997226915825454
  0.6681663941557066  0.9829489722705206  0.5003567041034737
 -0.0003131152640666  0.3155967792114027  0.5827102990310741
  0.3318080360039358  0.3156712734533442  0.5825451102667756
  0.6690019626216557  0.3173343184311502  0.5839916345549877
  0.1667025894281183  0.5646596065801947  0.5838942862215953
  0.0014744861386017  0.9826885952355924  0.4998916750999750
  0.4985021047874376  0.2325073101595325  0.4996141372791956
  0.8337019217553032  0.9022249826868037  0.6668714567993287
  0.4975094798286350  0.2329266102842220  0.7507355087472810
  0.6656661300775001  0.8181439843866086  0.8336498507326420
  0.1654082023325810  0.0685014332538037  0.8340426739391336
  0.4995826994165704  0.0678877685987906  0.8334285694573539
  0.8356018938267324  0.0668960995968410  0.8327887416294113
  0.0020976065791443  0.1495605037999941  0.9163375172791726
  0.3330505191115126  0.1519831717115151  0.9158858818928827
  0.3351041658716044  0.8182035840088658  0.8341204916548082
  0.6664226991486457  0.1491896966322593  0.9162051126070645
  0.4978509642721928  0.4014175846991485  0.9164636395931871
  0.8350329906960514  0.4017492300938668  0.9164555956078518
  0.0020369578714001  0.6490441583827811  0.9164937436919119
  0.3321463747788678  0.6496861114095913  0.9170043032993391
  0.6646467895402960  0.6514626355547474  0.9159211449398974
  0.1686441171277480  0.8987999445544710  0.9164058692159227
  0.1656154388071699  0.4000670264088186  0.9170447692781185
  0.1651071027577206  0.2345083859443603  0.7502207147289136
  0.0013755672084802  0.8156068747930236  0.8326474660789942
  0.4982736791982139  0.5677631219360308  0.8330261019122269
  0.8348967583915191  0.2330074847046976  0.7507842407684524
 -0.0017476247358793  0.4812142724054895  0.7495548033538737
  0.3323784246916432  0.4836691215231123  0.7493991467315461
  0.6644166805157804  0.4828092844409886  0.7502940390042497
  0.1676201862537010  0.7337148297756640  0.7493059046282626
  0.5010486682824314  0.7341710341781241  0.7497697375188438
  0.8354242499032910  0.5660164281397368  0.8330984954792374
  0.8343034540894827  0.7345364667088282  0.7495607194982036
  0.3332811764163532  0.9842346037628529  0.7495850117519698
  0.6660039075024170  0.9847401692297798  0.7494016927609596
 -0.0022927549674214  0.3163430024176504  0.8329375520648381
  0.3329078742955845  0.3163231386414748  0.8328308853376706
  0.6690834725912050  0.3146050231534747  0.8326950124865974
  0.1682136861006781  0.5672250598993700  0.8329366833393930
 -0.0017406875013850  0.9828616065845162  0.7494031351530284
  0.1650135993334531  0.2345225482169722  0.4997173412486765
  0.8350545906955285  0.7492403531208953  0.4165817956700437
  0.5022937773360020  0.7509755281185736  0.4159993788205769
  0.3322276335213117  0.6651897853857445  0.0840732429915835
  0.6674563046028361  0.6678264934431301  0.0826912182504752
  0.1679342565910181  0.9156906625382272  0.0831674153352848
  0.4976005058520605  0.9181055317138804  0.0835339733531656
  0.8343618536436951  0.9162569151639720  0.0839149783009098
 -0.0024079437811816  0.0006950805853831  0.1668999777291481
  0.0016279062902868  0.6671254549814901  0.0829533220455179
  0.3349827766788545 -0.0006475459837107  0.1671665257932702
  0.1687485814598867  0.2477563534801921  0.1673835585502419
  0.5005697381537360  0.2497994561298848  0.1665364571428538
  0.8351146602770158  0.2518678313508388  0.1664432325217038
  0.0007232778518748  0.5004379253755358  0.1667682617790708
  0.3353500833063399  0.5003961015682703  0.1665506597243976
  0.6658246010002697  0.5014993440653609  0.1672706837470677
  0.6684594751932010  0.0001296128392430  0.1672973865787768
  0.1649717177843651  0.7492888510479211  0.1661463679559632
  0.8338002782851807  0.4148683902852808  0.0826198817843759
  0.1655088793272859  0.4182846561476778  0.0826934896000515
  0.5018798839184011  0.0833049938480359  0.0002638203831501
  0.8337385756708746  0.0816709870561027  0.0007836753103342
  0.0010426842011554  0.3343840759121915 -0.0004684162726965
  0.3324402238280631  0.3339721158699274  0.0006279623847671
  0.6666006109410452  0.3324693838038018 -0.0002607422330630
  0.1647851863440612  0.5848898756100070  0.0003054285448961
  0.5014731809626284  0.4145676930577354  0.0827861515901549
  0.5005624454274800  0.5834580000437635 -0.0004066481793053
  0.0022841191894741  0.8318442074985716 -0.0002072035519310
  0.3329360226819843  0.8350853635045249 -0.0001604630195394
  0.6666754798823589  0.8342941848894053  0.0005449148502227
 -0.0020801821334750  0.1647480685326718  0.0835386225057787
  0.3356270421153920  0.1655467171653645  0.0835480896919155
  0.6649085228601551  0.1665743958288292  0.0831799216414361
  0.8349169667629517  0.5824419768155410 -0.0002537967068352
  0.5013603180016805  0.7481448132269151  0.1671217159583972
  0.8340484933506878  0.7512195740751800  0.1661796455047299
  0.1661948755688815  0.0845875924891505  0.2493648706754568
  0.6651418024220960  0.6683393169812025  0.3339179110903978
  0.1683844203467149  0.9155458560102678  0.3338895231369902
  0.4983888744728276  0.9164001088175564  0.3339851025783281
  0.8315536510611190  0.9147222245660500  0.3326814740479718
  0.0007208009289564 -0.0005445280987843  0.4168162288559822
  0.3352387819888588  0.0006206050867786  0.4173997132508622
  0.3354447483573863  0.6687068393697762  0.3328610792383989
  0.6641568242407774 -0.0013231776478129  0.4165875725081643
  0.4997793902667923  0.2508986115062198  0.4165310641725950
  0.8311026639334080  0.2520826101183834  0.4173225523070561
  0.0014339473238671  0.4995481667779689  0.4172512275043615
  0.3358475502814247  0.4994457509468669  0.4168051107440888
  0.6651246600989870  0.4990758491233616  0.4169586840513906
  0.1660202845451078  0.7477691455490058  0.4170946968761651
  0.1651883219381816  0.2520946072009018  0.4166319699503394
 -0.0018725085617981  0.6654683029749431  0.3335437277783076
  0.8345555476821389  0.4167777242345677  0.3331171242578424
  0.4994453380879954  0.4147373245130343  0.3338732946546360
  0.4984202058059796  0.0845870328311980  0.2504963100850320
  0.8346067342864490  0.0854059218657516  0.2498441276745456
 -0.0012748933251165  0.3330542746569702  0.2507957641738277
  0.3324632946751276  0.3345492397137122  0.2501227337730820
  0.6643493822718365  0.3315174573907100  0.2496286765520649
  0.1645814823190780  0.5813336431222358  0.2499732382634673
  0.5007371878425034  0.5849973820166000  0.2504023797380203
  0.8313275925499658  0.5844388974354298  0.2493120489652736
 -0.0015694693361222  0.8351176388308528  0.2507349903253626
  0.3331486247297964  0.8333929500191635  0.2506119835230648
  0.6680416523303190  0.8348005892594010  0.2493289148963533
 -0.0000095081790134  0.1652733056909857  0.3338656957287775
  0.3310414387938297  0.1686481335655266  0.3335358707397787
  0.6679472387684989  0.1669840597170896  0.3332701554738939
  0.1674967993965748  0.4166529493425985  0.3339430041984740
  0.4981212770429891  0.8985277660871744  0.9160943713417568
  0.8328322922877480  0.8986829347445140  0.9170070363867987
