Cu
 1.0000000000000000
     7.6685730419681093    0.0000000000000000    0.0000000000000000
     0.0000000000000000    8.8549054201611881    0.0000000000000000
     0.0000000000000000    0.0000000000000000   25.0454546774459672
 Cu 
 144
Direct
  0.1662281767196889  0.0840742846796098  0.0002007655697633
  0.9334898931793180  0.8170318438129179  0.5828232267318414
  0.4323151109785616  0.0664831404916523  0.5838273402217147
  0.7676957113391987  0.0673547788315246  0.5826823301649243
  0.0974489497634267  0.0679946391971744  0.5840455430209252
  0.2667292707930923  0.1500097387437942  0.6669812360092002
  0.5990988319004730  0.1486650510015457  0.6671113946725008
  0.5998008123342208  0.8181275883068608  0.5840715876524026
  0.9337401175258634  0.1511946196762823  0.6665698529775810
  0.7651609202559738  0.4008984693256087  0.6672767323554539
  0.0979606368843634  0.3988608975193336  0.6665842542966997
  0.2691381376590478  0.6485439424208133  0.6670255475618414
  0.5998803796457217  0.6503512876842504  0.6660997576877743
  0.9325242500795070  0.6479038056294348  0.6664706752159886
  0.4331791257459259  0.9021609306152356  0.6674487223869532
  0.4314348351333248  0.4002250296424347  0.6673180230178136
  0.7690211060790779  0.9000228420059585  0.6660503881125888
  0.2659321691557572  0.8182964420855082  0.5825594654393961
  0.7683910273376238  0.5660011149900230  0.5832147108686946
  0.0987970830228075  0.2331106355067617  0.4994409586370865
  0.2681111912431271  0.4838223303221573  0.4996153359890196
  0.5991646278609426  0.4835646073043626  0.5000052765129818
  0.9337828621992467  0.4845189043621947  0.4993035125847560
  0.4327930558597926  0.7318669369267466  0.4995243054700587
  0.7660410712172845  0.7341885555106421  0.4992300703866301
  0.0976115040227742  0.5645839919579666  0.5834587287888968
  0.1012678555716347  0.7310826671312014  0.5001306388062834
  0.6022536054406997  0.9838222389745336  0.5004672265006771
  0.9356375892970721  0.9830238591955517  0.5001450363737643
  0.2689782170100573  0.3167648670295952  0.5835249001528973
  0.6015424228988153  0.3153181682323265  0.5834029843434105
  0.9357011310391864  0.3175866741220598  0.5840840540220601
  0.4358347121034619  0.5652568743156343  0.5830661339942205
  0.2664297969359730  0.9823236752053524  0.5002596192481926
  0.7675995112805775  0.2326686081526522  0.5005286356961349
  0.0994199224237739  0.8990806357616963  0.6670101520822836
  0.7658421040835528  0.2324171437962805  0.7505284430789164
  0.9353754852245759  0.8185208550638050  0.8337986244918100
  0.4324196427905888  0.0662425134159588  0.8334522147343967
  0.7670088583387188  0.0677750737633867  0.8336418836995224
  0.0999889867304779  0.0674037002283751  0.8332072895571678
  0.2683058139379692  0.1516597574322296  0.9162798747859734
  0.6015086707255548  0.1498736979680944  0.9162483413006691
  0.5984708706016145  0.8166295463152603  0.8340720729759314
  0.9347353246449215  0.1504868793525372  0.9170393359236055
  0.7648255566321855  0.4014967674734570  0.9170756379215358
  0.1025161903659924  0.3978453398483681  0.9164200930421961
  0.2674032026089155  0.6500125822942600  0.9159337915832773
  0.5992991779911964  0.6489945531874725  0.9164996236087130
  0.9356034588420049  0.6483185761476830  0.9169729876708022
  0.4316272030688217  0.9013173844754115  0.9158753970247454
  0.4319320460093217  0.3981156243462763  0.9170549896170406
  0.4328292319195093  0.2321265053250105  0.7507396171880147
  0.2675647016014993  0.8169470230717735  0.8337684197050140
  0.7683134609310536  0.5654844926818193  0.8330079827511183
  0.1012040006781698  0.2313526408992542  0.7504798661237780
  0.2690358238131776  0.4844791811570669  0.7499277886902904
  0.5986420917163804  0.4815458452417685  0.7493876721684909
  0.9337088275314570  0.4839505825870352  0.7506258573068889
  0.4356230164097947  0.7316126231307708  0.7501289638309847
  0.7669383572961272  0.7328702685721123  0.7502104655867730
  0.0999458681604089  0.5677907360565116  0.8327759651082810
  0.1008927326094319  0.7327625403339471  0.7505832204217314
  0.5993864184013020  0.9833646483651481  0.7498688193924007
  0.9351880711606458  0.9818685459474145  0.7502400175730990
  0.2683289435985685  0.3150676807753667  0.8341014226066767
  0.5983964700112585  0.3148733378999943  0.8326176380961411
  0.9332022248017861  0.3177772793526685  0.8326913584501539
  0.4307554006519560  0.5673953708592725  0.8332170721643437
  0.2643009644925707  0.9815659245192714  0.7507232622115023
  0.4313750413216068  0.2331805677833465  0.4998477844905131
  0.8346277962908679  0.7505481897728951  0.4169123473269753
  0.4996713749208810  0.7496833712072902  0.4159752097766193
  0.3355288008134749  0.6650265047374302  0.0830687872080713
  0.6680510094314953  0.6681911584240069  0.0836453407969370
  0.1665298257566319  0.9176518382902250  0.0834604619023222
  0.4997791197387025  0.9160240114964805  0.0833323204167936
  0.8349488129581685  0.9155561001344887  0.0832206796379105
  0.0005342319993292  0.0020536495625884  0.1662699143050745
  0.0023779960129777  0.6677596951767193  0.0830338051589952
  0.3351714437992528 -0.0015580768511850  0.1659907703285254
  0.1687157224220136  0.2508270148874579  0.1662649582762587
  0.4994206179321447  0.2482282549913342  0.1669092072885778
  0.8326334412215406  0.2482306619035752  0.1665728314073502
 -0.0023078471570054  0.4997723042056815  0.1660507459616815
  0.3347774326258029  0.5019703702926454  0.1659530538318899
  0.6687367616489666  0.5021109534489334  0.1667071683546917
  0.6643537642910494  0.0000135668751037  0.1665803174769401
  0.1662999215769211  0.7509680642001320  0.1662281723743311
  0.8323084304935899  0.4184804958706163  0.0828603809237215
  0.1686260001117360  0.4152927272973644  0.0826716689309501
  0.4997515728707027  0.0813235496255013 -0.0006102102873481
  0.8317848131370829  0.0841103515867436 -0.0002386962146827
 -0.0006603058698020  0.3335383754307158  0.0003153781451802
  0.3325496790409299  0.3349345431140560  0.0006140571355462
  0.6689098181302843  0.3336916622632615  0.0003011954508042
  0.1657583896071521  0.5831604305214699  0.0001032414282046
  0.4993897667263726  0.4173549485535790  0.0831656757769823
  0.4993804927971854  0.5853537282698588 -0.0005330279307027
  0.0008990716172642  0.8335624014901942  0.0001941200876997
  0.3348123084076081  0.8337798588836089  0.0000782918283804
  0.6677663971544204  0.8334848837005004 -0.0000084344557302
  0.0011637573503924  0.1654211291331554  0.0838921590806866
  0.3317269918293645  0.1648477790336161  0.0830737104057867
  0.6680102283636843  0.1669536314396330  0.0834330792119924
  0.8343024790343767  0.5854655538426228 -0.0005159607328467
  0.4987475943011504  0.7490016315094575  0.1673297362542031
  0.8354680499998448  0.7514172797978644  0.1659941392112711
  0.1674177528384503  0.0811932331740653  0.2497791098680290
  0.6649585014872652  0.6684442311350877  0.3339867885748170
  0.1649082730604359  0.9165670053884297  0.3325448071300514
  0.4974756982736497  0.9152412248829267  0.3329930417211474
  0.8349137311751845  0.9169322173427551  0.3340197742606593
  0.0023459147847017  0.0006023008298874  0.4170973359009330
  0.3317048799589815  0.0014687524764763  0.4170924822052718
  0.3341242519920294  0.6681750391388105  0.3327309636162595
  0.6692264225694853  0.0008379562305167  0.4170355557806295
  0.4997183179207430  0.2490587986537465  0.4165594936447753
  0.8354517813998789  0.2497935375243837  0.4161000074710584
  0.0005383572959063  0.5022370785579698  0.4170016743375686
  0.3346733138379945  0.5022293107555567  0.4171899215694417
  0.6645910591524482  0.4979399803561824  0.4162985546928586
  0.1674995519814578  0.7495854692588684  0.4168854355860876
  0.1685944643943639  0.2482876842333378  0.4172421141590709
  0.0009879684731126  0.6645820429159603  0.3337101544062047
  0.8311340791527956  0.4155932966011666  0.3334333436152673
  0.4975853485703623  0.4156951508359981  0.3325370164589193
  0.4999822495878034  0.0816262407927320  0.2497106354396305
  0.8348805128373951  0.0818290591691332  0.2495400656612907
  0.0012727281880709  0.3350427652820272  0.2493304353374332
  0.3319914389161216  0.3349947004566345  0.2494998052436200
  0.6660996086787557  0.3316425457260685  0.2503045987987974
  0.1653437692074017  0.5817379864344906  0.2500290301534734
  0.5009506916808768  0.5816594951330000  0.2497915695188168
  0.8355065750736700  0.5819440936312127  0.2494808113033174
 -0.0021486496828167  0.8329972951350706  0.2505019573534671
  0.3346731907641279  0.8354463031983954  0.2504028846998466
  0.6678526280067293  0.8331411859013269  0.2504244788093786
  0.0019319238942370  0.1683614692660934  0.3333197014227849
  0.3319588361280119  0.1660215980514760  0.3332640302831256
  0.6672956869037473  0.1676079588478779  0.3326695283999047
  0.1650447095060280  0.4149377711127611  0.3335610506710441
  0.7651504076462295  0.8993465035547743  0.9169185954894865
  0.0991199654403814  0.8979022707215947  0.9168280601822535
