Cu
 1.0000000000000000
     7.6685730419681093    0.0000000000000000    0.0000000000000000
     0.0000000000000000    8.8549054201611881    0.0000000000000000
     0.0000000000000000    0.0000000000000000   25.0454546774459672
 Cu 
 144
Direct
  0.1686944721278675  0.0854144904125794  0.0002525210476830
  0.6669998588910754  0.7649677997914868  0.5838416009004188
  0.1689237047890039  0.0184493126964357  0.5833948267828870
  0.5008939753233119  0.0170812084093044  0.5835890200800484
  0.8308805103461856  0.0169683707191221  0.5838622398107696
 -0.0024972515599669  0.1015403550930883  0.6667889845678646
  0.3356914991816464  0.0998006497934233  0.6662869465943755
  0.3345456051021874  0.7659171370436738  0.5835043496720103
  0.6664153587515960  0.0999826381054548  0.6664392043352846
  0.4994175980950789  0.3498383634491619  0.6668416083332056
  0.8336607351075549  0.3521619766556296  0.6667835904154694
 -0.0009390550005363  0.6014919846447639  0.6664669174645592
  0.3336589426687922  0.5986990386641005  0.6660590785560020
  0.6678313680730158  0.5994439553082793  0.6660342826072417
  0.1660483425034569  0.8486435833979785  0.6664236973369986
  0.1688890014370047  0.3489504891166729  0.6666337771547890
  0.5019475685565554  0.8494052746509434  0.6674028620288245
 -0.0020167936711998  0.7650238986537119  0.5837378350251956
  0.5016828685442971  0.5169622819984566  0.5839237407027407
  0.8312196576534393  0.1812885913170128  0.5007397220499548
  0.0013781328864690  0.4313374746825200  0.4992770531300837
  0.3349216158631447  0.4354698366318830  0.4995345861446187
  0.6642107370744712  0.4327808801247293  0.5002692031827949
  0.1655257990777604  0.6827293310220344  0.4999217561307621
  0.5010287615569594  0.6846934034324298  0.5005514863245391
  0.8351704379933852  0.5169479611703854  0.5831468821009649
  0.8332978247860038  0.6818778723492966  0.4999759982559437
  0.3324258054965996  0.9353938878894063  0.5004172263046613
  0.6654584780304462  0.9323937743693393  0.4997694528760867
  0.0001154660683366  0.2688737090303039  0.5829092578224172
  0.3343750332144626  0.2680994580395243  0.5834838757041639
  0.6669889615077370  0.2650759021898251  0.5825718107377968
  0.1686894523548951  0.5152098427288241  0.5829066432844822
 -0.0003304643095198  0.9342921878350258  0.5006232456332055
  0.4981452949380583  0.1852830888301440  0.4992962602865169
  0.8338537939095584  0.8492508604527506  0.6671363601385639
  0.4995518381695564  0.1835661096548324  0.7500439436213886
  0.6653536339032918  0.7674483808266482  0.8326359208987252
  0.1649994544066136  0.0171614623273963  0.8337724446603967
  0.5018992256823790  0.0182954396425781  0.8328639670305465
  0.8334324813179624  0.0168226038316392  0.8332487436521410
  0.0017589873217757  0.0988850661876425  0.9169266943020707
  0.3338510611066986  0.0978581387480845  0.9164965775320795
  0.3345708188991302  0.7659871482455570  0.8336837865684148
  0.6676620304929667  0.0979947905286455  0.9167206985554390
  0.5014520956873995  0.3521251898722010  0.9163913346815568
  0.8323022282332898  0.3519363802531472  0.9161038621155174
  0.0015181774035453  0.6020687082687597  0.9164587422583829
  0.3315960366089967  0.5998367199091367  0.9166800766975814
  0.6654041753799796  0.5997351070322550  0.9170000223678000
  0.1671128217669437  0.8496250164917800  0.9161748392945075
  0.1657175447599586  0.3485536870457518  0.9172705355962564
  0.1658865224130796  0.1825228062852357  0.7494850680790606
  0.0012767762640868  0.7674401258912329  0.8339796946629084
  0.4990396646005624  0.5161725709937540  0.8338446990661371
  0.8339103096476361  0.1843139730263548  0.7496769684154377
  0.0002034321592296  0.4315891041736122  0.7502305264318095
  0.3359341497514804  0.4351526831173005  0.7507227759519008
  0.6645630212470635  0.4341196674500788  0.7502977426436384
  0.1666269229998536  0.6831875702036707  0.7496478452459550
  0.4977059984764061  0.6829849551065797  0.7501737958369763
  0.8343073248625498  0.5164786168928175  0.8340782007784552
  0.8338954176674522  0.6833280073469932  0.7492302890500394
  0.3342410484992668  0.9327939247813263  0.7503964488066949
  0.6651496060896825  0.9340486908050717  0.7498528593239218
 -0.0010786936687037  0.2645885578153986  0.8330532441274782
  0.3348351113260803  0.2684525092024492  0.8334222652089116
  0.6645345186715208  0.2644391174437492  0.8335695210540011
  0.1650512852318927  0.5154489266079862  0.8326392057136289
  0.0008027872165413  0.9352002694520619  0.7505961253231168
  0.1678217096357911  0.1839775196811753  0.5006504938840289
  0.8340128290153361  0.7490168578983136  0.4162438631917946
  0.5018143130103057  0.7510858283011954  0.4163605663375278
  0.3356709416925362  0.6685108294387705  0.0833406992194992
  0.6673074390732691  0.6688732669492992  0.0837781261540193
  0.1676089037316759  0.9146259981768455  0.0836181445812703
  0.4997380090532607  0.9174198395571532  0.0833961223678680
  0.8351999300753300  0.9164516760570185  0.0831755093009236
  0.0001790558421042  0.0021845921063401  0.1660529950924501
  0.0003469181762170  0.6674825968316798  0.0839367355187144
  0.3343976907093274  0.0001768761215359  0.1662575275902362
  0.1653977356456881  0.2513655623843480  0.1661865607501485
  0.4978904783775784  0.2510325205221967  0.1667689238867610
  0.8340584884415622  0.2500698945311417  0.1673069866624073
  0.0014801761510996  0.5021306423865517  0.1659788484961607
  0.3318350372828163  0.5008838759383566  0.1658710378922390
  0.6668020284175507  0.4990780072434364  0.1662168021669850
  0.6666707250873130 -0.0007061743684445  0.1662148256465151
  0.1659386960910711  0.7510654426607425  0.1660012424079973
  0.8346384091450918  0.4164548412122954  0.0826436798089859
  0.1649958942585291  0.4152270904436544  0.0827542506880665
  0.4981809210010978  0.0842030072751868 -0.0005555938571046
  0.8324219902818684  0.0818499858691918  0.0006331516213155
 -0.0007566847155695  0.3352923960664054 -0.0007401052342118
  0.3312885427035502  0.3329223362084868  0.0005252733346205
  0.6646109853811246  0.3331307498929779  0.0001826845201334
  0.1647489580101556  0.5814860526098508 -0.0004926028557532
  0.4979138702166676  0.4155292751357864  0.0839413683032196
  0.5017609896085078  0.5853946687821064 -0.0005806650404252
  0.0003656152565480  0.8336639583972784  0.0000705812142113
  0.3342735456980679  0.8330624362410907 -0.0005852078579846
  0.6657036436628534  0.8345592217378692  0.0001494535954454
 -0.0017849698486429  0.1656172078221704  0.0830073006213544
  0.3328780151130471  0.1673352207125153  0.0828916788839419
  0.6683015958286339  0.1655401762376783  0.0832672570904749
  0.8354287070232836  0.5821926630380176  0.0004205871398533
  0.4985808061150605  0.7509700932779378  0.1673893212924068
  0.8352438599771219  0.7516037301372892  0.1671463345298128
  0.1678362834733400  0.0823129731316584  0.2498870886641788
  0.6674327463840455  0.6658958850949568  0.3329820120301542
  0.1663855783305237  0.9167414467124043  0.3326541166254684
  0.5015313464066892  0.9180267050334182  0.3326327014421476
  0.8341125663689180  0.9175912666618713  0.3334007336124928
 -0.0005067796309165  0.0005369190790612  0.4170317734146824
  0.3332469679640686  0.0003146077525621  0.4171992160900651
  0.3320784591929601  0.6664347366228456  0.3332258713529753
  0.6653717930190411 -0.0011032288362476  0.4171045077947670
  0.5008261657801161  0.2519256623267804  0.4168383297809296
  0.8330693203236523  0.2481478073525521  0.4163738820230977
  0.0006144744839437  0.4995033365272463  0.4168190074656342
  0.3332350977484570  0.5018395396526337  0.4169660512181282
  0.6691301887809444  0.4982668336916495  0.4167886943379859
  0.1646040352132648  0.7488628951246664  0.4165092749826028
  0.1679653229741844  0.2521500741117577  0.4164108623923916
 -0.0004754146141250  0.6653798899520902  0.3327019588171621
  0.8354121486711050  0.4180978945427399  0.3329112984151074
  0.5018575285162282  0.4152846601948882  0.3332795080327201
  0.4994565601288661  0.0832133169717410  0.2504566404409152
  0.8335460315314924  0.0843593528909672  0.2496483319607117
 -0.0025055258854493  0.3345730464722650  0.2507335808169526
  0.3357210190083966  0.3328748357906347  0.2493500343696828
  0.6675779682337931  0.3320472988170134  0.2503913140153704
  0.1641056205735577  0.5834677084765562  0.2507660103847084
  0.5009385426820536  0.5831968642125850  0.2492368737029927
  0.8352406401190653  0.5854506703192718  0.2492924617801996
  0.0004917052968374  0.8354460303686186  0.2495858972108038
  0.3310607086278883  0.8322434965787273  0.2499341223602713
  0.6665128764372485  0.8324805927579858  0.2493369641867197
 -0.0003238340815077  0.1684523009346741  0.3327100919759291
  0.3354349757802864  0.1681351644315601  0.3327879602300328
  0.6680561330707937  0.1681619356445711  0.3341053266765557
  0.1680446913094926  0.4158501132915847  0.3325834076532716
  0.4988261643132448  0.8478251512174934  0.9166278659023481
  0.8352549225960855  0.8509684401296134  0.9161112206898924
