Cu
 1.0000000000000000
     7.6685730419681093    0.0000000000000000    0.0000000000000000
     0.0000000000000000    8.8549054201611881    0.0000000000000000
     0.0000000000000000    0.0000000000000000   25.0454546774459672
 Cu 
 144
Direct
  0.1656184252732855  0.0853609191022374 -0.0003728451116293
  0.7347626619988928  0.6689030093033901  0.5832841107999603
  0.2333424474950803  0.9161838881555974  0.5835874802315449
  0.5668674846943254  0.9187963128705000  0.5836857130456568
  0.8981211911460922  0.9184481845620142  0.5838599792532715
  0.0643875614718824  0.0018335177357399  0.6674321352358681
  0.4014908259528299  0.0020098705731646  0.6666683266823795
  0.3982096835977729  0.6654422415189662  0.5829089027669153
  0.7355153321203748  0.0015565836943847  0.6671283866335639
  0.5672493553687085  0.2481455084952753  0.6672720060807237
  0.8999059187894122  0.2516411991103695  0.6669935317964887
  0.0656639971217421  0.5019115258331712  0.6661563294066917
  0.3997294116800052  0.4996276762403486  0.6665600739166399
  0.7350659046856048  0.4986409396255616  0.6665207268820581
  0.2328077152089672  0.7511806454956005  0.6670501060590189
  0.2346801530688403  0.2520955200151473  0.6664182875030683
  0.5692560545729431  0.7516605003634375  0.6663767049571725
  0.0684152968267959  0.6658791656592810  0.5836911759194550
  0.5642746873988771  0.4160771722319798  0.5831448588764815
  0.8987213965285393  0.0839205410326373  0.5002002588313188
  0.0671580105163468  0.3329626727028955  0.4994094575026991
  0.4000391858914601  0.3317200369928352  0.4996930442356574
  0.7317969245086060  0.3315059523208635  0.4996445067807589
  0.2331173245984421  0.5822544586088368  0.5006612221946845
  0.5655651052967553  0.5818665479179073  0.4998002216108195
  0.8999262673087262  0.4182234175653891  0.5840739510536629
  0.8978283052312571  0.5852433344763444  0.5002987888132107
  0.4026002412622948  0.8326006435936546  0.5007143799533247
  0.7311146832610583  0.8349027595767303  0.4999360630151898
  0.0667676960289444  0.1659275791608486  0.5833003729007176
  0.4008734559866576  0.1684526741803287  0.5841083448410130
  0.7355415121329539  0.1673698259474264  0.5826483337006596
  0.2308728387639415  0.4155460322129351  0.5833804701993205
  0.0661026540258154  0.8354803292182675  0.5004009803638099
  0.5691185061990112  0.0833408731650393  0.5002883789629707
  0.8993156989999254  0.7515880915568048  0.6664559173888193
  0.5680446196588668  0.0847213193309165  0.7505335322050111
  0.7338448497065128  0.6654634735554732  0.8338024557843167
  0.2314022883082527  0.9171253346216606  0.8330123319461342
  0.5670662823003308  0.9154594420780819  0.8329447306187239
  0.9018331880674080  0.9167763931118387  0.8329251736047110
  0.0651107305233821  0.0007310589530992  0.9163854061881513
  0.4013985886610683 -0.0005955265514296  0.9170290457889940
  0.4025762250455892  0.6683469230150381  0.8341201596355990
  0.7337402179792629  0.0005888410889657  0.9174351518019229
  0.5643267330186468  0.2497590972181188  0.9160663364947451
  0.9022260657077773  0.2488124569108847  0.9171574869725627
  0.0687779692709882  0.4990702076529605  0.9159198394344543
  0.4024376284457674  0.5002405765481673  0.9168435594826041
  0.7313083698220652  0.5019969916509006  0.9167934199990490
  0.2342785377183556  0.7499949080692163  0.9162385055050434
  0.2347532112845638  0.2492793428561946  0.9164025382824732
  0.2346750619847830  0.0836979406680095  0.7492578955528360
  0.0686423114673132  0.6674444405866908  0.8335680146255557
  0.5666637917037858  0.4162340702033276  0.8334226485686460
  0.8980007143384410  0.0848391534063657  0.7504975828543149
  0.0688718080084527  0.3352509813212303  0.7505747177872331
  0.4018642033492633  0.3343086412919771  0.7492579464817984
  0.7348843255334565  0.3341359577602802  0.7506609366236887
  0.2318752005575282  0.5826379544714531  0.7499492931725135
  0.5641616469697868  0.5841157511045960  0.7500278867971041
  0.8988642603404516  0.4152057001259037  0.8340185531330857
  0.9015138567131513  0.5835751513231042  0.7506662227456875
  0.4008649199160507  0.8316955595815219  0.7493503926647785
  0.7336778343182975  0.8353871964741862  0.7496894804660492
  0.0641264609965065  0.1686326574592269  0.8340089173499503
  0.4012858571315132  0.1658251257205297  0.8336304500871313
  0.7309280444881473  0.1675668540037491  0.8337077687482937
  0.2339052281665778  0.4152628549660208  0.8325356498979891
  0.0672729311072343  0.8323628949200618  0.7492419726387459
  0.2316405751205900  0.0836054773305997  0.5006048002164990
  0.8326772117486573  0.7490123970745106  0.4173497449879789
  0.4974988764743343  0.7501633894585743  0.4161048219222467
  0.3331958797126643  0.6668437522242532  0.0825388719675368
  0.6682233465709130  0.6650495301027060  0.0827283479233681
  0.1656830539394226  0.9180726304817537  0.0830263822078329
  0.5022480318814047  0.9168574909480027  0.0826673870143706
  0.8307598272499623  0.9167200671990179  0.0827840696654917
 -0.0018288473176401  0.0013136496885340  0.1672082117254462
 -0.0005098656735136  0.6645938939328160  0.0828597496603116
  0.3330472058657873 -0.0004662730367332  0.1665952549271460
  0.1642062986824024  0.2506540838661570  0.1664389516320172
  0.4987880863149361  0.2496995005819214  0.1670296576248908
  0.8323415168943512  0.2517805233332414  0.1660420367728477
 -0.0004392282177367  0.5012416273154287  0.1663792999881479
  0.3314749130501130  0.4987954379309233  0.1669337988655380
  0.6667297174802683  0.5001665331452728  0.1658778348360374
  0.6642102440412940  0.0011506958727757  0.1669192955642361
  0.1643727898566263  0.7491857114720279  0.1667746717372079
  0.8358408878922350  0.4152103827692378  0.0833680953456477
  0.1667587325525141  0.4165721701771848  0.0826299831636440
  0.5003257963548067  0.0812583400918639 -0.0002194952387222
  0.8323461519186656  0.0811738128663303 -0.0004351973205787
 -0.0002776556013410  0.3333751579211098 -0.0004786322592433
  0.3346887912970173  0.3314720344476205  0.0000357644584059
  0.6675493496860097  0.3348782186836437 -0.0002814851184887
  0.1645861166519062  0.5832326826294600  0.0007479891532064
  0.4997196980999980  0.4159201570915170  0.0833410217741273
  0.5005941648431569  0.5816871901504981 -0.0004586474657460
  0.0011354853364890  0.8343588052176671  0.0005727066717049
  0.3324508057185575  0.8326669115588554 -0.0007708508182742
  0.6651180034134037  0.8312458064916933 -0.0001346321175665
  0.0024820432953639  0.1667186974397251  0.0841210304617049
  0.3346888328858377  0.1687433213287791  0.0830842402190843
  0.6677226588702345  0.1666416416321883  0.0834021746301506
  0.8328527715170011  0.5817099203921759  0.0002587089567861
  0.4994250043705205  0.7485590170359004  0.1659610450685906
  0.8317947172287929  0.7488370982880364  0.1661424951134520
  0.1671254430697731  0.0828915642581675  0.2495627302054675
  0.6688284954120877  0.6653466158242110  0.3337568828503791
  0.1688188465071224  0.9177121182560699  0.3340008850225367
  0.5017285614433807  0.9148237419603280  0.3331596556423950
  0.8326363409586143  0.9183807459772546  0.3339043618184008
 -0.0001214871668321  0.0006504479027145  0.4166397734254727
  0.3316830407556000  0.0014440206000390  0.4172676178523145
  0.3344285613763728  0.6646278017034467  0.3326938999185587
  0.6649198684529107  0.0004837311320652  0.4160168125161915
  0.4998641019287811  0.2480116206272219  0.4158757725146672
  0.8318185758885700  0.2478850553112080  0.4160443355642215
 -0.0023592550177663  0.5011754291232923  0.4173086046860139
  0.3313032393265370  0.5020714861606963  0.4166564726272076
  0.6682505052626012  0.4981230911678544  0.4167390981133496
  0.1662416884435691  0.7509249766111489  0.4163445836259558
  0.1651860102729397  0.2513295634931973  0.4174564138627225
 -0.0006610257981506  0.6678250034529730  0.3326567499251246
  0.8334352689966958  0.4153448574439805  0.3327998979044769
  0.5011050703695162  0.4173380732305705  0.3339254102141428
  0.5017240572162871  0.0854928468063946  0.2497537572946709
  0.8322331541357435  0.0830090818123868  0.2493587097352171
 -0.0015221391524647  0.3344681042341813  0.2492382880295375
  0.3326522469865312  0.3319829251024340  0.2495567983158301
  0.6687038691213950  0.3347499018300423  0.2497631641948121
  0.1661812090974174  0.5834498201282845  0.2499964646859389
  0.4994565238281519  0.5844402634374161  0.2495657790452310
  0.8325255417060528  0.5849632940730766  0.2499127963798937
  0.0011664905136311  0.8319008339168741  0.2503515513544204
  0.3336203481861408  0.8335025253817016  0.2497220456619968
  0.6668411447727713  0.8327476685026635  0.2500502624510456
 -0.0008474881810408  0.1667446573764531  0.3337108177273534
  0.3335509436202780  0.1644145020769374  0.3327309907688711
  0.6653757372575628  0.1672354123256159  0.3336859881128574
  0.1681665329992940  0.4182292695248800  0.3332725022278530
  0.5650032264602467  0.7495727075729023  0.9161633253165394
  0.8985726446980344  0.7519884178058959  0.9161466107606137
