Cu
 1.0000000000000000
     7.6685730419681093    0.0000000000000000    0.0000000000000000
     0.0000000000000000    8.8549054201611881    0.0000000000000000
     0.0000000000000000    0.0000000000000000   25.0454546774459672
 Cu 
 144
Direct
  0.1670585847898765  0.0840399455527557 -0.0007553662764792
  0.6668110038704728  0.6688382114873790  0.5834910066064889
  0.1656981357986860  0.9187320756619795  0.5831239292821773
  0.4976644977628701  0.9186714732917942  0.5829086603030840
  0.8330889654204318  0.9174456576888904  0.5834890325102337
 -0.0024511562176649 -0.0002392300169611  0.6665333899004493
  0.3311952949492838 -0.0003109838510732  0.6663607090658298
  0.3318967801814196  0.6672112183867556  0.5835016037936435
  0.6668034258213771 -0.0011401861772574  0.6664345946273788
  0.4990988551807294  0.2503966240275097  0.6663575907732703
  0.8356689423688501  0.2500746607259374  0.6671512084390201
  0.0023690687223893  0.4999941595615987  0.6671242740256059
  0.3343979184059107  0.5000039899250703  0.6667917263417568
  0.6654598890220892  0.4984638704254562  0.6673687559439990
  0.1652030188274989  0.7500184644482996  0.6659057337311989
  0.1649195958724872  0.2495345579843627  0.6667505170376328
  0.4975374265129751  0.7482324073266835  0.6671355993552747
  0.0022114723604249  0.6686200034490135  0.5839896282385391
  0.4976036102589402  0.4187555817887148  0.5834663969470815
  0.8316463407247976  0.0830488152742260  0.5000695161934191
 -0.0015644251805386  0.3352346930847324  0.5003117609721308
  0.3309027834597374  0.3348845520609261  0.5001482195976547
  0.6654781807620777  0.3354296879297441  0.4998794686130758
  0.1648937567425127  0.5842981275893842  0.4993457599377539
  0.5010011732385092  0.5854316318299170  0.4999633036996366
  0.8332444402089978  0.4167356615149981  0.5831694009832123
  0.8314856149848229  0.5826624978328859  0.5002363814787431
  0.3342407079878869  0.8342408302410886  0.4997277524223291
  0.6685025489765890  0.8355032109684800  0.4999704265939746
  0.0008570248454691  0.1671513336304102  0.5833808777243937
  0.3313102597446764  0.1671073811764457  0.5840484770083443
  0.6667871177497682  0.1667544250885873  0.5836791370225833
  0.1683152794496114  0.4164558940551112  0.5840016460077379
  0.0020077037239603  0.8334553486390488  0.4992041194091741
  0.5025763924866909  0.0825326071144805  0.4994573788668737
  0.8354547346805431  0.7516722437894229  0.6670479447547463
  0.4990239309023577  0.0817305740789529  0.7505547194581388
  0.6651905611444233  0.6686011843975417  0.8330164370936676
  0.1690159729236106  0.9166651164297427  0.8327530452717138
  0.5016525254926371  0.9180509101243639  0.8335435190068377
  0.8331815955173224  0.9179881272656207  0.8328216544408795
 -0.0014846760023218  0.0021735722144450  0.9166376295289805
  0.3318073610483641 -0.0014245981860980  0.9170166552517898
  0.3350749147555502  0.6645773938991113  0.8326897027046160
  0.6671833791689376  0.0020994273317778  0.9161784579561844
  0.4998079510993720  0.2479691855090139  0.9168486069333178
  0.8355156324112715  0.2494267641407169  0.9168695389588426
 -0.0014177273453185  0.4997329834008764  0.9161096806104821
  0.3357984275975554  0.4977798174527042  0.9159395144590943
  0.6645254565894847  0.5015786540880132  0.9162875428833106
  0.1642179256390816  0.7487854138351596  0.9170136922772879
  0.1660107865521713  0.2508543426533602  0.9162597007405340
  0.1680432224072161  0.0846534340728751  0.7500568528417038
 -0.0002436628428728  0.6646042835147319  0.8325702511633395
  0.4997195942083352  0.4171403054849452  0.8330309472418124
  0.8342588176732298  0.0817496626176595  0.7502067415321050
 -0.0025083361247851  0.3354330033287506  0.7507788866880702
  0.3338358468433788  0.3318679587908837  0.7504653873825151
  0.6671462473411640  0.3350246396330538  0.7497967302665078
  0.1685246610546461  0.5815156947419896  0.7504114240338344
  0.4989123232444960  0.5845347025787335  0.7503218197070233
  0.8339173929186481  0.4145284861669795  0.8328954974870670
  0.8350587630634382  0.5844333180239990  0.7498767014164432
  0.3317626765655181  0.8342840632292625  0.7504951444495516
  0.6648007590194663  0.8326486127930335  0.7495776461256562
  0.0012917933821177  0.1686042701883003  0.8331893387703241
  0.3311620215908683  0.1652915060824813  0.8329856034637564
  0.6653910268478327  0.1681291173609270  0.8328493703684574
  0.1688166473440806  0.4153026900933097  0.8328796355189668
  0.0020874171199426  0.8324953981385422  0.7507784658746283
  0.1650961219121675  0.0843989290817559  0.4993686050772814
  0.8347617157714834  0.7514478774314194  0.4164349943406727
  0.4979973389100842  0.7492236395666371  0.4171693951982400
  0.3349961406078012  0.6671868722627754  0.0828789402822142
  0.6645810915624661  0.6668817240433745  0.0830944571719083
  0.1667339950150794  0.9172377105438686  0.0830649975955805
  0.4976032520197416  0.9180009351248181  0.0827217215247153
  0.8325756968863994  0.9176021909858968  0.0826288509045748
 -0.0002768219919605  0.0018423236617848  0.1670967068248900
  0.0010633831867753  0.6659847512019791  0.0833279859708601
  0.3331319947971989 -0.0020998082497328  0.1672399528184051
  0.1653321170596232  0.2503065966572647  0.1668963630229107
  0.5008468947771312  0.2483878777705967  0.1668820841443939
  0.8307756097256438  0.2480323622819763  0.1673796642538662
 -0.0016211200655782  0.5020652452879453  0.1665096193210657
  0.3339931056192615  0.5007451782432020  0.1667806849772170
  0.6689790862995554  0.4990556018204308  0.1669609595692428
  0.6678105331794741  0.0009611335303108  0.1670557241414321
  0.1681944251233030  0.7489465453803956  0.1670123735592877
  0.8354482490296069  0.4162840152325143  0.0829490002958911
  0.1667592798937163  0.4178298877525067  0.0837140216029776
  0.5000342031227079  0.0839981330970404 -0.0003688484318935
  0.8357403424610313  0.0829272959571522  0.0000563215802434
 -0.0022845032323261  0.3315507435452456  0.0000689844101268
  0.3319960637445737  0.3344279355550172 -0.0007949486994311
  0.6659742150176939  0.3327324306263874 -0.0006968145962889
  0.1646719254267580  0.5845883246993550 -0.0000116330504560
  0.4975838260993479  0.4184493142221478  0.0832559960954648
  0.4987848011917759  0.5849957808186902  0.0003120184809723
 -0.0000348995116447  0.8317576870432523  0.0001134334981097
  0.3338791034275094  0.8325736902835965 -0.0001618199240857
  0.6653719246309207  0.8340535760170179 -0.0005404434772359
 -0.0017793644254135  0.1647988111000635  0.0837821690307407
  0.3351120897796955  0.1687377584925480  0.0840105893533136
  0.6653703928836342  0.1663737852283340  0.0833700712654493
  0.8337036927317537  0.5831334125425619 -0.0003177810291909
  0.4993298413318450  0.7496127789341535  0.1671653104427908
  0.8332265349686377  0.7481366040750027  0.1667908157427867
  0.1680185672351416  0.0837015836376687  0.2505325626647705
  0.6655797775309049  0.6648269730656993  0.3330468597159753
  0.1676531295169832  0.9159953289722655  0.3332407071224909
  0.5019169742933338  0.9146724296964446  0.3327906713267483
  0.8329643807613946  0.9153370904884860  0.3339476369175738
 -0.0018313494813841 -0.0012038537327708  0.4171746470970974
  0.3308523305034788 -0.0011261845309229  0.4163975801397757
  0.3345928806986559  0.6669112307177034  0.3328774302345275
  0.6686484575087563  0.0012608606958865  0.4168198675341993
  0.4999452499673665  0.2505728351255415  0.4160762672162648
  0.8332721194382797  0.2487128370768758  0.4169550595642607
  0.0014825312419642  0.4998967342818438  0.4173786505215354
  0.3346840350283664  0.5008825769841820  0.4166645424990469
  0.6655922976943565  0.4992752171752066  0.4168137643525343
  0.1680210799910216  0.7502574643854080  0.4161984845370325
  0.1676138936159116  0.2491939729739755  0.4159469469954326
 -0.0012026849447011  0.6668097326002510  0.3330916795230652
  0.8357766402631308  0.4145453163224969  0.3334615453741451
  0.4976011740744695  0.4166670342415881  0.3334685959867651
  0.5013445561731417  0.0827183239699886  0.2506131046790246
  0.8319775273424704  0.0818014897756806  0.2498551504251976
  0.0011900075411498  0.3343691925847651  0.2499918357442038
  0.3346523341776400  0.3337066022753275  0.2496389816009708
  0.6683006682158680  0.3332059683542842  0.2503353198373582
  0.1643094028571686  0.5816295288502694  0.2492103185302635
  0.4975004912308611  0.5841691321690645  0.2498428489666825
  0.8309866523320374  0.5826019402038488  0.2498450018069240
  0.0008849210402225  0.8347937744882563  0.2493390468632167
  0.3338104755487256  0.8347119908410922  0.2492154056007244
  0.6677480385841562  0.8347414417357624  0.2492399437996624
  0.0009117380097339  0.1669199285128194  0.3341069057743495
  0.3339728713230970  0.1664966839640536  0.3330153992530442
  0.6651967955227144  0.1674725480521120  0.3329311544214663
  0.1676380038527605  0.4181807756338540  0.3338852469283331
  0.4975703656884042  0.7514778115586047  0.9171299261087466
  0.8352353713104013  0.7488701950553248  0.9174497631914019
