Cu
 1.0000000000000000
     7.6685730419681093    0.0000000000000000    0.0000000000000000
     5.1123820279787395    8.8549054201611881    0.0000000000000000
     0.0000000000000000    0.0000000000000000   81.3977277016993952
 Cu 
 468
Direct
  0.0000000000000000  0.0000000000000000  0.0000000000000000
  0.3333333333333334  0.4999999999999999  0.6666666666666667
  0.0000000000000000  0.4999999999999999  0.6666666666666667
  0.6666666666666666  0.2500000000000000  0.6666666666666667
  0.3333333333333333  0.2500000000000000  0.6666666666666667
  0.0000000000000000  0.2500000000000000  0.6666666666666667
  0.6666666666666666  0.0000000000000000  0.6666666666666667
  0.3333333333333333  0.0000000000000000  0.6666666666666667
  0.0000000000000000  0.0000000000000000  0.6666666666666667
  0.8888888888888888  0.9166666666666666  0.6410256410256411
  0.5555555555555556  0.9166666666666666  0.6410256410256411
  0.2222222222222223  0.9166666666666666  0.6410256410256411
  0.8888888888888888  0.6666666666666666  0.6410256410256411
  0.5555555555555556  0.6666666666666666  0.6410256410256411
  0.2222222222222222  0.6666666666666666  0.6410256410256411
  0.8888888888888887  0.4166666666666667  0.6410256410256411
  0.5555555555555555  0.4166666666666667  0.6410256410256411
  0.2222222222222222  0.4166666666666667  0.6410256410256411
  0.8888888888888886  0.1666666666666667  0.6410256410256411
  0.5555555555555555  0.1666666666666667  0.6410256410256411
  0.2222222222222222  0.1666666666666667  0.6410256410256411
  0.6666666666666666  0.7500000000000000  0.6153846153846155
  0.3333333333333333  0.7500000000000000  0.6153846153846155
  0.0000000000000000  0.7500000000000000  0.6153846153846155
  0.6666666666666666  0.4999999999999999  0.6153846153846155
  0.3333333333333334  0.4999999999999999  0.6153846153846155
  0.6666666666666666  0.4999999999999999  0.6666666666666667
  0.0000000000000000  0.4999999999999999  0.6153846153846155
  0.0000000000000000  0.7500000000000000  0.6666666666666667
  0.6666666666666666  0.7500000000000000  0.6666666666666667
  0.0000000000000000  0.0000000000000000  0.7435897435897436
  0.8888888888888888  0.9166666666666666  0.7179487179487180
  0.5555555555555556  0.9166666666666666  0.7179487179487180
  0.2222222222222223  0.9166666666666666  0.7179487179487180
  0.8888888888888888  0.6666666666666666  0.7179487179487180
  0.5555555555555556  0.6666666666666666  0.7179487179487180
  0.2222222222222222  0.6666666666666666  0.7179487179487180
  0.8888888888888887  0.4166666666666667  0.7179487179487180
  0.5555555555555555  0.4166666666666667  0.7179487179487180
  0.2222222222222222  0.4166666666666667  0.7179487179487180
  0.8888888888888886  0.1666666666666667  0.7179487179487180
  0.5555555555555555  0.1666666666666667  0.7179487179487180
  0.2222222222222222  0.1666666666666667  0.7179487179487180
  0.7777777777777778  0.8333333333333333  0.6923076923076923
  0.4444444444444444  0.8333333333333333  0.6923076923076923
  0.1111111111111111  0.8333333333333333  0.6923076923076923
  0.7777777777777778  0.5833333333333333  0.6923076923076923
  0.4444444444444444  0.5833333333333333  0.6923076923076923
  0.1111111111111111  0.5833333333333333  0.6923076923076923
  0.7777777777777778  0.3333333333333333  0.6923076923076923
  0.4444444444444444  0.3333333333333333  0.6923076923076923
  0.1111111111111111  0.3333333333333333  0.6923076923076923
  0.7777777777777778  0.0833333333333333  0.6923076923076923
  0.4444444444444443  0.0833333333333333  0.6923076923076923
  0.1111111111111111  0.0833333333333333  0.6923076923076923
  0.3333333333333333  0.7500000000000000  0.6666666666666667
  0.6666666666666666  0.2500000000000000  0.6153846153846155
  0.3333333333333333  0.2500000000000000  0.6153846153846155
  0.0000000000000000  0.2500000000000000  0.6153846153846155
  0.6666666666666666  0.4999999999999999  0.5384615384615385
  0.3333333333333334  0.4999999999999999  0.5384615384615385
  0.0000000000000000  0.4999999999999999  0.5384615384615385
  0.6666666666666666  0.2500000000000000  0.5384615384615385
  0.3333333333333333  0.2500000000000000  0.5384615384615385
  0.0000000000000000  0.2500000000000000  0.5384615384615385
  0.6666666666666666  0.0000000000000000  0.5384615384615385
  0.3333333333333333  0.0000000000000000  0.5384615384615385
  0.0000000000000000  0.0000000000000000  0.5384615384615385
  0.7777777777777778  0.8333333333333333  0.5128205128205129
  0.4444444444444444  0.8333333333333333  0.5128205128205129
  0.1111111111111111  0.8333333333333333  0.5128205128205129
  0.7777777777777778  0.5833333333333333  0.5128205128205129
  0.4444444444444444  0.5833333333333333  0.5128205128205129
  0.1111111111111111  0.5833333333333333  0.5128205128205129
  0.7777777777777778  0.3333333333333333  0.5128205128205129
  0.4444444444444444  0.3333333333333333  0.5128205128205129
  0.1111111111111111  0.3333333333333333  0.5128205128205129
  0.7777777777777778  0.0833333333333333  0.5128205128205129
  0.4444444444444443  0.0833333333333333  0.5128205128205129
  0.1111111111111111  0.0833333333333333  0.5128205128205129
  0.8888888888888888  0.9166666666666666  0.4871794871794872
  0.5555555555555556  0.9166666666666666  0.4871794871794872
  0.2222222222222223  0.9166666666666666  0.4871794871794872
  0.8888888888888888  0.6666666666666666  0.4871794871794872
  0.0000000000000000  0.7500000000000000  0.5384615384615385
  0.3333333333333333  0.7500000000000000  0.5384615384615385
  0.6666666666666666  0.7500000000000000  0.5384615384615385
  0.2222222222222222  0.1666666666666667  0.5641025641025643
  0.6666666666666666  0.0000000000000000  0.6153846153846155
  0.3333333333333333  0.0000000000000000  0.6153846153846155
  0.0000000000000000  0.0000000000000000  0.6153846153846155
  0.7777777777777778  0.8333333333333333  0.5897435897435899
  0.4444444444444444  0.8333333333333333  0.5897435897435899
  0.1111111111111111  0.8333333333333333  0.5897435897435899
  0.7777777777777778  0.5833333333333333  0.5897435897435899
  0.4444444444444444  0.5833333333333333  0.5897435897435899
  0.1111111111111111  0.5833333333333333  0.5897435897435899
  0.7777777777777778  0.3333333333333333  0.5897435897435899
  0.4444444444444444  0.3333333333333333  0.5897435897435899
  0.1111111111111111  0.3333333333333333  0.5897435897435899
  0.3333333333333333  0.0000000000000000  0.7435897435897436
  0.7777777777777778  0.0833333333333333  0.5897435897435899
  0.1111111111111111  0.0833333333333333  0.5897435897435899
  0.8888888888888888  0.9166666666666666  0.5641025641025643
  0.5555555555555556  0.9166666666666666  0.5641025641025643
  0.2222222222222223  0.9166666666666666  0.5641025641025643
  0.8888888888888888  0.6666666666666666  0.5641025641025643
  0.5555555555555556  0.6666666666666666  0.5641025641025643
  0.2222222222222222  0.6666666666666666  0.5641025641025643
  0.8888888888888887  0.4166666666666667  0.5641025641025643
  0.5555555555555555  0.4166666666666667  0.5641025641025643
  0.2222222222222222  0.4166666666666667  0.5641025641025643
  0.8888888888888886  0.1666666666666667  0.5641025641025643
  0.5555555555555555  0.1666666666666667  0.5641025641025643
  0.4444444444444443  0.0833333333333333  0.5897435897435899
  0.5555555555555556  0.6666666666666666  0.4871794871794872
  0.6666666666666666  0.0000000000000000  0.7435897435897436
  0.3333333333333333  0.2500000000000000  0.7435897435897436
  0.4444444444444444  0.3333333333333333  0.9230769230769231
  0.1111111111111111  0.3333333333333333  0.9230769230769231
  0.7777777777777778  0.0833333333333333  0.9230769230769231
  0.4444444444444443  0.0833333333333333  0.9230769230769231
  0.1111111111111111  0.0833333333333333  0.9230769230769231
  0.6666666666666666  0.7500000000000000  0.8974358974358975
  0.3333333333333333  0.7500000000000000  0.8974358974358975
  0.0000000000000000  0.7500000000000000  0.8974358974358975
  0.6666666666666666  0.4999999999999999  0.8974358974358975
  0.3333333333333334  0.4999999999999999  0.8974358974358975
  0.0000000000000000  0.4999999999999999  0.8974358974358975
  0.6666666666666666  0.2500000000000000  0.8974358974358975
  0.3333333333333333  0.2500000000000000  0.8974358974358975
  0.0000000000000000  0.2500000000000000  0.8974358974358975
  0.6666666666666666  0.0000000000000000  0.8974358974358975
  0.3333333333333333  0.0000000000000000  0.8974358974358975
  0.0000000000000000  0.0000000000000000  0.8974358974358975
  0.8888888888888888  0.9166666666666666  0.8717948717948719
  0.5555555555555556  0.9166666666666666  0.8717948717948719
  0.2222222222222223  0.9166666666666666  0.8717948717948719
  0.8888888888888888  0.6666666666666666  0.8717948717948719
  0.5555555555555556  0.6666666666666666  0.8717948717948719
  0.2222222222222222  0.6666666666666666  0.8717948717948719
  0.8888888888888887  0.4166666666666667  0.8717948717948719
  0.5555555555555555  0.4166666666666667  0.8717948717948719
  0.7777777777777778  0.3333333333333333  0.9230769230769231
  0.2222222222222222  0.4166666666666667  0.8717948717948719
  0.1111111111111111  0.5833333333333333  0.9230769230769231
  0.7777777777777778  0.5833333333333333  0.9230769230769231
  0.0000000000000000  0.7500000000000000  0.9743589743589745
  0.6666666666666666  0.4999999999999999  0.9743589743589745
  0.3333333333333334  0.4999999999999999  0.9743589743589745
  0.0000000000000000  0.4999999999999999  0.9743589743589745
  0.6666666666666666  0.2500000000000000  0.9743589743589745
  0.3333333333333333  0.2500000000000000  0.9743589743589745
  0.0000000000000000  0.2500000000000000  0.9743589743589745
  0.6666666666666666  0.0000000000000000  0.9743589743589745
  0.3333333333333333  0.0000000000000000  0.9743589743589745
  0.0000000000000000  0.0000000000000000  0.9743589743589745
  0.8888888888888888  0.9166666666666666  0.9487179487179487
  0.5555555555555556  0.9166666666666666  0.9487179487179487
  0.2222222222222223  0.9166666666666666  0.9487179487179487
  0.8888888888888888  0.6666666666666666  0.9487179487179487
  0.5555555555555556  0.6666666666666666  0.9487179487179487
  0.2222222222222222  0.6666666666666666  0.9487179487179487
  0.8888888888888887  0.4166666666666667  0.9487179487179487
  0.5555555555555555  0.4166666666666667  0.9487179487179487
  0.2222222222222222  0.4166666666666667  0.9487179487179487
  0.8888888888888886  0.1666666666666667  0.9487179487179487
  0.5555555555555555  0.1666666666666667  0.9487179487179487
  0.2222222222222222  0.1666666666666667  0.9487179487179487
  0.7777777777777778  0.8333333333333333  0.9230769230769231
  0.4444444444444444  0.8333333333333333  0.9230769230769231
  0.1111111111111111  0.8333333333333333  0.9230769230769231
  0.4444444444444444  0.5833333333333333  0.9230769230769231
  0.8888888888888886  0.1666666666666667  0.8717948717948719
  0.5555555555555555  0.1666666666666667  0.8717948717948719
  0.2222222222222222  0.1666666666666667  0.8717948717948719
  0.8888888888888887  0.4166666666666667  0.7948717948717950
  0.5555555555555555  0.4166666666666667  0.7948717948717950
  0.2222222222222222  0.4166666666666667  0.7948717948717950
  0.8888888888888886  0.1666666666666667  0.7948717948717950
  0.5555555555555555  0.1666666666666667  0.7948717948717950
  0.2222222222222222  0.1666666666666667  0.7948717948717950
  0.7777777777777778  0.8333333333333333  0.7692307692307693
  0.4444444444444444  0.8333333333333333  0.7692307692307693
  0.1111111111111111  0.8333333333333333  0.7692307692307693
  0.7777777777777778  0.5833333333333333  0.7692307692307693
  0.4444444444444444  0.5833333333333333  0.7692307692307693
  0.1111111111111111  0.5833333333333333  0.7692307692307693
  0.7777777777777778  0.3333333333333333  0.7692307692307693
  0.4444444444444444  0.3333333333333333  0.7692307692307693
  0.1111111111111111  0.3333333333333333  0.7692307692307693
  0.7777777777777778  0.0833333333333333  0.7692307692307693
  0.4444444444444443  0.0833333333333333  0.7692307692307693
  0.1111111111111111  0.0833333333333333  0.7692307692307693
  0.6666666666666666  0.7500000000000000  0.7435897435897436
  0.3333333333333333  0.7500000000000000  0.7435897435897436
  0.0000000000000000  0.7500000000000000  0.7435897435897436
  0.6666666666666666  0.4999999999999999  0.7435897435897436
  0.3333333333333334  0.4999999999999999  0.7435897435897436
  0.0000000000000000  0.4999999999999999  0.7435897435897436
  0.6666666666666666  0.2500000000000000  0.7435897435897436
  0.2222222222222222  0.6666666666666666  0.7948717948717950
  0.5555555555555556  0.6666666666666666  0.7948717948717950
  0.8888888888888888  0.6666666666666666  0.7948717948717950
  0.2222222222222223  0.9166666666666666  0.7948717948717950
  0.7777777777777778  0.8333333333333333  0.8461538461538461
  0.4444444444444444  0.8333333333333333  0.8461538461538461
  0.1111111111111111  0.8333333333333333  0.8461538461538461
  0.7777777777777778  0.5833333333333333  0.8461538461538461
  0.4444444444444444  0.5833333333333333  0.8461538461538461
  0.1111111111111111  0.5833333333333333  0.8461538461538461
  0.7777777777777778  0.3333333333333333  0.8461538461538461
  0.4444444444444444  0.3333333333333333  0.8461538461538461
  0.1111111111111111  0.3333333333333333  0.8461538461538461
  0.7777777777777778  0.0833333333333333  0.8461538461538461
  0.4444444444444443  0.0833333333333333  0.8461538461538461
  0.1111111111111111  0.0833333333333333  0.8461538461538461
  0.0000000000000000  0.2500000000000000  0.7435897435897436
  0.6666666666666666  0.7500000000000000  0.8205128205128206
  0.0000000000000000  0.7500000000000000  0.8205128205128206
  0.6666666666666666  0.4999999999999999  0.8205128205128206
  0.3333333333333334  0.4999999999999999  0.8205128205128206
  0.0000000000000000  0.4999999999999999  0.8205128205128206
  0.6666666666666666  0.2500000000000000  0.8205128205128206
  0.3333333333333333  0.2500000000000000  0.8205128205128206
  0.0000000000000000  0.2500000000000000  0.8205128205128206
  0.6666666666666666  0.0000000000000000  0.8205128205128206
  0.3333333333333333  0.0000000000000000  0.8205128205128206
  0.0000000000000000  0.0000000000000000  0.8205128205128206
  0.8888888888888888  0.9166666666666666  0.7948717948717950
  0.5555555555555556  0.9166666666666666  0.7948717948717950
  0.3333333333333333  0.7500000000000000  0.8205128205128206
  0.2222222222222222  0.6666666666666666  0.4871794871794872
  0.8888888888888887  0.4166666666666667  0.4871794871794872
  0.5555555555555555  0.4166666666666667  0.4871794871794872
  0.1111111111111111  0.0833333333333333  0.1794871794871795
  0.6666666666666666  0.7500000000000000  0.1538461538461539
  0.3333333333333333  0.7500000000000000  0.1538461538461539
  0.0000000000000000  0.7500000000000000  0.1538461538461539
  0.6666666666666666  0.4999999999999999  0.1538461538461539
  0.3333333333333334  0.4999999999999999  0.1538461538461539
  0.0000000000000000  0.4999999999999999  0.1538461538461539
  0.6666666666666666  0.2500000000000000  0.1538461538461539
  0.3333333333333333  0.2500000000000000  0.1538461538461539
  0.0000000000000000  0.2500000000000000  0.1538461538461539
  0.6666666666666666  0.0000000000000000  0.1538461538461539
  0.3333333333333333  0.0000000000000000  0.1538461538461539
  0.0000000000000000  0.0000000000000000  0.1538461538461539
  0.8888888888888888  0.9166666666666666  0.1282051282051282
  0.5555555555555556  0.9166666666666666  0.1282051282051282
  0.2222222222222223  0.9166666666666666  0.1282051282051282
  0.8888888888888888  0.6666666666666666  0.1282051282051282
  0.5555555555555556  0.6666666666666666  0.1282051282051282
  0.2222222222222222  0.6666666666666666  0.1282051282051282
  0.8888888888888887  0.4166666666666667  0.1282051282051282
  0.5555555555555555  0.4166666666666667  0.1282051282051282
  0.2222222222222222  0.4166666666666667  0.1282051282051282
  0.8888888888888886  0.1666666666666667  0.1282051282051282
  0.5555555555555555  0.1666666666666667  0.1282051282051282
  0.2222222222222222  0.1666666666666667  0.1282051282051282
  0.4444444444444443  0.0833333333333333  0.1794871794871795
  0.7777777777777778  0.8333333333333333  0.1025641025641026
  0.7777777777777778  0.0833333333333333  0.1794871794871795
  0.4444444444444444  0.3333333333333333  0.1794871794871795
  0.6666666666666666  0.2500000000000000  0.2307692307692308
  0.3333333333333333  0.2500000000000000  0.2307692307692308
  0.0000000000000000  0.2500000000000000  0.2307692307692308
  0.6666666666666666  0.0000000000000000  0.2307692307692308
  0.3333333333333333  0.0000000000000000  0.2307692307692308
  0.0000000000000000  0.0000000000000000  0.2307692307692308
  0.8888888888888888  0.9166666666666666  0.2051282051282051
  0.5555555555555556  0.9166666666666666  0.2051282051282051
  0.2222222222222223  0.9166666666666666  0.2051282051282051
  0.8888888888888888  0.6666666666666666  0.2051282051282051
  0.5555555555555556  0.6666666666666666  0.2051282051282051
  0.2222222222222222  0.6666666666666666  0.2051282051282051
  0.8888888888888887  0.4166666666666667  0.2051282051282051
  0.5555555555555555  0.4166666666666667  0.2051282051282051
  0.2222222222222222  0.4166666666666667  0.2051282051282051
  0.8888888888888886  0.1666666666666667  0.2051282051282051
  0.5555555555555555  0.1666666666666667  0.2051282051282051
  0.2222222222222222  0.1666666666666667  0.2051282051282051
  0.7777777777777778  0.8333333333333333  0.1794871794871795
  0.4444444444444444  0.8333333333333333  0.1794871794871795
  0.1111111111111111  0.8333333333333333  0.1794871794871795
  0.7777777777777778  0.5833333333333333  0.1794871794871795
  0.4444444444444444  0.5833333333333333  0.1794871794871795
  0.1111111111111111  0.5833333333333333  0.1794871794871795
  0.7777777777777778  0.3333333333333333  0.1794871794871795
  0.1111111111111111  0.3333333333333333  0.1794871794871795
  0.4444444444444444  0.8333333333333333  0.1025641025641026
  0.1111111111111111  0.8333333333333333  0.1025641025641026
  0.7777777777777778  0.5833333333333333  0.1025641025641026
  0.5555555555555555  0.1666666666666667  0.0512820512820513
  0.2222222222222222  0.1666666666666667  0.0512820512820513
  0.7777777777777778  0.8333333333333333  0.0256410256410256
  0.4444444444444444  0.8333333333333333  0.0256410256410256
  0.1111111111111111  0.8333333333333333  0.0256410256410256
  0.7777777777777778  0.5833333333333333  0.0256410256410256
  0.4444444444444444  0.5833333333333333  0.0256410256410256
  0.1111111111111111  0.5833333333333333  0.0256410256410256
  0.7777777777777778  0.3333333333333333  0.0256410256410256
  0.4444444444444444  0.3333333333333333  0.0256410256410256
  0.1111111111111111  0.3333333333333333  0.0256410256410256
  0.7777777777777778  0.0833333333333333  0.0256410256410256
  0.4444444444444443  0.0833333333333333  0.0256410256410256
  0.1111111111111111  0.0833333333333333  0.0256410256410256
  0.6666666666666666  0.7500000000000000  0.0000000000000000
  0.3333333333333333  0.7500000000000000  0.0000000000000000
  0.0000000000000000  0.7500000000000000  0.0000000000000000
  0.6666666666666666  0.4999999999999999  0.0000000000000000
  0.3333333333333334  0.4999999999999999  0.0000000000000000
  0.0000000000000000  0.4999999999999999  0.0000000000000000
  0.6666666666666666  0.2500000000000000  0.0000000000000000
  0.3333333333333333  0.2500000000000000  0.0000000000000000
  0.0000000000000000  0.2500000000000000  0.0000000000000000
  0.6666666666666666  0.0000000000000000  0.0000000000000000
  0.3333333333333333  0.0000000000000000  0.0000000000000000
  0.8888888888888886  0.1666666666666667  0.0512820512820513
  0.2222222222222222  0.4166666666666667  0.0512820512820513
  0.5555555555555555  0.4166666666666667  0.0512820512820513
  0.8888888888888887  0.4166666666666667  0.0512820512820513
  0.4444444444444444  0.5833333333333333  0.1025641025641026
  0.1111111111111111  0.5833333333333333  0.1025641025641026
  0.7777777777777778  0.3333333333333333  0.1025641025641026
  0.4444444444444444  0.3333333333333333  0.1025641025641026
  0.1111111111111111  0.3333333333333333  0.1025641025641026
  0.7777777777777778  0.0833333333333333  0.1025641025641026
  0.4444444444444443  0.0833333333333333  0.1025641025641026
  0.1111111111111111  0.0833333333333333  0.1025641025641026
  0.6666666666666666  0.7500000000000000  0.0769230769230769
  0.3333333333333333  0.7500000000000000  0.0769230769230769
  0.0000000000000000  0.7500000000000000  0.0769230769230769
  0.6666666666666666  0.4999999999999999  0.0769230769230769
  0.0000000000000000  0.4999999999999999  0.2307692307692308
  0.3333333333333334  0.4999999999999999  0.0769230769230769
  0.6666666666666666  0.2500000000000000  0.0769230769230769
  0.3333333333333333  0.2500000000000000  0.0769230769230769
  0.0000000000000000  0.2500000000000000  0.0769230769230769
  0.6666666666666666  0.0000000000000000  0.0769230769230769
  0.3333333333333333  0.0000000000000000  0.0769230769230769
  0.0000000000000000  0.0000000000000000  0.0769230769230769
  0.8888888888888888  0.9166666666666666  0.0512820512820513
  0.5555555555555556  0.9166666666666666  0.0512820512820513
  0.2222222222222223  0.9166666666666666  0.0512820512820513
  0.8888888888888888  0.6666666666666666  0.0512820512820513
  0.5555555555555556  0.6666666666666666  0.0512820512820513
  0.2222222222222222  0.6666666666666666  0.0512820512820513
  0.0000000000000000  0.4999999999999999  0.0769230769230769
  0.3333333333333334  0.4999999999999999  0.2307692307692308
  0.6666666666666666  0.4999999999999999  0.2307692307692308
  0.0000000000000000  0.7500000000000000  0.2307692307692308
  0.2222222222222223  0.9166666666666666  0.4102564102564103
  0.8888888888888888  0.6666666666666666  0.4102564102564103
  0.5555555555555556  0.6666666666666666  0.4102564102564103
  0.2222222222222222  0.6666666666666666  0.4102564102564103
  0.8888888888888887  0.4166666666666667  0.4102564102564103
  0.5555555555555555  0.4166666666666667  0.4102564102564103
  0.2222222222222222  0.4166666666666667  0.4102564102564103
  0.8888888888888886  0.1666666666666667  0.4102564102564103
  0.5555555555555555  0.1666666666666667  0.4102564102564103
  0.2222222222222222  0.1666666666666667  0.4102564102564103
  0.6666666666666666  0.7500000000000000  0.3846153846153846
  0.3333333333333333  0.7500000000000000  0.3846153846153846
  0.0000000000000000  0.7500000000000000  0.3846153846153846
  0.6666666666666666  0.4999999999999999  0.3846153846153846
  0.3333333333333334  0.4999999999999999  0.3846153846153846
  0.0000000000000000  0.4999999999999999  0.3846153846153846
  0.6666666666666666  0.2500000000000000  0.3846153846153846
  0.3333333333333333  0.2500000000000000  0.3846153846153846
  0.0000000000000000  0.2500000000000000  0.3846153846153846
  0.6666666666666666  0.0000000000000000  0.3846153846153846
  0.3333333333333333  0.0000000000000000  0.3846153846153846
  0.0000000000000000  0.0000000000000000  0.3846153846153846
  0.7777777777777778  0.8333333333333333  0.3589743589743590
  0.4444444444444444  0.8333333333333333  0.3589743589743590
  0.1111111111111111  0.8333333333333333  0.3589743589743590
  0.5555555555555556  0.9166666666666666  0.4102564102564103
  0.8888888888888888  0.9166666666666666  0.4102564102564103
  0.1111111111111111  0.0833333333333333  0.4358974358974360
  0.4444444444444443  0.0833333333333333  0.4358974358974360
  0.2222222222222222  0.4166666666666667  0.4871794871794872
  0.8888888888888886  0.1666666666666667  0.4871794871794872
  0.5555555555555555  0.1666666666666667  0.4871794871794872
  0.2222222222222222  0.1666666666666667  0.4871794871794872
  0.6666666666666666  0.7500000000000000  0.4615384615384616
  0.3333333333333333  0.7500000000000000  0.4615384615384616
  0.0000000000000000  0.7500000000000000  0.4615384615384616
  0.6666666666666666  0.4999999999999999  0.4615384615384616
  0.3333333333333334  0.4999999999999999  0.4615384615384616
  0.0000000000000000  0.4999999999999999  0.4615384615384616
  0.6666666666666666  0.2500000000000000  0.4615384615384616
  0.3333333333333333  0.2500000000000000  0.4615384615384616
  0.7777777777777778  0.5833333333333333  0.3589743589743590
  0.0000000000000000  0.2500000000000000  0.4615384615384616
  0.3333333333333333  0.0000000000000000  0.4615384615384616
  0.0000000000000000  0.0000000000000000  0.4615384615384616
  0.7777777777777778  0.8333333333333333  0.4358974358974360
  0.4444444444444444  0.8333333333333333  0.4358974358974360
  0.1111111111111111  0.8333333333333333  0.4358974358974360
  0.7777777777777778  0.5833333333333333  0.4358974358974360
  0.4444444444444444  0.5833333333333333  0.4358974358974360
  0.1111111111111111  0.5833333333333333  0.4358974358974360
  0.7777777777777778  0.3333333333333333  0.4358974358974360
  0.4444444444444444  0.3333333333333333  0.4358974358974360
  0.1111111111111111  0.3333333333333333  0.4358974358974360
  0.7777777777777778  0.0833333333333333  0.4358974358974360
  0.6666666666666666  0.0000000000000000  0.4615384615384616
  0.3333333333333333  0.7500000000000000  0.9743589743589745
  0.4444444444444444  0.5833333333333333  0.3589743589743590
  0.7777777777777778  0.3333333333333333  0.3589743589743590
  0.5555555555555556  0.9166666666666666  0.2820512820512822
  0.2222222222222223  0.9166666666666666  0.2820512820512822
  0.8888888888888888  0.6666666666666666  0.2820512820512822
  0.5555555555555556  0.6666666666666666  0.2820512820512822
  0.2222222222222222  0.6666666666666666  0.2820512820512822
  0.8888888888888887  0.4166666666666667  0.2820512820512822
  0.5555555555555555  0.4166666666666667  0.2820512820512822
  0.2222222222222222  0.4166666666666667  0.2820512820512822
  0.8888888888888886  0.1666666666666667  0.2820512820512822
  0.5555555555555555  0.1666666666666667  0.2820512820512822
  0.2222222222222222  0.1666666666666667  0.2820512820512822
  0.7777777777777778  0.8333333333333333  0.2564102564102564
  0.4444444444444444  0.8333333333333333  0.2564102564102564
  0.1111111111111111  0.8333333333333333  0.2564102564102564
  0.7777777777777778  0.5833333333333333  0.2564102564102564
  0.4444444444444444  0.5833333333333333  0.2564102564102564
  0.1111111111111111  0.5833333333333333  0.2564102564102564
  0.7777777777777778  0.3333333333333333  0.2564102564102564
  0.4444444444444444  0.3333333333333333  0.2564102564102564
  0.1111111111111111  0.3333333333333333  0.2564102564102564
  0.7777777777777778  0.0833333333333333  0.2564102564102564
  0.4444444444444443  0.0833333333333333  0.2564102564102564
  0.1111111111111111  0.0833333333333333  0.2564102564102564
  0.6666666666666666  0.7500000000000000  0.2307692307692308
  0.3333333333333333  0.7500000000000000  0.2307692307692308
  0.8888888888888888  0.9166666666666666  0.2820512820512822
  0.0000000000000000  0.0000000000000000  0.3076923076923078
  0.3333333333333333  0.0000000000000000  0.3076923076923078
  0.6666666666666666  0.0000000000000000  0.3076923076923078
  0.4444444444444444  0.3333333333333333  0.3589743589743590
  0.1111111111111111  0.3333333333333333  0.3589743589743590
  0.7777777777777778  0.0833333333333333  0.3589743589743590
  0.4444444444444443  0.0833333333333333  0.3589743589743590
  0.1111111111111111  0.0833333333333333  0.3589743589743590
  0.8888888888888888  0.9166666666666666  0.3333333333333334
  0.5555555555555556  0.9166666666666666  0.3333333333333334
  0.2222222222222223  0.9166666666666666  0.3333333333333334
  0.8888888888888888  0.6666666666666666  0.3333333333333334
  0.5555555555555556  0.6666666666666666  0.3333333333333334
  0.2222222222222222  0.6666666666666666  0.3333333333333334
  0.8888888888888887  0.4166666666666667  0.3333333333333334
  0.1111111111111111  0.5833333333333333  0.3589743589743590
  0.5555555555555555  0.4166666666666667  0.3333333333333334
  0.8888888888888886  0.1666666666666667  0.3333333333333334
  0.5555555555555555  0.1666666666666667  0.3333333333333334
  0.2222222222222222  0.1666666666666667  0.3333333333333334
  0.6666666666666666  0.7500000000000000  0.3076923076923078
  0.3333333333333333  0.7500000000000000  0.3076923076923078
  0.0000000000000000  0.7500000000000000  0.3076923076923078
  0.6666666666666666  0.4999999999999999  0.3076923076923078
  0.3333333333333334  0.4999999999999999  0.3076923076923078
  0.0000000000000000  0.4999999999999999  0.3076923076923078
  0.6666666666666666  0.2500000000000000  0.3076923076923078
  0.3333333333333333  0.2500000000000000  0.3076923076923078
  0.0000000000000000  0.2500000000000000  0.3076923076923078
  0.2222222222222222  0.4166666666666667  0.3333333333333334
  0.6666666666666666  0.7500000000000000  0.9743589743589745
