Cu
 1.0000000000000000
     7.6685730419681093    0.0000000000000000    0.0000000000000000
     5.1123820279787395    8.8549054201611881    0.0000000000000000
     0.0000000000000000    0.0000000000000000   52.1780305780124323
 Cu 
 300
Direct
  0.0000000000000000  0.0000000000000000  0.0000000000000000
  0.6666666666666666  0.7500000000000000  0.6400000000000002
  0.3333333333333333  0.7500000000000000  0.6400000000000002
  0.0000000000000000  0.7500000000000000  0.6400000000000002
  0.6666666666666666  0.4999999999999999  0.6400000000000002
  0.3333333333333334  0.4999999999999999  0.6400000000000002
  0.0000000000000000  0.4999999999999999  0.6400000000000002
  0.1111111111111111  0.0833333333333333  0.6800000000000000
  0.6666666666666666  0.2500000000000000  0.6400000000000002
  0.0000000000000000  0.2500000000000000  0.6400000000000002
  0.6666666666666666  0.0000000000000000  0.6400000000000002
  0.3333333333333333  0.0000000000000000  0.6400000000000002
  0.0000000000000000  0.0000000000000000  0.6400000000000002
  0.8888888888888888  0.9166666666666666  0.6000000000000001
  0.5555555555555556  0.9166666666666666  0.6000000000000001
  0.3333333333333333  0.2500000000000000  0.6400000000000002
  0.4444444444444443  0.0833333333333333  0.6800000000000000
  0.7777777777777778  0.0833333333333333  0.6800000000000000
  0.1111111111111111  0.3333333333333333  0.6800000000000000
  0.2222222222222222  0.6666666666666666  0.7200000000000001
  0.8888888888888887  0.4166666666666667  0.7200000000000001
  0.5555555555555555  0.4166666666666667  0.7200000000000001
  0.2222222222222222  0.4166666666666667  0.7200000000000001
  0.8888888888888886  0.1666666666666667  0.7200000000000001
  0.5555555555555555  0.1666666666666667  0.7200000000000001
  0.2222222222222222  0.1666666666666667  0.7200000000000001
  0.7777777777777778  0.8333333333333333  0.6800000000000000
  0.4444444444444444  0.8333333333333333  0.6800000000000000
  0.1111111111111111  0.8333333333333333  0.6800000000000000
  0.7777777777777778  0.5833333333333333  0.6800000000000000
  0.4444444444444444  0.5833333333333333  0.6800000000000000
  0.1111111111111111  0.5833333333333333  0.6800000000000000
  0.7777777777777778  0.3333333333333333  0.6800000000000000
  0.4444444444444444  0.3333333333333333  0.6800000000000000
  0.2222222222222223  0.9166666666666666  0.6000000000000001
  0.8888888888888888  0.6666666666666666  0.6000000000000001
  0.5555555555555556  0.6666666666666666  0.6000000000000001
  0.2222222222222222  0.6666666666666666  0.6000000000000001
  0.5555555555555556  0.9166666666666666  0.5200000000000000
  0.2222222222222223  0.9166666666666666  0.5200000000000000
  0.8888888888888888  0.6666666666666666  0.5200000000000000
  0.5555555555555556  0.6666666666666666  0.5200000000000000
  0.2222222222222222  0.6666666666666666  0.5200000000000000
  0.8888888888888887  0.4166666666666667  0.5200000000000000
  0.5555555555555555  0.4166666666666667  0.5200000000000000
  0.2222222222222222  0.4166666666666667  0.5200000000000000
  0.8888888888888886  0.1666666666666667  0.5200000000000000
  0.5555555555555555  0.1666666666666667  0.5200000000000000
  0.2222222222222222  0.1666666666666667  0.5200000000000000
  0.6666666666666666  0.7500000000000000  0.4800000000000001
  0.3333333333333333  0.7500000000000000  0.4800000000000001
  0.0000000000000000  0.7500000000000000  0.4800000000000001
  0.6666666666666666  0.4999999999999999  0.4800000000000001
  0.8888888888888888  0.9166666666666666  0.5200000000000000
  0.5555555555555556  0.6666666666666666  0.7200000000000001
  0.1111111111111111  0.0833333333333333  0.5600000000000002
  0.7777777777777778  0.0833333333333333  0.5600000000000002
  0.8888888888888887  0.4166666666666667  0.6000000000000001
  0.5555555555555555  0.4166666666666667  0.6000000000000001
  0.2222222222222222  0.4166666666666667  0.6000000000000001
  0.8888888888888886  0.1666666666666667  0.6000000000000001
  0.5555555555555555  0.1666666666666667  0.6000000000000001
  0.2222222222222222  0.1666666666666667  0.6000000000000001
  0.7777777777777778  0.8333333333333333  0.5600000000000002
  0.4444444444444444  0.8333333333333333  0.5600000000000002
  0.1111111111111111  0.8333333333333333  0.5600000000000002
  0.7777777777777778  0.5833333333333333  0.5600000000000002
  0.4444444444444444  0.5833333333333333  0.5600000000000002
  0.1111111111111111  0.5833333333333333  0.5600000000000002
  0.7777777777777778  0.3333333333333333  0.5600000000000002
  0.4444444444444444  0.3333333333333333  0.5600000000000002
  0.1111111111111111  0.3333333333333333  0.5600000000000002
  0.4444444444444443  0.0833333333333333  0.5600000000000002
  0.3333333333333334  0.4999999999999999  0.4800000000000001
  0.8888888888888888  0.6666666666666666  0.7200000000000001
  0.5555555555555556  0.9166666666666666  0.7200000000000001
  0.7777777777777778  0.0833333333333333  0.9200000000000002
  0.4444444444444443  0.0833333333333333  0.9200000000000002
  0.1111111111111111  0.0833333333333333  0.9200000000000002
  0.6666666666666666  0.7500000000000000  0.8800000000000001
  0.3333333333333333  0.7500000000000000  0.8800000000000001
  0.0000000000000000  0.7500000000000000  0.8800000000000001
  0.1111111111111111  0.3333333333333333  0.9200000000000002
  0.6666666666666666  0.4999999999999999  0.8800000000000001
  0.0000000000000000  0.4999999999999999  0.8800000000000001
  0.6666666666666666  0.2500000000000000  0.8800000000000001
  0.3333333333333333  0.2500000000000000  0.8800000000000001
  0.0000000000000000  0.2500000000000000  0.8800000000000001
  0.6666666666666666  0.0000000000000000  0.8800000000000001
  0.3333333333333333  0.0000000000000000  0.8800000000000001
  0.3333333333333334  0.4999999999999999  0.8800000000000001
  0.4444444444444444  0.3333333333333333  0.9200000000000002
  0.7777777777777778  0.3333333333333333  0.9200000000000002
  0.1111111111111111  0.5833333333333333  0.9200000000000002
  0.2222222222222223  0.9166666666666666  0.9600000000000002
  0.8888888888888888  0.6666666666666666  0.9600000000000002
  0.5555555555555556  0.6666666666666666  0.9600000000000002
  0.2222222222222222  0.6666666666666666  0.9600000000000002
  0.8888888888888887  0.4166666666666667  0.9600000000000002
  0.5555555555555555  0.4166666666666667  0.9600000000000002
  0.2222222222222222  0.4166666666666667  0.9600000000000002
  0.8888888888888886  0.1666666666666667  0.9600000000000002
  0.5555555555555555  0.1666666666666667  0.9600000000000002
  0.2222222222222222  0.1666666666666667  0.9600000000000002
  0.7777777777777778  0.8333333333333333  0.9200000000000002
  0.4444444444444444  0.8333333333333333  0.9200000000000002
  0.1111111111111111  0.8333333333333333  0.9200000000000002
  0.7777777777777778  0.5833333333333333  0.9200000000000002
  0.4444444444444444  0.5833333333333333  0.9200000000000002
  0.0000000000000000  0.0000000000000000  0.8800000000000001
  0.8888888888888888  0.9166666666666666  0.8400000000000003
  0.5555555555555556  0.9166666666666666  0.8400000000000003
  0.2222222222222223  0.9166666666666666  0.8400000000000003
  0.4444444444444443  0.0833333333333333  0.8000000000000003
  0.1111111111111111  0.0833333333333333  0.8000000000000003
  0.6666666666666666  0.7500000000000000  0.7600000000000001
  0.3333333333333333  0.7500000000000000  0.7600000000000001
  0.0000000000000000  0.7500000000000000  0.7600000000000001
  0.6666666666666666  0.4999999999999999  0.7600000000000001
  0.3333333333333334  0.4999999999999999  0.7600000000000001
  0.0000000000000000  0.4999999999999999  0.7600000000000001
  0.6666666666666666  0.2500000000000000  0.7600000000000001
  0.3333333333333333  0.2500000000000000  0.7600000000000001
  0.0000000000000000  0.2500000000000000  0.7600000000000001
  0.6666666666666666  0.0000000000000000  0.7600000000000001
  0.3333333333333333  0.0000000000000000  0.7600000000000001
  0.0000000000000000  0.0000000000000000  0.7600000000000001
  0.8888888888888888  0.9166666666666666  0.7200000000000001
  0.7777777777777778  0.0833333333333333  0.8000000000000003
  0.2222222222222223  0.9166666666666666  0.7200000000000001
  0.1111111111111111  0.3333333333333333  0.8000000000000003
  0.7777777777777778  0.3333333333333333  0.8000000000000003
  0.8888888888888888  0.6666666666666666  0.8400000000000003
  0.5555555555555556  0.6666666666666666  0.8400000000000003
  0.2222222222222222  0.6666666666666666  0.8400000000000003
  0.8888888888888887  0.4166666666666667  0.8400000000000003
  0.5555555555555555  0.4166666666666667  0.8400000000000003
  0.2222222222222222  0.4166666666666667  0.8400000000000003
  0.8888888888888886  0.1666666666666667  0.8400000000000003
  0.5555555555555555  0.1666666666666667  0.8400000000000003
  0.2222222222222222  0.1666666666666667  0.8400000000000003
  0.7777777777777778  0.8333333333333333  0.8000000000000003
  0.4444444444444444  0.8333333333333333  0.8000000000000003
  0.1111111111111111  0.8333333333333333  0.8000000000000003
  0.7777777777777778  0.5833333333333333  0.8000000000000003
  0.4444444444444444  0.5833333333333333  0.8000000000000003
  0.1111111111111111  0.5833333333333333  0.8000000000000003
  0.4444444444444444  0.3333333333333333  0.8000000000000003
  0.0000000000000000  0.4999999999999999  0.4800000000000001
  0.6666666666666666  0.2500000000000000  0.4800000000000001
  0.3333333333333333  0.2500000000000000  0.4800000000000001
  0.4444444444444444  0.3333333333333333  0.1600000000000001
  0.1111111111111111  0.3333333333333333  0.1600000000000001
  0.7777777777777778  0.0833333333333333  0.1600000000000001
  0.4444444444444443  0.0833333333333333  0.1600000000000001
  0.1111111111111111  0.0833333333333333  0.1600000000000001
  0.6666666666666666  0.7500000000000000  0.1200000000000000
  0.7777777777777778  0.3333333333333333  0.1600000000000001
  0.3333333333333333  0.7500000000000000  0.1200000000000000
  0.6666666666666666  0.4999999999999999  0.1200000000000000
  0.3333333333333334  0.4999999999999999  0.1200000000000000
  0.0000000000000000  0.4999999999999999  0.1200000000000000
  0.6666666666666666  0.2500000000000000  0.1200000000000000
  0.3333333333333333  0.2500000000000000  0.1200000000000000
  0.0000000000000000  0.2500000000000000  0.1200000000000000
  0.0000000000000000  0.7500000000000000  0.1200000000000000
  0.1111111111111111  0.5833333333333333  0.1600000000000001
  0.4444444444444444  0.5833333333333333  0.1600000000000001
  0.7777777777777778  0.5833333333333333  0.1600000000000001
  0.8888888888888888  0.9166666666666666  0.2000000000000001
  0.5555555555555556  0.9166666666666666  0.2000000000000001
  0.2222222222222223  0.9166666666666666  0.2000000000000001
  0.8888888888888888  0.6666666666666666  0.2000000000000001
  0.5555555555555556  0.6666666666666666  0.2000000000000001
  0.2222222222222222  0.6666666666666666  0.2000000000000001
  0.8888888888888887  0.4166666666666667  0.2000000000000001
  0.5555555555555555  0.4166666666666667  0.2000000000000001
  0.2222222222222222  0.4166666666666667  0.2000000000000001
  0.8888888888888886  0.1666666666666667  0.2000000000000001
  0.5555555555555555  0.1666666666666667  0.2000000000000001
  0.2222222222222222  0.1666666666666667  0.2000000000000001
  0.7777777777777778  0.8333333333333333  0.1600000000000001
  0.4444444444444444  0.8333333333333333  0.1600000000000001
  0.1111111111111111  0.8333333333333333  0.1600000000000001
  0.6666666666666666  0.0000000000000000  0.1200000000000000
  0.3333333333333333  0.0000000000000000  0.1200000000000000
  0.0000000000000000  0.0000000000000000  0.1200000000000000
  0.8888888888888888  0.9166666666666666  0.0800000000000000
  0.1111111111111111  0.3333333333333333  0.0400000000000000
  0.7777777777777778  0.0833333333333333  0.0400000000000000
  0.4444444444444443  0.0833333333333333  0.0400000000000000
  0.1111111111111111  0.0833333333333333  0.0400000000000000
  0.6666666666666666  0.7500000000000000  0.0000000000000000
  0.3333333333333333  0.7500000000000000  0.0000000000000000
  0.0000000000000000  0.7500000000000000  0.0000000000000000
  0.6666666666666666  0.4999999999999999  0.0000000000000000
  0.3333333333333334  0.4999999999999999  0.0000000000000000
  0.0000000000000000  0.4999999999999999  0.0000000000000000
  0.6666666666666666  0.2500000000000000  0.0000000000000000
  0.3333333333333333  0.2500000000000000  0.0000000000000000
  0.0000000000000000  0.2500000000000000  0.0000000000000000
  0.6666666666666666  0.0000000000000000  0.0000000000000000
  0.3333333333333333  0.0000000000000000  0.0000000000000000
  0.4444444444444444  0.3333333333333333  0.0400000000000000
  0.0000000000000000  0.0000000000000000  0.2400000000000000
  0.7777777777777778  0.3333333333333333  0.0400000000000000
  0.4444444444444444  0.5833333333333333  0.0400000000000000
  0.5555555555555556  0.9166666666666666  0.0800000000000000
  0.2222222222222223  0.9166666666666666  0.0800000000000000
  0.8888888888888888  0.6666666666666666  0.0800000000000000
  0.5555555555555556  0.6666666666666666  0.0800000000000000
  0.2222222222222222  0.6666666666666666  0.0800000000000000
  0.8888888888888887  0.4166666666666667  0.0800000000000000
  0.5555555555555555  0.4166666666666667  0.0800000000000000
  0.2222222222222222  0.4166666666666667  0.0800000000000000
  0.8888888888888886  0.1666666666666667  0.0800000000000000
  0.5555555555555555  0.1666666666666667  0.0800000000000000
  0.2222222222222222  0.1666666666666667  0.0800000000000000
  0.7777777777777778  0.8333333333333333  0.0400000000000000
  0.4444444444444444  0.8333333333333333  0.0400000000000000
  0.1111111111111111  0.8333333333333333  0.0400000000000000
  0.7777777777777778  0.5833333333333333  0.0400000000000000
  0.1111111111111111  0.5833333333333333  0.0400000000000000
  0.3333333333333333  0.0000000000000000  0.2400000000000000
  0.6666666666666666  0.0000000000000000  0.2400000000000000
  0.0000000000000000  0.2500000000000000  0.2400000000000000
  0.8888888888888888  0.6666666666666666  0.4000000000000001
  0.5555555555555556  0.6666666666666666  0.4000000000000001
  0.2222222222222222  0.6666666666666666  0.4000000000000001
  0.8888888888888887  0.4166666666666667  0.4000000000000001
  0.5555555555555555  0.4166666666666667  0.4000000000000001
  0.2222222222222222  0.4166666666666667  0.4000000000000001
  0.8888888888888886  0.1666666666666667  0.4000000000000001
  0.5555555555555555  0.1666666666666667  0.4000000000000001
  0.2222222222222222  0.1666666666666667  0.4000000000000001
  0.6666666666666666  0.7500000000000000  0.3600000000000000
  0.3333333333333333  0.7500000000000000  0.3600000000000000
  0.0000000000000000  0.7500000000000000  0.3600000000000000
  0.6666666666666666  0.4999999999999999  0.3600000000000000
  0.3333333333333334  0.4999999999999999  0.3600000000000000
  0.0000000000000000  0.4999999999999999  0.3600000000000000
  0.2222222222222223  0.9166666666666666  0.4000000000000001
  0.6666666666666666  0.2500000000000000  0.3600000000000000
  0.5555555555555556  0.9166666666666666  0.4000000000000001
  0.1111111111111111  0.0833333333333333  0.4400000000000001
  0.0000000000000000  0.2500000000000000  0.4800000000000001
  0.6666666666666666  0.0000000000000000  0.4800000000000001
  0.3333333333333333  0.0000000000000000  0.4800000000000001
  0.0000000000000000  0.0000000000000000  0.4800000000000001
  0.7777777777777778  0.8333333333333333  0.4400000000000001
  0.4444444444444444  0.8333333333333333  0.4400000000000001
  0.1111111111111111  0.8333333333333333  0.4400000000000001
  0.7777777777777778  0.5833333333333333  0.4400000000000001
  0.4444444444444444  0.5833333333333333  0.4400000000000001
  0.1111111111111111  0.5833333333333333  0.4400000000000001
  0.7777777777777778  0.3333333333333333  0.4400000000000001
  0.4444444444444444  0.3333333333333333  0.4400000000000001
  0.1111111111111111  0.3333333333333333  0.4400000000000001
  0.7777777777777778  0.0833333333333333  0.4400000000000001
  0.4444444444444443  0.0833333333333333  0.4400000000000001
  0.8888888888888888  0.9166666666666666  0.4000000000000001
  0.5555555555555556  0.9166666666666666  0.9600000000000002
  0.3333333333333333  0.2500000000000000  0.3600000000000000
  0.6666666666666666  0.0000000000000000  0.3600000000000000
  0.1111111111111111  0.5833333333333333  0.2800000000000001
  0.7777777777777778  0.3333333333333333  0.2800000000000001
  0.4444444444444444  0.3333333333333333  0.2800000000000001
  0.1111111111111111  0.3333333333333333  0.2800000000000001
  0.7777777777777778  0.0833333333333333  0.2800000000000001
  0.4444444444444443  0.0833333333333333  0.2800000000000001
  0.1111111111111111  0.0833333333333333  0.2800000000000001
  0.6666666666666666  0.7500000000000000  0.2400000000000000
  0.3333333333333333  0.7500000000000000  0.2400000000000000
  0.0000000000000000  0.7500000000000000  0.2400000000000000
  0.6666666666666666  0.4999999999999999  0.2400000000000000
  0.3333333333333334  0.4999999999999999  0.2400000000000000
  0.0000000000000000  0.4999999999999999  0.2400000000000000
  0.6666666666666666  0.2500000000000000  0.2400000000000000
  0.3333333333333333  0.2500000000000000  0.2400000000000000
  0.4444444444444444  0.5833333333333333  0.2800000000000001
  0.0000000000000000  0.2500000000000000  0.3600000000000000
  0.7777777777777778  0.5833333333333333  0.2800000000000001
  0.4444444444444444  0.8333333333333333  0.2800000000000001
  0.3333333333333333  0.0000000000000000  0.3600000000000000
  0.0000000000000000  0.0000000000000000  0.3600000000000000
  0.8888888888888888  0.9166666666666666  0.3200000000000001
  0.5555555555555556  0.9166666666666666  0.3200000000000001
  0.2222222222222223  0.9166666666666666  0.3200000000000001
  0.8888888888888888  0.6666666666666666  0.3200000000000001
  0.5555555555555556  0.6666666666666666  0.3200000000000001
  0.2222222222222222  0.6666666666666666  0.3200000000000001
  0.8888888888888887  0.4166666666666667  0.3200000000000001
  0.5555555555555555  0.4166666666666667  0.3200000000000001
  0.2222222222222222  0.4166666666666667  0.3200000000000001
  0.8888888888888886  0.1666666666666667  0.3200000000000001
  0.5555555555555555  0.1666666666666667  0.3200000000000001
  0.2222222222222222  0.1666666666666667  0.3200000000000001
  0.7777777777777778  0.8333333333333333  0.2800000000000001
  0.1111111111111111  0.8333333333333333  0.2800000000000001
  0.8888888888888888  0.9166666666666666  0.9600000000000002
