Cu
 1.0000000000000000
    13.8195248199999980    0.0000000000000000    0.0000000000000000
     0.0000000000000000   13.4274972359015532    0.0000000000000000
     0.0000000000000000    0.0000000000000000   15.8450159999999975
 Cu 
 225
Direct
  0.9620274635463193  0.0448295469643686  0.2867846898987039
  0.7767461291046041  0.1151330430973631  0.4453582123236738
  0.4169508347827548  0.0418431378595667  0.8312145598338311
  0.3302691278787400  0.0598658561478978  0.9814510758461846
  0.5835050419627956  0.2137813598110968  0.0261096612335391
  0.7623823935503453  0.2879649535590587  0.1868605244702819
  0.6807515115414802  0.2093650490900305  0.3150585647878178
  0.6872929810331933  0.2847849119437209  0.4514042775343367
  0.6722056315971074  0.1202196202010534  0.5731902069395198
  0.5982161121803320  0.1667063175381456  0.7092645409761664
  0.3238434366081189  0.2145261002362346  0.8551148197010344
  0.6798035773562866  0.3816458516371242  0.0476874242348515
  0.5879335589195752  0.0418729274765722  0.2901611459401494
  0.4885813729447752  0.4483075670911956  0.2006187939475739
  0.5889827990482238  0.4435263335618119  0.4772420551673795
  0.5957485888433030  0.3063898316769642  0.5896875080466951
  0.5089076868852862  0.3302736571111287  0.7464308019632172
  0.4142951718364507  0.3762688257676302  0.8838998963459559
  0.5828248449138786  0.5378477084054958  0.0666208225980973
  0.5894893287655023  0.6043977127957966  0.2276367534119254
  0.5006512524936440  0.5212251021164233  0.3474094314578163
  0.5024819956146656  0.5983504205436788  0.5123887536623510
  0.5008900450746470  0.4639098789978293  0.6337581483035433
  0.5978615413782370  0.5070452444218022  0.7637674837311622
  0.3242703687983969  0.5463526440605678  0.9089487823805299
  0.5913490164417968  0.3614335964988882  0.3264880262664304
  0.4972068504161489  0.6999032249154492  0.0960622570529440
  0.6774445961015326  0.1236677683694406  0.1641341353015993
  0.2200410252600853  0.9682406474967973  0.6876804668420665
  0.4152358698828257  0.3121019907377699  0.5918711599912559
  0.3284383847577185  0.3335430675774830  0.7403468699558274
  0.2288691146183705  0.3779147021071845  0.8826250475228306
  0.4023338343698565  0.5376019440652001  0.0724144424972500
  0.4057348196144416  0.6051424532209341  0.2193439249288238
  0.3147403739747397  0.5252020159866583  0.3443800877196977
  0.3117373763651591  0.6015751465845248  0.5016661390559664
  0.3164842834299423  0.4640215900615999  0.6204858360509079
  0.4151635084946427  0.5037311495299397  0.7632499708425675
  0.1376575848141211  0.5456898250821953  0.9144142233747196
  0.3088646292543076  0.6909142079840378  0.0959486566627643
  0.6760914381425160  0.0531631923216589  0.0161822493584107
  0.3151673061650178  0.7725973378131359  0.2470056199375255
  0.4054887908946205  0.7563843387578891  0.5144588052167322
  0.4125874430753402  0.6369950012040716  0.6507603400337372
  0.3125333516351687  0.6788717553095620  0.7863234723145753
  0.2287605725360970  0.7066803627842020  0.9257174621975774
  0.2199397193166298  0.8462074814337415  0.1095933257498767
  0.4156989827671947  0.9318451829203206  0.2524079496038382
  0.3227001266748329  0.8392367110544529  0.3954813299020971
  0.4975831296346989  0.9288140893900102  0.5308740615976666
  0.5022287307560260  0.7878049372944468  0.6604100620662048
  0.4072327003498226  0.8368535416940127  0.7892455267953030
  0.3323676081360371  0.8730479263557025  0.9467903345758698
  0.2082244105698560  0.6835338303709236  0.3776145129799807
  0.5041607798205030  0.7662819390079685  0.2436607195600190
  0.4095048479387586  0.6872724273051147  0.3712339577315677
  0.5965156195580389  0.7633253195201717  0.5144335606855812
  0.7746331765696700  0.2964177573843710  0.5869610986823878
  0.6793259921942816  0.3434704574445678  0.7280464721525063
  0.5897570659017783  0.3705343244940704  0.8794063698010787
  0.7687936125433295  0.5308099113879450  0.0829287897216392
  0.7750601087599476  0.6044126076042993  0.2188201009074404
  0.6897170875373118  0.5155650748853770  0.3515432234337916
  0.6888342786014838  0.6009793542444147  0.4960555420076573
  0.6843551086729772  0.4701582511647342  0.6234142016644226
  0.7795826955213642  0.5052951044227288  0.7563266581744071
  0.5100075799856627  0.5364773860232426  0.9084438917575094
  0.6809613595672096  0.6839881220302576  0.1010922298847797
  0.7816594673622067  0.4425358287963787  0.4799558422661109
  0.6822566284156791  0.7624241836057554  0.2490946048902697
  0.7733813245541106  0.7687768194321793  0.5189965096911233
  0.7813266049765667  0.6255408934654545  0.6411863515947233
  0.6943047995480929  0.6704338462927524  0.7862224941899716
  0.6089255976313662  0.7135096324827139  0.9199301534312119
  0.5981509869309675  0.8484714923261600  0.1163462378327676
  0.7885844522112884  0.9213220007131254  0.2579996132537834
  0.6924378757329809  0.8480023058583230  0.3954308408397952
  0.8656348583481899  0.9322547901541461  0.5405995172235871
  0.8613655364454128  0.7840663403602555  0.6568316497755510
  0.7737431314950235  0.8349172165886545  0.7962571953224921
  0.6981182447053195  0.8757140970776954  0.9428206320523761
  0.5973477755221399  0.6846956254341383  0.3741686344778704
  0.7821298163853941  0.3696182937711511  0.3309815528113068
  0.6578997851533946  0.4458052392627331  0.1918400082398157
  0.8599038364041227  0.3698491633029437  0.0533106435487351
  0.5924778540974464  0.6322510046959448  0.6455915222805717
  0.5017511455940205  0.6696593162506093  0.7884629463296222
  0.4240133062693829  0.7114764911220884  0.9234454543939880
  0.4210103086598024  0.8461106651784736  0.1193250925085851
  0.6019933766434671  0.9342506944935151  0.2618998933166114
  0.4986251336245294  0.8420816194784790  0.3864879656795556
  0.6812652773975766  0.9328803721112618  0.5323950445995134
  0.6931108366430794  0.7899348949103403  0.6652443897816201
  0.5977240547406895  0.8312977781224855  0.7910063328430850
  0.5108903889214912  0.8850307997961672  0.9379547486730219
  0.4124716648542477  0.9624167773722212  0.6734362401401179
  0.6938127421084509  0.9995197453525789  0.8100848872604489
  0.8610399101985913  0.1226251317742479  0.1640836462392974
  0.7730339898908335  0.0370842465429371  0.2912971498419442
  0.9697846043595004  0.1216420744130664  0.4320227887431615
  0.8761200234958586  0.0023570005187682  0.6958344504038375
  0.6027893519134760  0.0410909500301776  0.8286080619924905
  0.5170121623617449  0.0655109885704412  0.9681598301951863
  0.7595313548559482  0.2069893271338414  0.0459960406477348
  0.9486912597042535  0.2895810402816074  0.1745538155341727
  0.8701719173872434  0.2041220764970615  0.3084823644229835
  0.8787395057480706  0.2769874796925296  0.4516693451114220
  0.8771330829304156  0.1257009097300664  0.5723066483492353
  0.7854222595477057  0.1605547616265086  0.7254399743111657
  0.5148630291327193  0.2074063817719185  0.8592296782786468
  0.4052138176195266  0.4447179182420320  0.4737330653373915
  0.5830998181889732  0.9537926832491271  0.6648594106815673
  0.4078622444270121  0.3652690096883472  0.3274851852468946
  0.4941097830019309  0.3646583225397342  0.0563399872868545
  0.8749043521743896  0.5364997282359967  0.9134233755270433
  0.9639812210272514  0.9491752926132733  0.6813693340543175
  0.0440291846445702  0.1275999978141675  0.4296182471510294
  0.0318724714298825  0.2843827521141465  0.1843802492846969
  0.1246470072188779  0.0488883822813689  0.0182144341160655
  0.1247627854399699  0.1314949902376374  0.1570972222432601
  0.0380593701195001  0.0457157880702825  0.2814328492946931
  0.2214737807461023  0.1199366188395012  0.4303818942183463
  0.1384969769170397  0.0078233952392786  0.6877057113732175
  0.0366410869111201  0.2182349075534199  0.0323955494901368
  0.2173130009255992  0.2776651934794049  0.1868352799391309
  0.8862867985355233  0.2008526660307071  0.8686774440619061
  0.1310437539342255  0.2076000142824544  0.3066458247817487
  0.1378891412563056  0.1361049334692395  0.5711895778458035
  0.0529006908357649  0.1771997101283353  0.7121865954568941
  0.1316081727620500  0.3741463155559880  0.0545539367079216
  0.0333920605817180  0.3668404119853875  0.3354372125594581
  0.0391882077751496  0.4485831210484964  0.4797917528136293
  0.0371186720731256  0.3009755687862133  0.5981759816462170
  0.0362648076925701  0.5313088874727872  0.0727931104645149
  0.0308015228847790  0.6079203350066976  0.2181069429024244
  0.0356063190601076  0.5135915127587624  0.7591414233977432
  0.0385803721144151  0.7700279833464109  0.5082865173503146
  0.0393835835232431  0.6469819703051676  0.6385924760189585
  0.1333737906337071  0.2840625137313372  0.4644052110770989
  0.0417787454720892  0.9382499505765043  0.2488737152426992
  0.8893187407003769  0.0599179879776575  0.9838177506415900
  0.8786381998046157  0.8792292718843449  0.9384280836321025
  0.7933168869984344  0.0368086925856360  0.8467841244212070
  0.6921701385967044  0.0631203718057494  0.9668786702392730
  0.9474755883827846  0.2141686248321686  0.0345981348330611
  0.6927779742574394  0.2204021021905705  0.8511261837791777
  0.8629864315407049  0.4378365167137602  0.2023038664019022
  0.9679104444055699  0.3611952795628443  0.3277186971600410
  0.8696798599476014  0.3328802485991105  0.7389457984769474
  0.7821877054959402  0.3781306768304745  0.8952346908327519
  0.9512456167071021  0.5310109913027319  0.0817864746870565
  0.9602618456746623  0.6034444450516202  0.2340173086603393
  0.8818365731622887  0.5222826335201188  0.3491702375055983
  0.7731859488060170  0.9602570301393217  0.6716943674906989
  0.8742892803748370  0.6072277264113196  0.5096560331652558
  0.9689162677013085  0.4948315014495449  0.7752158786081387
  0.6899631162571338  0.5461068797202722  0.9007569320220321
  0.8727335105289095  0.6889555406659258  0.0930897135099144
  0.8656782751810999  0.7669745476033462  0.2424679154631344
  0.7777374801227066  0.6914131840688800  0.3756265061518403
  0.9633806215053349  0.7720834669197908  0.5241022161164118
  0.9704937459636905  0.6308285504839319  0.6469484158299370
  0.8790796042725292  0.6664569324225171  0.7892897047248179
  0.7841559352545092  0.7055409099337411  0.9282797821094032
  0.7777591885391610  0.8436977062010274  0.1106220403942798
  0.8756786190279441  0.8452914507108219  0.3884570391093330
  0.8756569106114895  0.4666728659750902  0.6202270796066096
  0.1367241229065646  0.9259096017319732  0.5417292099925939
  0.1321436470346020  0.8043530695410055  0.6681222663328339
  0.0356497358930176  0.8354608770990051  0.7966106187586061
  0.2193970089052598  0.6361162075024092  0.6508108290960390
  0.1286268835689245  0.6764290067151103  0.7901038408544375
  0.0377699245667696  0.7050791708701558  0.9221579833052875
  0.0382402735899566  0.8606256560644062  0.1031812148375239
  0.2302222725773865  0.9371030503217923  0.2637932331529361
  0.1383088373077652  0.8504599492612774  0.3894731314881602
  0.3243427301865794  0.9282331918584026  0.5346544301375279
  0.3113538610077912  0.8014187922659631  0.6514734980387531
  0.2213362941085553  0.8432583093501964  0.8017605031134085
  0.1431498141771853  0.8823646290741748  0.9454397521592917
  0.0295062540363089  0.9614486148195418  0.6834015188119728
  0.2206633331984563  0.7703258795164658  0.5202082471863709
  0.4931184319838283  0.1183130847127009  0.1517895595687632
  0.5995330894452565  0.1212845990090001  0.4317892768300143
  0.4958898731512244  0.0004802546474212  0.6951717814611235
  0.2405192981157797  0.0447252833048493  0.8370334242641356
  0.1405158596473362  0.0789833428611815  0.9746666080993549
  0.3943017202815803  0.2093873913027846  0.0332159967525440
  0.5880421010018493  0.2886724569629394  0.1704578903549233
  0.5083143235021882  0.1946489782893106  0.3036354144419932
  0.4983139796553440  0.2798547303293095  0.4560808269300585
  0.4928000418758248  0.1369390427453936  0.5722498481541455
  0.4039402571875115  0.1637422506460978  0.7163456319640203
  0.1442497072775618  0.2213926069560036  0.8564149130553108
  0.4024351403133120  0.0370172199046746  0.2828844098358759
  0.0337611036614500  0.6980488212568563  0.3592680499659966
  0.1287064810959249  0.7773860187467707  0.2400570627382142
  0.1261231795378039  0.6968721313851389  0.0966933703317183
  0.1145453574285777  0.9992516387995294  0.8221454620178368
  0.3110716515938787  0.1229081331358004  0.1525342732377180
  0.2258516447311534  0.0405398421155757  0.2819503621832886
  0.4117769955276942  0.1250753277729509  0.4281098864147567
  0.3205148127517163  0.0096256670681117  0.6810600885477183
  0.0515837135708404  0.0518450017691654  0.8345910158752765
  0.2187240479951613  0.2157474745334601  0.0379367240777796
  0.4100620306277651  0.2872648975594291  0.1770214684541818
  0.3204496875023524  0.1963991182883840  0.3028654562418874
  0.3109269288175132  0.2811356838605462  0.4526349484279482
  0.3176927186125928  0.1402233480202507  0.5669926745419513
  0.2306998577393920  0.1769167087667829  0.7132973548275371
  0.3235033380836604  0.3737069187051568  0.0539796236242367
  0.1227004858767638  0.4476149584958176  0.1994701677802032
  0.2233624129776699  0.3657158539434296  0.3281415430568208
  0.2249833080729614  0.4472500356875002  0.4859955963439867
  0.2278849997390865  0.3072164935488669  0.6009339466744623
  0.1406099294519737  0.3470601062937314  0.7419120308871890
  0.0614682791965926  0.3818245893391571  0.8827891369753120
  0.2128048864418192  0.5330590274718605  0.0588328847380154
  0.2210540846946428  0.6108099278562316  0.2204546842994677
  0.1387936586085887  0.5278160548788914  0.3530642064356392
  0.1356169936673696  0.5985142634372090  0.5170842364564358
  0.1286485919853790  0.4703071992497619  0.6330828570952541
  0.2313872909271275  0.5075665627193987  0.7735244950210215
  0.3035677756393365  0.4415453240309455  0.1940489047155275
  0.8721039664517211  0.9939639817810523  0.8061278070025302
