Generated generic
1.0
    7.66857304    0.00000000    0.00000000
    0.00000000    8.85490542    0.00000000
    0.00000000    0.00000000   25.04545468
 Cu
 144
Selective dynamics
Direct
    0.16768381    0.08202494   -0.00035600 F F F
    0.50160635    0.08288615   -0.00049441 F F F
    0.83394084    0.08150715   -0.00068846 F F F
    0.99766656    0.33190100    0.00053789 F F F
    0.33433630    0.33114871    0.00057674 F F F
    0.66594247    0.33152835   -0.00024492 F F F
    0.16532263    0.58209989    0.00050812 F F F
    0.49826235    0.58364061    0.00076100 F F F
    0.83109859    0.58218607   -0.00072680 F F F
    0.00098209    0.83516335   -0.00017990 F F F
    0.33477971    0.83210129   -0.00001277 F F F
    0.66865495    0.83177343   -0.00038895 F F F
    0.99970788    0.16572349    0.08326887 F F F
    0.33347861    0.16485081    0.08397744 F F F
    0.66704728    0.16569245    0.08263487 F F F
    0.16504918    0.41662057    0.08264225 F F F
    0.49938653    0.41515169    0.08405521 F F F
    0.83087344    0.41495086    0.08391657 F F F
    0.00086291    0.66592765    0.08272682 F F F
    0.33081147    0.66570355    0.08325139 F F F
    0.66624190    0.66686358    0.08309545 F F F
    0.16847327    0.91616101    0.08402800 F F F
    0.49917693    0.91491576    0.08393423 F F F
    0.83569938    0.91531169    0.08327193 F F F
    0.99964975    0.00221466    0.16735146 F F F
    0.33502130    0.00039470    0.16668367 F F F
    0.66510056    0.99815350    0.16621710 F F F
    0.16619795    0.25075836    0.16681097 F F F
    0.49965246    0.25086604    0.16717631 F F F
    0.83081028    0.25014150    0.16601920 F F F
    0.00013198    0.49803481    0.16666446 F F F
    0.33376285    0.49886079    0.16733887 F F F
    0.66456488    0.50044067    0.16682822 F F F
    0.16734066    0.75144413    0.16688449 F F F
    0.49810362    0.74828836    0.16607691 F F F
    0.83499762    0.74923982    0.16726580 F F F
    0.16568611    0.08185224    0.25031670 F F F
    0.50161000    0.08267475    0.25026266 F F F
    0.83548446    0.08205923    0.24948041 F F F
    0.00218848    0.33333706    0.24936591 F F F
    0.33156679    0.33254743    0.24931478 F F F
    0.66766681    0.33181462    0.24983919 F F F
    0.16799797    0.58417424    0.25037741 F F F
    0.50142536    0.58488970    0.24958337 F F F
    0.83334507    0.58187331    0.25028871 F F F
    0.00197296    0.83547039    0.25043014 F F F
    0.33289946    0.83323235    0.25056548 F F F
    0.66722955    0.83374152    0.25004548 F F F
    0.99765306    0.16672161    0.33352298 F F F
    0.33445976    0.16673071    0.33396791 F F F
    0.66512918    0.16694795    0.33254930 F F F
    0.16700269    0.41540245    0.33359329 F F F
    0.50232134    0.41807442    0.33303070 F F F
    0.83205657    0.41695680    0.33284030 F F F
    0.00034926    0.66535607    0.33345823 F F F
    0.33301220    0.66556962    0.33277511 F F F
    0.66923423    0.66598371    0.33334452 F F F
    0.16661339    0.91499991    0.33377296 F F F
    0.50032315    0.91491663    0.33266263 F F F
    0.83251517    0.91464813    0.33307046 F F F
    0.00205994    0.99817363    0.41719176 F F F
    0.33590440    0.00134144    0.41619478 F F F
    0.66855418    0.99803018    0.41597342 F F F
    0.16593215    0.24917191    0.41669184 F F F
    0.49837147    0.24947495    0.41715065 F F F
    0.83142627    0.25184418    0.41664575 F F F
    0.00010484    0.50138764    0.41592629 F F F
    0.33466474    0.49793244    0.41625012 F F F
    0.66786775    0.50112002    0.41699484 F F F
    0.16861522    0.74990815    0.41721036 F F F
    0.50242956    0.74850145    0.41702739 F F F
    0.83318467    0.75146857    0.41683550 F F F
    0.29805520    0.08512069    0.49949645 F F T
    0.63304547    0.08526018    0.49962421 F F T
    0.96764121    0.08297712    0.49995530 F F T
    0.13421775    0.33304855    0.50073720 F F T
    0.46573609    0.33343331    0.50068052 F F T
    0.79842997    0.33294662    0.50077492 F F T
    0.30150085    0.58552844    0.50015690 F F T
    0.63155413    0.58139395    0.50042644 F F T
    0.96789374    0.58423966    0.49998781 F F T
    0.13185636    0.83139078    0.49940232 F F T
    0.46703631    0.83435123    0.49979110 F F T
    0.80033923    0.83429740    0.50021521 F F T
    0.13284081    0.16766879    0.58292655 F F T
    0.46744207    0.16663053    0.58395727 F F T
    0.79814863    0.16797660    0.58315032 F F T
    0.30202870    0.41891935    0.58361008 F F T
    0.63204552    0.41555988    0.58288777 F F T
    0.96691606    0.41672854    0.58349307 F F T
    0.13101782    0.66548187    0.58329035 F F T
    0.46624394    0.66744433    0.58339320 F F T
    0.79774262    0.66698656    0.58267837 F F T
    0.30098910    0.91466669    0.58367905 F F T
    0.63153464    0.91791064    0.58369741 F F T
    0.96596819    0.91504565    0.58383265 F F T
    0.13174479    0.99812093    0.66594528 F F T
    0.46409444    0.00189871    0.66727670 F F T
    0.79784035    0.99977907    0.66607014 F F T
    0.29783258    0.24797575    0.66744076 F F T
    0.63544398    0.24972623    0.66692396 F F T
    0.96856255    0.24891333    0.66622615 F F T
    0.13381471    0.49820783    0.66737535 F F T
    0.46616126    0.50057310    0.66591505 F F T
    0.80197177    0.49883771    0.66687389 F F T
    0.30079693    0.74914095    0.66680549 F F T
    0.63585148    0.75214921    0.66639656 F F T
    0.96455775    0.74855637    0.66633998 F F T
    0.29948673    0.08240863    0.74929699 F F T
    0.63424188    0.08412521    0.75066107 F F T
    0.96713509    0.08462585    0.74948734 F F T
    0.13116646    0.33288311    0.74969146 F F T
    0.46427053    0.33293871    0.74969936 F F T
    0.79777976    0.33548857    0.75060228 F F T
    0.30245618    0.58339103    0.74989261 F F T
    0.63245135    0.58559095    0.75035560 F F T
    0.96590102    0.58245067    0.75047364 F F T
    0.13460168    0.83313060    0.74931143 F F T
    0.46680753    0.83479660    0.74995401 F F T
    0.80210532    0.83345230    0.74991526 F F T
    0.13367350    0.16700593    0.83291660 F F T
    0.46603117    0.16882917    0.83394531 F F T
    0.79781025    0.16555384    0.83366728 F F T
    0.30208103    0.41850823    0.83378934 F F T
    0.63389576    0.41888823    0.83290600 F F T
    0.96744118    0.41442756    0.83294759 F F T
    0.13246169    0.66624251    0.83310140 F F T
    0.46624546    0.66843547    0.83280087 F F T
    0.79837667    0.66484858    0.83338666 F F T
    0.30030170    0.91771113    0.83365746 F F T
    0.63252816    0.91731703    0.83376731 F F T
    0.96567974    0.91526672    0.83329175 F F T
    0.13352604    0.00160643    0.91641317 F F T
    0.46439290    0.99796002    0.91620167 F F T
    0.80052864    0.00173406    0.91714964 F F T
    0.30139411    0.25122146    0.91601012 F F T
    0.63425449    0.25106691    0.91743067 F F T
    0.96765392    0.24994489    0.91679494 F F T
    0.13219701    0.50049477    0.91744125 F F T
    0.46547312    0.50020418    0.91589338 F F T
    0.80036482    0.50163084    0.91726828 F F T
    0.30023801    0.74803008    0.91601088 F F T
    0.63093286    0.74840709    0.91682035 F F T
    0.96807452    0.74853640    0.91591724 F F T
