Cu
 1.0000000000000000
    12.3504301262978302    0.0000000000000000    0.0000000000000000
     0.0000000000000000   13.2343159365403835    0.0000000000000000
     0.0000000000000000    0.0000000000000000   17.4643916259396370
 Cu 
 285
Cartesian
  3.2914409350782963  0.3484961752168703  3.1493515729014767
  3.2051943135242960  4.5227386252168706  1.6760562799644783
  3.2914409350782963  6.6098598452168691  3.1493515729014767
  3.2051943135242960 10.7841022952168686  1.6760562799644783
  3.2914409350782963 12.8712235152168706  3.1493515729014767
  0.5671253939882960  2.4356173952168705  0.3521445173074760
  0.5671253939882960  8.6969810652168711  0.3521445173074760
  1.8861598584552965  0.3484961752168703  1.0141003933524768
  2.0586531015622964  4.5227386252168706  3.9606909792274756
  1.9724064800082959  2.4356173952168705  2.4873956862894779
  0.7396186370942964  0.3484961752168703  3.2987351031824765
  0.6533720155412963  4.5227386252168706  1.8254398102454781
  1.8861598584552965  6.6098598452168691  1.0141003933524768
  2.0586531015622964 10.7841022952168686  3.9606909792274756
  1.9724064800082959  8.6969810652168711  2.4873956862894779
  0.7396186370942964  6.6098598452168691  3.2987351031824765
  0.6533720155412963 10.7841022952168686  1.8254398102454781
  1.8861598584552965 12.8712235152168706  1.0141003933524768
  0.7396186370942964 12.8712235152168706  3.2987351031824765
  8.0153030960042937  2.4356173952168705  0.5015280475884785
  8.0153030960042937  8.6969810652168711  0.5015280475884785
  8.1877963391112942  0.3484961752168703  3.4481186334634764
  8.1015497175572957  4.5227386252168706  1.9748233405264779
  8.1877963391112942  6.6098598452168691  3.4481186334634764
  8.1015497175572957 10.7841022952168686  1.9748233405264779
  8.1877963391112942 12.8712235152168706  3.4481186334634764
  5.4634807980212958  2.4356173952168705  0.6509115778694783
  5.4634807980212958  8.6969810652168711  0.6509115778694783
  6.7825152624882952  0.3484961752168703  1.3128674539144765
  6.8687618840422964  2.4356173952168705  2.7861627468514776
  5.6359740411272963  0.3484961752168703  3.5975021637444762
  5.5497274195742961  4.5227386252168706  2.1242068708074768
  6.7825152624882952  6.6098598452168691  1.3128674539144765
  6.8687618840422964  8.6969810652168711  2.7861627468514776
  5.6359740411272963  6.6098598452168691  3.5975021637444762
  5.5497274195742961 10.7841022952168686  2.1242068708074768
  6.7825152624882952 12.8712235152168706  1.3128674539144765
  5.6359740411272963 12.8712235152168706  3.5975021637444762
  0.4746636922182960  2.4356173952168705  0.2229513569104764
  0.4746636922182960  8.6969810652168711  0.2229513569104764
  1.8703998322462971  4.5227386252168706  0.7024908411054760
  3.2661359801732965  0.3484961752168703  1.1820303135704764
  1.8703998322462971 10.7841022952168686  0.7024908411054760
  3.2661359801732965  6.6098598452168691  1.1820303135704764
  3.2661359801732965 12.8712235152168706  1.1820303135704764
  4.3792974172682966  4.5227386252168706  0.2130570994484779
  4.3792974172682966 10.7841022952168686  0.2130570994484779
  4.3621600505352971  4.5227386252168706  3.4500330803314760
  4.3621600505352971 10.7841022952168686  3.4500330803314760
  3.2914409350782963  0.3484961752168703 13.1493515729014767
  3.2051943135242960  4.5227386252168706 11.6760562799644774
  3.2914409350782963  6.6098598452168691 13.1493515729014767
  3.2051943135242960 10.7841022952168686 11.6760562799644774
  3.2914409350782963 12.8712235152168706 13.1493515729014767
  0.5671253939882960  2.4356173952168705 10.3521445173074760
  0.5671253939882960  8.6969810652168711 10.3521445173074760
  1.8861598584552965  0.3484961752168703 11.0141003933524768
  2.0586531015622964  4.5227386252168706 13.9606909792274756
  1.9724064800082959  2.4356173952168705 12.4873956862894779
  0.7396186370942964  0.3484961752168703 13.2987351031824765
  0.8258652586472963  2.4356173952168705  4.7720303961194759
  0.6533720155412963  4.5227386252168706 11.8254398102454772
  1.8861598584552965  6.6098598452168691 11.0141003933524768
  2.0586531015622964 10.7841022952168686 13.9606909792274756
  1.9724064800082959  8.6969810652168711 12.4873956862894779
  0.7396186370942964  6.6098598452168691 13.2987351031824765
  0.8258652586472963  8.6969810652168711  4.7720303961194759
  0.6533720155412963 10.7841022952168686 11.8254398102454772
  1.8861598584552965 12.8712235152168706 11.0141003933524768
  0.7396186370942964 12.8712235152168706 13.2987351031824765
  8.0153030960042937  2.4356173952168705 10.5015280475884794
  8.0153030960042937  8.6969810652168711 10.5015280475884794
  8.1877963391112942  0.3484961752168703 13.4481186334634764
  8.2740429606642945  2.4356173952168705  4.9214139264004766
  8.1015497175572957  4.5227386252168706 11.9748233405264770
  8.1877963391112942  6.6098598452168691 13.4481186334634764
  8.2740429606642945  8.6969810652168711  4.9214139264004766
  8.1015497175572957 10.7841022952168686 11.9748233405264770
  8.1877963391112942 12.8712235152168706 13.4481186334634764
  8.3602895822172965  4.5227386252168706  6.3947092193384769
  8.3602895822172965 10.7841022952168686  6.3947092193384769
  6.6962686409352958  4.5227386252168706  9.8395721609774753
  5.4634807980212958  2.4356173952168705 10.6509115778694792
  6.6962686409352958 10.7841022952168686  9.8395721609774753
  5.4634807980212958  8.6969810652168711 10.6509115778694792
  6.7825152624882952  0.3484961752168703 11.3128674539144765
  6.9550085055952984  4.5227386252168706  4.2594580397894761
  6.8687618840422964  2.4356173952168705 12.7861627468514776
  5.6359740411272963  0.3484961752168703 13.5975021637444762
  5.7222206626802947  2.4356173952168705  5.0707974566814764
  5.5497274195742961  4.5227386252168706 12.1242068708074768
  6.7825152624882952  6.6098598452168691 11.3128674539144765
  6.9550085055952984 10.7841022952168686  4.2594580397894761
  6.8687618840422964  8.6969810652168711 12.7861627468514776
  5.6359740411272963  6.6098598452168691 13.5975021637444762
  5.7222206626802947  8.6969810652168711  5.0707974566814764
  5.5497274195742961 10.7841022952168686 12.1242068708074768
  6.7825152624882952 12.8712235152168706 11.3128674539144765
  5.6359740411272963 12.8712235152168706 13.5975021637444762
  7.0412551271482959  0.3484961752168703  5.7327533327264764
  7.1275017487012962  2.4356173952168705  7.2060486256634775
  7.0412551271482959  6.6098598452168691  5.7327533327264764
  7.1275017487012962  8.6969810652168711  7.2060486256634775
  7.0412551271482959 12.8712235152168706  5.7327533327264764
  7.4006167013322957  0.3484961752168703  7.8153597019354777
  7.6831914042642957  4.5227386252168706  9.2638724002514756
  7.4006167013322957  6.6098598452168691  7.8153597019354777
  7.6831914042642957 10.7841022952168686  9.2638724002514756
  7.4006167013322957 12.8712235152168706  7.8153597019354777
  0.4746636922182960  2.4356173952168705 10.2229513569104764
  0.4746636922182960  8.6969810652168711 10.2229513569104764
  0.1920889892862967  4.5227386252168706  8.7744386585944767
  0.1920889892862967 10.7841022952168686  8.7744386585944767
  1.8703998322462971  4.5227386252168706 10.7024908411054760
  3.2661359801732965  0.3484961752168703 11.1820303135704755
  2.9835612772412965  2.4356173952168705  9.7335176152534792
  1.8703998322462971 10.7841022952168686 10.7024908411054760
  3.2661359801732965  6.6098598452168691 11.1820303135704755
  2.9835612772412965  8.6969810652168711  9.7335176152534792
  3.2661359801732965 12.8712235152168706 11.1820303135704755
  1.5878251293142962  0.3484961752168703  9.2539781427884762
  1.0226757234492960  4.5227386252168706  6.3569527461564768
  1.3052504263822962  2.4356173952168705  7.8054654444724774
  2.4184118713772960  0.3484961752168703  6.8364922186214763
  2.1358371684452964  2.4356173952168705  5.3879795203044765
  2.7009865743092973  4.5227386252168706  8.2850049169374760
  1.5878251293142962  6.6098598452168691  9.2539781427884762
  1.0226757234492960 10.7841022952168686  6.3569527461564768
  1.3052504263822962  8.6969810652168711  7.8054654444724774
  2.4184118713772960  6.6098598452168691  6.8364922186214763
  2.1358371684452964  8.6969810652168711  5.3879795203044765
  2.7009865743092973 10.7841022952168686  8.2850049169374760
  1.5878251293142962 12.8712235152168706  9.2539781427884762
  2.4184118713772960 12.8712235152168706  6.8364922186214763
  4.3792974172682966  4.5227386252168706 10.2130570994484771
  5.4924588622642974  2.4356173952168705  9.2440838735964768
  4.3792974172682966 10.7841022952168686 10.2130570994484771
  5.4924588622642974  8.6969810652168711  9.2440838735964768
  4.0967227143362965  0.3484961752168703  8.7645444011314773
  3.5315733084722969  4.5227386252168706  5.8675190044994778
  3.8141480114042965  2.4356173952168705  7.3160317028154775
  4.9273094564002964  0.3484961752168703  6.3470584769644764
  4.6447347534682955  2.4356173952168705  4.8985457786474775
  5.2098841593322982  4.5227386252168706  7.7955711752804762
  4.0967227143362965  6.6098598452168691  8.7645444011314773
  3.5315733084722969 10.7841022952168686  5.8675190044994778
  3.8141480114042965  8.6969810652168711  7.3160317028154775
  4.9273094564002964  6.6098598452168691  6.3470584769644764
  4.6447347534682955  8.6969810652168711  4.8985457786474775
  5.2098841593322982 10.7841022952168686  7.7955711752804762
  4.0967227143362965 12.8712235152168706  8.7645444011314773
  4.9273094564002964 12.8712235152168706  6.3470584769644764
  3.2489986055402968  0.3484961752168703  4.4190063061834763
  4.3621600505352971  4.5227386252168706 13.4500330803314760
  3.2489986055402968  6.6098598452168691  4.4190063061834763
  4.3621600505352971 10.7841022952168686 13.4500330803314760
  3.2489986055402968 12.8712235152168706  4.4190063061834763
  0.8258652586472963  2.4356173952168705 14.7720303961194759
  0.8258652586472963  8.6969810652168711 14.7720303961194759
  8.2740429606642945  2.4356173952168705 14.9214139264004739
  8.2740429606642945  8.6969810652168711 14.9214139264004739
  8.3602895822172965  4.5227386252168706 16.3947092193384769
  8.3602895822172965 10.7841022952168686 16.3947092193384769
  6.9550085055952984  4.5227386252168706 14.2594580397894770
  5.7222206626802947  2.4356173952168705 15.0707974566814755
  6.9550085055952984 10.7841022952168686 14.2594580397894770
  5.7222206626802947  8.6969810652168711 15.0707974566814755
  7.0412551271482959  0.3484961752168703 15.7327533327264764
  7.1275017487012962  2.4356173952168705 17.2060486256634775
  7.0412551271482959  6.6098598452168691 15.7327533327264764
  7.1275017487012962  8.6969810652168711 17.2060486256634775
  7.0412551271482959 12.8712235152168706 15.7327533327264764
  1.0226757234492960  4.5227386252168706 16.3569527461564768
  2.4184118713772960  0.3484961752168703 16.8364922186214763
  2.1358371684452964  2.4356173952168705 15.3879795203044765
  1.0226757234492960 10.7841022952168686 16.3569527461564768
  2.4184118713772960  6.6098598452168691 16.8364922186214763
  2.1358371684452964  8.6969810652168711 15.3879795203044765
  2.4184118713772960 12.8712235152168706 16.8364922186214763
  3.5315733084722969  4.5227386252168706 15.8675190044994761
  3.8141480114042965  2.4356173952168705 17.3160317028154793
  4.9273094564002964  0.3484961752168703 16.3470584769644773
  4.6447347534682955  2.4356173952168705 14.8985457786474758
  3.5315733084722969 10.7841022952168686 15.8675190044994761
  3.8141480114042965  8.6969810652168711 17.3160317028154793
  4.9273094564002964  6.6098598452168691 16.3470584769644773
  4.6447347534682955  8.6969810652168711 14.8985457786474758
  4.9273094564002964 12.8712235152168706 16.3470584769644773
  3.2489986055402968  0.3484961752168703 14.4190063061834763
  3.2489986055402968  6.6098598452168691 14.4190063061834763
  3.2489986055402968 12.8712235152168706 14.4190063061834763
 10.5671253939882934  2.4356173952168705  0.3521445173074760
 10.5671253939882934  8.6969810652168711  0.3521445173074760
 11.8861598584552972  0.3484961752168703  1.0141003933524768
 12.0586531015622924  4.5227386252168706  3.9606909792274756
 11.9724064800082939  2.4356173952168705  2.4873956862894779
 10.7396186370942939  0.3484961752168703  3.2987351031824765
 10.6533720155412972  4.5227386252168706  1.8254398102454781
 11.8861598584552972  6.6098598452168691  1.0141003933524768
 12.0586531015622924 10.7841022952168686  3.9606909792274756
 11.9724064800082939  8.6969810652168711  2.4873956862894779
 10.7396186370942939  6.6098598452168691  3.2987351031824765
 10.6533720155412972 10.7841022952168686  1.8254398102454781
 11.8861598584552972 12.8712235152168706  1.0141003933524768
 10.7396186370942939 12.8712235152168706  3.2987351031824765
  9.3343375604722958  0.3484961752168703  1.1634839236334766
  9.4205841820252942  2.4356173952168705  2.6367792165704778
  9.3343375604722958  6.6098598452168691  1.1634839236334766
  9.4205841820252942  8.6969810652168711  2.6367792165704778
  9.3343375604722958 12.8712235152168706  1.1634839236334766
 10.4746636922182947  2.4356173952168705  0.2229513569104764
 10.4746636922182947  8.6969810652168711  0.2229513569104764
 11.8703998322462976  4.5227386252168706  0.7024908411054760
 11.8703998322462976 10.7841022952168686  0.7024908411054760
 10.5671253939882934  2.4356173952168705 10.3521445173074760
 10.5671253939882934  8.6969810652168711 10.3521445173074760
 11.8861598584552972  0.3484961752168703 11.0141003933524768
 12.0586531015622924  4.5227386252168706 13.9606909792274756
 11.9724064800082939  2.4356173952168705 12.4873956862894779
 10.7396186370942939  0.3484961752168703 13.2987351031824765
 10.8258652586472959  2.4356173952168705  4.7720303961194759
 10.6533720155412972  4.5227386252168706 11.8254398102454772
 11.8861598584552972  6.6098598452168691 11.0141003933524768
 12.0586531015622924 10.7841022952168686 13.9606909792274756
 11.9724064800082939  8.6969810652168711 12.4873956862894779
 10.7396186370942939  6.6098598452168691 13.2987351031824765
 10.8258652586472959  8.6969810652168711  4.7720303961194759
 10.6533720155412972 10.7841022952168686 11.8254398102454772
 11.8861598584552972 12.8712235152168706 11.0141003933524768
 10.7396186370942939 12.8712235152168706 13.2987351031824765
  9.3343375604722958  0.3484961752168703 11.1634839236334766
  9.5068308035782945  4.5227386252168706  4.1100745095084763
  9.4205841820252942  2.4356173952168705 12.6367792165704778
  9.3343375604722958  6.6098598452168691 11.1634839236334766
  9.5068308035782945 10.7841022952168686  4.1100745095084763
  9.4205841820252942  8.6969810652168711 12.6367792165704778
  9.3343375604722958 12.8712235152168706 11.1634839236334766
  9.5930774251312947  0.3484961752168703  5.5833698024454765
  9.5930774251312947  6.6098598452168691  5.5833698024454765
  9.5930774251312947 12.8712235152168706  5.5833698024454765
 10.4746636922182947  2.4356173952168705 10.2229513569104764
 10.4746636922182947  8.6969810652168711 10.2229513569104764
  9.0789275442912967  0.3484961752168703  9.7434118844464788
  8.5137781384272966  4.5227386252168706  6.8463864878134766
  8.7963528413592957  2.4356173952168705  8.2948991861294772
  9.9095142863542947  0.3484961752168703  7.3259259602784770
  9.6269395834222955  2.4356173952168705  5.8774132619614772
 10.1920889892862974  4.5227386252168706  8.7744386585944767
  9.0789275442912967  6.6098598452168691  9.7434118844464788
  8.5137781384272966 10.7841022952168686  6.8463864878134766
  8.7963528413592957  8.6969810652168711  8.2948991861294772
  9.9095142863542947  6.6098598452168691  7.3259259602784770
  9.6269395834222955  8.6969810652168711  5.8774132619614772
 10.1920889892862974 10.7841022952168686  8.7744386585944767
  9.0789275442912967 12.8712235152168706  9.7434118844464788
  9.9095142863542947 12.8712235152168706  7.3259259602784770
 11.8703998322462976  4.5227386252168706 10.7024908411054760
 11.8703998322462976 10.7841022952168686 10.7024908411054760
 11.5878251293142966  0.3484961752168703  9.2539781427884762
 11.0226757234492965  4.5227386252168706  6.3569527461564768
 11.3052504263822939  2.4356173952168705  7.8054654444724774
 12.1358371684452937  2.4356173952168705  5.3879795203044765
 11.5878251293142966  6.6098598452168691  9.2539781427884762
 11.0226757234492965 10.7841022952168686  6.3569527461564768
 11.3052504263822939  8.6969810652168711  7.8054654444724774
 12.1358371684452937  8.6969810652168711  5.3879795203044765
 11.5878251293142966 12.8712235152168706  9.2539781427884762
 10.8258652586472959  2.4356173952168705 14.7720303961194759
 10.8258652586472959  8.6969810652168711 14.7720303961194759
  9.5068308035782945  4.5227386252168706 14.1100745095084754
  9.5068308035782945 10.7841022952168686 14.1100745095084754
  9.5930774251312947  0.3484961752168703 15.5833698024454765
  9.5930774251312947  6.6098598452168691 15.5833698024454765
  9.5930774251312947 12.8712235152168706 15.5833698024454765
  8.5137781384272966  4.5227386252168706 16.8463864878134757
  9.9095142863542947  0.3484961752168703 17.3259259602784752
  9.6269395834222955  2.4356173952168705 15.8774132619614772
  8.5137781384272966 10.7841022952168686 16.8463864878134757
  9.9095142863542947  6.6098598452168691 17.3259259602784752
  9.6269395834222955  8.6969810652168711 15.8774132619614772
  9.9095142863542947 12.8712235152168706 17.3259259602784752
 11.0226757234492965  4.5227386252168706 16.3569527461564768
 12.1358371684452937  2.4356173952168705 15.3879795203044765
 11.0226757234492965 10.7841022952168686 16.3569527461564768
 12.1358371684452937  8.6969810652168711 15.3879795203044765
