Cu
 1.0000000000000000
    13.8179097742782151    0.0000000000000000    0.0000000000000000
     0.0000000000000000   16.4366782961266793    0.0000000000000000
     0.0000000000000000    0.0000000000000000   12.5105380488334035
 Cu 
 254
Cartesian
  0.2667199330324622  9.6590600633029489  1.2042598939073903
  0.2667199330324622  3.3976963933029509  1.2042598939073903
  0.0942266899254616 13.8333025133029501  8.2576693080323924
  0.0942266899254616  7.5719388433029557  8.2576693080323924
  0.0942266899254616  1.3105751733029507  8.2576693080323924
  0.3529665545854624 13.8333025133029501  2.6775551868443901
  0.1804733114784618 11.7461812833029491  9.7309646009703918
  0.2667199330324622  9.6590600633029489 11.2042598939073894
  0.3529665545854624  7.5719388433029557  2.6775551868443901
  0.1804733114784618  5.4848176133029511  9.7309646009703918
  0.2667199330324622  3.3976963933029509 11.2042598939073894
  0.3529665545854624  1.3105751733029507  2.6775551868443901
  0.4392131761384626 11.7461812833029491  4.1508504797823900
  0.4392131761384626  5.4848176133029511  4.1508504797823900
  0.2667199330324622 15.9204237333029504  1.2042598939073903
  0.2667199330324622 15.9204237333029504 11.2042598939073894
  5.3703645289994641  9.6590600633029489  0.9054928333453907
  5.3703645289994641  3.3976963933029509  0.9054928333453907
  4.1375766954834621 11.7461812833029491  1.7168322396713895
  4.0513300739294635 13.8333025133029501  0.2435369467333919
  4.1375766954834621  5.4848176133029511  1.7168322396713895
  4.0513300739294635  7.5719388433029557  0.2435369467333919
  2.8185422310154626  9.6590600633029489  1.0548763636263905
  4.0513300739294635  1.3105751733029507  0.2435369467333919
  2.8185422310154626  3.3976963933029509  1.0548763636263905
  1.4995077759464626 13.8333025133029501  0.3929204770143917
  1.4995077759464626  7.5719388433029557  0.3929204770143917
 10.2667199330324621  9.6590600633029489  1.2042598939073903
  1.4995077759464626  1.3105751733029507  0.3929204770143917
 10.2667199330324621  3.3976963933029509  1.2042598939073903
  8.9476854779634625 13.8333025133029501  0.5423040072953915
  8.9476854779634625  7.5719388433029557  0.5423040072953915
  7.7148976350484624  9.6590600633029489  1.3536434241883901
  8.9476854779634625  1.3105751733029507  0.5423040072953915
  7.7148976350484624  3.3976963933029509  1.3536434241883901
  6.4410836444564632 11.7461812833029491  1.2061743407753898
  6.4410836444564632  5.4848176133029511  1.2061743407753898
  5.2841179074454629 11.7461812833029491  9.4321975404083922
  5.3703645289994641  9.6590600633029489 10.9054928333453915
  5.2841179074454629  5.4848176133029511  9.4321975404083922
  5.3703645289994641  3.3976963933029509 10.9054928333453915
  2.6460489879094622 13.8333025133029501  8.1082857777513908
  2.6460489879094622  7.5719388433029557  8.1082857777513908
  2.6460489879094622  1.3105751733029507  8.1082857777513908
  4.1375766954834621 11.7461812833029491 11.7168322396713904
  4.0513300739294635 13.8333025133029501 10.2435369467333928
  2.9047888525684624 13.8333025133029501  2.5281716565633903
  2.7322956094624624 11.7461812833029491  9.5815810706893902
  3.9650834523764629  9.6590600633029489  8.7702416537963899
  4.1375766954834621  5.4848176133029511 11.7168322396713904
  4.0513300739294635  7.5719388433029557 10.2435369467333928
  2.8185422310154626  9.6590600633029489 11.0548763636263878
  2.9047888525684624  7.5719388433029557  2.5281716565633903
  2.7322956094624624  5.4848176133029511  9.5815810706893902
  3.9650834523764629  3.3976963933029509  8.7702416537963899
  4.0513300739294635  1.3105751733029507 10.2435369467333928
  2.8185422310154626  3.3976963933029509 11.0548763636263878
  2.9047888525684624  1.3105751733029507  2.5281716565633903
 10.0942266899254616 13.8333025133029501  8.2576693080323924
 10.0942266899254616  7.5719388433029557  8.2576693080323924
 10.0942266899254616  1.3105751733029507  8.2576693080323924
  1.5857543974994628 11.7461812833029491  1.8662157699523898
  1.4995077759464626 13.8333025133029501 10.3929204770143890
 10.3529665545854659 13.8333025133029501  2.6775551868443901
 10.1804733114784653 11.7461812833029491  9.7309646009703918
  1.4132611543934623  9.6590600633029489  8.9196251840773897
  1.5857543974994628  5.4848176133029511  1.8662157699523898
  1.4995077759464626  7.5719388433029557 10.3929204770143890
 10.2667199330324621  9.6590600633029489 11.2042598939073894
 10.3529665545854659  7.5719388433029557  2.6775551868443901
 10.1804733114784653  5.4848176133029511  9.7309646009703918
  1.4132611543934623  3.3976963933029509  8.9196251840773897
  1.4995077759464626  1.3105751733029507 10.3929204770143890
 10.2667199330324621  3.3976963933029509 11.2042598939073894
 10.3529665545854659  1.3105751733029507  2.6775551868443901
 10.4392131761384626 11.7461812833029491  4.1508504797823900
  1.6720010190524628  9.6590600633029489  3.3395110628893896
 10.4392131761384626  5.4848176133029511  4.1508504797823900
  1.6720010190524628  3.3976963933029509  3.3395110628893896
  8.7751922348564655 11.7461812833029491  7.5957134214213893
  7.5424043919424637 13.8333025133029501  8.4070528383133922
  8.7751922348564655  5.4848176133029511  7.5957134214213893
  7.5424043919424637  7.5719388433029557  8.4070528383133922
  7.5424043919424637  1.3105751733029507  8.4070528383133922
  9.0339320995164645 11.7461812833029491  2.0155993002333901
  8.9476854779634625 13.8333025133029501 10.5423040072953906
  7.8011442566014635 13.8333025133029501  2.8269387171253899
  7.6286510134954666 11.7461812833029491  9.8803481312513917
  8.8614388564094622  9.6590600633029489  9.0690087143583895
  9.0339320995164645  5.4848176133029511  2.0155993002333901
  8.9476854779634625  7.5719388433029557 10.5423040072953906
  7.7148976350484624  9.6590600633029489 11.3536434241883910
  7.8011442566014635  7.5719388433029557  2.8269387171253899
  7.6286510134954666  5.4848176133029511  9.8803481312513917
  8.8614388564094622  3.3976963933029509  9.0690087143583895
  8.9476854779634625  1.3105751733029507 10.5423040072953906
  7.7148976350484624  3.3976963933029509 11.3536434241883910
  7.8011442566014635  1.3105751733029507  2.8269387171253899
  9.2064253426224649 13.8333025133029501  4.9621898861073905
  9.1201787210694629  9.6590600633029489  3.4888945931703899
  9.2064253426224649  7.5719388433029557  4.9621898861073905
  9.1201787210694629  3.3976963933029509  3.4888945931703899
  9.2064253426224649  1.3105751733029507  4.9621898861073905
  9.7621149981854618 11.7461812833029491  7.0200136606953896
  9.4795402952534626  9.6590600633029489  5.5715009623793907
  9.7621149981854618  5.4848176133029511  7.0200136606953896
  9.4795402952534626  3.3976963933029509  5.5715009623793907
  2.5535872861394622 13.8333025133029501  7.9790926173543903
  2.5535872861394622  7.5719388433029557  7.9790926173543903
  2.5535872861394622  1.3105751733029507  7.9790926173543903
  0.5927017323484624 11.7461812833029491  4.6025277482573896
  0.8752764352804625 13.8333025133029501  6.0510404465733902
  1.7058631773434623 13.8333025133029501  3.6335545224053907
  2.2710125832074626 11.7461812833029491  6.5305799190383906
  1.1578511382124628  9.6590600633029489  7.4995531448903892
  0.5927017323484624  5.4848176133029511  4.6025277482573896
  0.8752764352804625  7.5719388433029557  6.0510404465733902
  1.9884378802754630  9.6590600633029489  5.0820672207223891
  1.7058631773434623  7.5719388433029557  3.6335545224053907
  2.2710125832074626  5.4848176133029511  6.5305799190383906
  1.1578511382124628  3.3976963933029509  7.4995531448903892
  0.8752764352804625  1.3105751733029507  6.0510404465733902
  1.9884378802754630  3.3976963933029509  5.0820672207223891
  1.7058631773434623  1.3105751733029507  3.6335545224053907
  3.9493234261674641 11.7461812833029491  8.4586321015493908
  5.0624848711624626 13.8333025133029501  7.4896588756973923
  3.9493234261674641  5.4848176133029511  8.4586321015493908
  5.3450595740944626  9.6590600633029489  8.9381715740143886
  5.0624848711624626  7.5719388433029557  7.4896588756973923
  5.3450595740944626  3.3976963933029509  8.9381715740143886
  5.0624848711624626  1.3105751733029507  7.4896588756973923
  3.1015993173704621 11.7461812833029491  4.1130940066003898
  3.3841740203034627 13.8333025133029501  5.5616067049163904
  4.2147607623664625 13.8333025133029501  3.1441207807483900
  4.7799101682304634 11.7461812833029491  6.0411461773813881
  3.6667487232354627  9.6590600633029489  7.0101194032323901
  3.1015993173704621  5.4848176133029511  4.1130940066003898
  3.3841740203034627  7.5719388433029557  5.5616067049163904
  4.4973354652984625  9.6590600633029489  4.5926334790653893
  4.2147607623664625  7.5719388433029557  3.1441207807483900
  4.7799101682304634  5.4848176133029511  6.0411461773813881
  3.6667487232354627  3.3976963933029509  7.0101194032323901
  3.3841740203034627  1.3105751733029507  5.5616067049163904
  4.4973354652984625  3.3976963933029509  4.5926334790653893
  4.2147607623664625  1.3105751733029507  3.1441207807483900
  6.4582210111894645 11.7461812833029491  7.9691983598923919
  7.5713824561854643 13.8333025133029501  7.0002251340403907
  6.4582210111894645  5.4848176133029511  7.9691983598923919
  7.5713824561854643  7.5719388433029557  7.0002251340403907
  7.5713824561854643  1.3105751733029507  7.0002251340403907
  5.6104969023934634 11.7461812833029491  3.6236602649433909
  5.8930716053254626 13.8333025133029501  5.0721729632593906
  6.7236583473894642 13.8333025133029501  2.6546870390913901
  7.2888077532534652 11.7461812833029491  5.5517124357243883
  6.1756463082574644  9.6590600633029489  6.5206856615753894
  5.6104969023934634  5.4848176133029511  3.6236602649433909
  5.8930716053254626  7.5719388433029557  5.0721729632593906
  7.0062330503214643  9.6590600633029489  4.1031997374083895
  6.7236583473894642  7.5719388433029557  2.6546870390913901
  7.2888077532534652  5.4848176133029511  5.5517124357243883
  6.1756463082574644  3.3976963933029509  6.5206856615753894
  5.8930716053254626  1.3105751733029507  5.0721729632593906
  7.0062330503214643  3.3976963933029509  4.1031997374083895
  6.7236583473894642  1.3105751733029507  2.6546870390913901
  6.4410836444564632 11.7461812833029491 11.2061743407753909
  5.3279221994614634  9.6590600633029489  2.1751475666273898
  6.4410836444564632  5.4848176133029511 11.2061743407753909
  5.3279221994614634  3.3976963933029509  2.1751475666273898
  1.5857543974994628 11.7461812833029491 11.8662157699523885
  1.5857543974994628  5.4848176133029511 11.8662157699523885
  9.0339320995164645 11.7461812833029491 12.0155993002333901
  9.0339320995164645  5.4848176133029511 12.0155993002333901
  5.3279221994614634  9.6590600633029489 12.1751475666273912
  5.3279221994614634  3.3976963933029509 12.1751475666273912
  5.3703645289994641 15.9204237333029504  0.9054928333453907
  2.8185422310154626 15.9204237333029504  1.0548763636263905
 10.2667199330324621 15.9204237333029504  1.2042598939073903
  7.7148976350484624 15.9204237333029504  1.3536434241883901
  5.3703645289994641 15.9204237333029504 10.9054928333453915
  3.9650834523764629 15.9204237333029504  8.7702416537963899
  2.8185422310154626 15.9204237333029504 11.0548763636263878
  1.4132611543934623 15.9204237333029504  8.9196251840773897
 10.2667199330324621 15.9204237333029504 11.2042598939073894
  1.6720010190524628 15.9204237333029504  3.3395110628893896
  8.8614388564094622 15.9204237333029504  9.0690087143583895
  7.7148976350484624 15.9204237333029504 11.3536434241883910
  9.1201787210694629 15.9204237333029504  3.4888945931703899
  9.4795402952534626 15.9204237333029504  5.5715009623793907
  1.1578511382124628 15.9204237333029504  7.4995531448903892
  1.9884378802754630 15.9204237333029504  5.0820672207223891
  5.3450595740944626 15.9204237333029504  8.9381715740143886
  3.6667487232354627 15.9204237333029504  7.0101194032323901
  4.4973354652984625 15.9204237333029504  4.5926334790653893
  6.1756463082574644 15.9204237333029504  6.5206856615753894
  7.0062330503214643 15.9204237333029504  4.1031997374083895
  5.3279221994614634 15.9204237333029504  2.1751475666273898
  5.3279221994614634 15.9204237333029504 12.1751475666273912
 12.8185422310154635  9.6590600633029489  1.0548763636263905
 12.8185422310154635  3.3976963933029509  1.0548763636263905
 11.4995077759464621 13.8333025133029501  0.3929204770143917
 11.4995077759464621  7.5719388433029557  0.3929204770143917
 11.4995077759464621  1.3105751733029507  0.3929204770143917
 12.6460489879094631 13.8333025133029501  8.1082857777513908
 12.6460489879094631  7.5719388433029557  8.1082857777513908
 12.6460489879094631  1.3105751733029507  8.1082857777513908
 12.9047888525684620 13.8333025133029501  2.5281716565633903
 12.7322956094624669 11.7461812833029491  9.5815810706893902
 12.8185422310154635  9.6590600633029489 11.0548763636263878
 12.9047888525684620  7.5719388433029557  2.5281716565633903
 12.7322956094624669  5.4848176133029511  9.5815810706893902
 12.8185422310154635  3.3976963933029509 11.0548763636263878
 12.9047888525684620  1.3105751733029507  2.5281716565633903
 11.5857543974994659 11.7461812833029491  1.8662157699523898
 11.4995077759464621 13.8333025133029501 10.3929204770143890
 11.4132611543934654  9.6590600633029489  8.9196251840773897
 11.5857543974994659  5.4848176133029511  1.8662157699523898
 11.4995077759464621  7.5719388433029557 10.3929204770143890
 11.4132611543934654  3.3976963933029509  8.9196251840773897
 11.4995077759464621  1.3105751733029507 10.3929204770143890
 11.6720010190524626  9.6590600633029489  3.3395110628893896
 11.6720010190524626  3.3976963933029509  3.3395110628893896
 12.5535872861394626 13.8333025133029501  7.9790926173543903
 12.5535872861394626  7.5719388433029557  7.9790926173543903
 12.5535872861394626  1.3105751733029507  7.9790926173543903
 10.5927017323484645 11.7461812833029491  4.6025277482573896
 10.8752764352804636 13.8333025133029501  6.0510404465733902
 11.7058631773434652 13.8333025133029501  3.6335545224053907
 12.2710125832074635 11.7461812833029491  6.5305799190383906
 11.1578511382124628  9.6590600633029489  7.4995531448903892
 10.5927017323484645  5.4848176133029511  4.6025277482573896
 10.8752764352804636  7.5719388433029557  6.0510404465733902
 11.9884378802754643  9.6590600633029489  5.0820672207223891
 11.7058631773434652  7.5719388433029557  3.6335545224053907
 12.2710125832074635  5.4848176133029511  6.5305799190383906
 11.1578511382124628  3.3976963933029509  7.4995531448903892
 10.8752764352804636  1.3105751733029507  6.0510404465733902
 11.9884378802754643  3.3976963933029509  5.0820672207223891
 11.7058631773434652  1.3105751733029507  3.6335545224053907
 13.1015993173704661 11.7461812833029491  4.1130940066003898
 13.3841740203034654 13.8333025133029501  5.5616067049163904
 13.6667487232354663  9.6590600633029489  7.0101194032323901
 13.1015993173704661  5.4848176133029511  4.1130940066003898
 13.3841740203034654  7.5719388433029557  5.5616067049163904
 13.6667487232354663  3.3976963933029509  7.0101194032323901
 13.3841740203034654  1.3105751733029507  5.5616067049163904
 11.5857543974994659 11.7461812833029491 11.8662157699523885
 11.5857543974994659  5.4848176133029511 11.8662157699523885
 12.8185422310154635 15.9204237333029504  1.0548763636263905
 12.8185422310154635 15.9204237333029504 11.0548763636263878
 11.4132611543934654 15.9204237333029504  8.9196251840773897
 11.6720010190524626 15.9204237333029504  3.3395110628893896
 11.1578511382124628 15.9204237333029504  7.4995531448903892
 11.9884378802754643 15.9204237333029504  5.0820672207223891
 13.6667487232354663 15.9204237333029504  7.0101194032323901
