Cu
 1.0000000000000000
    16.1287024100568992    0.0000000000000000    0.0000000000000000
     0.0000000000000000   14.5005595922286723    0.0000000000000000
     0.0000000000000000    0.0000000000000000   12.4076838605990893
 Cu 
 253
Cartesian
  4.0810668816100630  3.7448599184859610  0.3738404773339230
  1.5744650481030653  1.6577386884859600  1.0377108108139215
  0.4174993110920644  1.6577386884859600  9.2637340104469246
  5.2276080935720639  3.7448599184859610  8.0892057780709248
  5.4863479582320647  3.7448599184859610  2.5090916568829220
  5.3138547151250641  1.6577386884859600  9.5625010710089242
  5.5725945797850649  1.6577386884859600  3.9823869498209219
  3.9085736385030643  1.6577386884859600  7.4272498914599216
  2.6757857955890652  3.7448599184859610  8.2385893083519228
  4.1673135031630668  1.6577386884859600  1.8471357702719218
  4.0810668816100630  3.7448599184859610 10.3738404773339248
  2.9345256602480649  3.7448599184859610  2.6584751871639218
  2.7620324171420663  1.6577386884859600  9.7118846012899223
  4.3398067462690655  3.7448599184859610  4.7937263561459220
  4.8954964018320641  1.6577386884859600  6.8515501307339228
  0.1958662748090649  3.7448599184859610  7.3211953457359238
  1.5916024148360646  1.6577386884859600  7.8007348299309243
  2.7047638598320658  3.7448599184859610  6.8317616040789231
  0.7438783060400658  1.6577386884859600  3.4551967349819228
  1.0264530089720649  3.7448599184859610  4.9037094332979230
  1.8570397510360643  3.7448599184859610  2.4862235091299221
  2.4221891569000666  1.6577386884859600  5.3832489057629216
  1.5744650481030653  1.6577386884859600 11.0377108108139215
  4.1673135031630668  1.6577386884859600 11.8471357702719224
  0.5037459326460647  5.8319811384859639  0.7370293033839221
  0.5037459326460647 12.0933448084859663  0.7370293033839221
  5.4001013366790627  5.8319811384859639  1.0357963639459218
  5.4001013366790627 12.0933448084859663  1.0357963639459218
  4.0810668816100630  7.9191023584859650  0.3738404773339230
  2.8482790386950647  5.8319811384859639  1.1851798942269216
  4.0810668816100630 14.1804660284859683  0.3738404773339230
  2.8482790386950647 12.0933448084859663  1.1851798942269216
  1.5744650481030653 10.0062235884859678  1.0377108108139215
  0.5037459326460647  5.8319811384859639 10.7370293033839221
  0.4174993110920644 10.0062235884859678  9.2637340104469246
  0.5037459326460647 12.0933448084859663 10.7370293033839221
  5.2276080935720639  7.9191023584859650  8.0892057780709248
  5.2276080935720639 14.1804660284859683  8.0892057780709248
  5.4001013366790627  5.8319811384859639 11.0357963639459218
  5.4863479582320647  7.9191023584859650  2.5090916568829220
  5.3138547151250641 10.0062235884859678  9.5625010710089242
  5.4001013366790627 12.0933448084859663 11.0357963639459218
  5.4863479582320647 14.1804660284859683  2.5090916568829220
  5.5725945797850649 10.0062235884859678  3.9823869498209219
  3.9085736385030643 10.0062235884859678  7.4272498914599216
  2.6757857955890652  7.9191023584859650  8.2385893083519228
  2.6757857955890652 14.1804660284859683  8.2385893083519228
  3.9948202600560645  5.8319811384859639  8.9005451843969219
  4.1673135031630668 10.0062235884859678  1.8471357702719218
  4.0810668816100630  7.9191023584859650 10.3738404773339248
  2.8482790386950647  5.8319811384859639 11.1851798942269216
  2.9345256602480649  7.9191023584859650  2.6584751871639218
  2.7620324171420663 10.0062235884859678  9.7118846012899223
  3.9948202600560645 12.0933448084859663  8.9005451843969219
  4.0810668816100630 14.1804660284859683 10.3738404773339248
  2.8482790386950647 12.0933448084859663 11.1851798942269216
  2.9345256602480649 14.1804660284859683  2.6584751871639218
  4.2535601247160653  5.8319811384859639  3.3204310632089218
  4.3398067462690655  7.9191023584859650  4.7937263561459220
  4.2535601247160653 12.0933448084859663  3.3204310632089218
  4.3398067462690655 14.1804660284859683  4.7937263561459220
  4.6129216989000650  5.8319811384859639  5.4030374324179231
  4.8954964018320641 10.0062235884859678  6.8515501307339228
  4.6129216989000650 12.0933448084859663  5.4030374324179231
  0.4784409777410649  5.8319811384859639  8.7697080440529227
  0.1958662748090649  7.9191023584859650  7.3211953457359238
  0.4784409777410649 12.0933448084859663  8.7697080440529227
  0.1958662748090649 14.1804660284859683  7.3211953457359238
  1.5916024148360646 10.0062235884859678  7.8007348299309243
  2.7047638598320658  7.9191023584859650  6.8317616040789231
  2.7047638598320658 14.1804660284859683  6.8317616040789231
  1.3090277119040650  5.8319811384859639  6.3522221316139218
  0.7438783060400658 10.0062235884859678  3.4551967349819228
  1.0264530089720649  7.9191023584859650  4.9037094332979230
  2.1396144539680648  5.8319811384859639  3.9347362074469223
  1.8570397510360643  7.9191023584859650  2.4862235091299221
  2.4221891569000666 10.0062235884859678  5.3832489057629216
  1.3090277119040650 12.0933448084859663  6.3522221316139218
  1.0264530089720649 14.1804660284859683  4.9037094332979230
  2.1396144539680648 12.0933448084859663  3.9347362074469223
  1.8570397510360643 14.1804660284859683  2.4862235091299221
  0.4613036031080657  5.8319811384859639  2.0066840366659218
  1.5744650481030653 10.0062235884859678 11.0377108108139215
  0.4613036031080657 12.0933448084859663  2.0066840366659218
  4.1673135031630668 10.0062235884859678 11.8471357702719224
  0.4613036031080657  5.8319811384859639 12.0066840366659218
  0.4613036031080657 12.0933448084859663 12.0066840366659218
  9.2709580991300609  1.6577386884859600  1.5483687097099210
  9.1847114775760641  3.7448599184859610  0.0750734167719234
  6.6328891795930645  3.7448599184859610  0.2244569470529232
 14.0810668816100648  3.7448599184859610  0.3738404773339230
 11.5744650481030646  1.6577386884859600  1.0377108108139215
 10.4174993110920653  1.6577386884859600  9.2637340104469246
  7.7794303915560645  3.7448599184859610  7.9398222477899214
  9.2709580991300609  1.6577386884859600 11.5483687097099210
  9.1847114775760641  3.7448599184859610 10.0750734167719234
  8.0381702562150643  3.7448599184859610  2.3597081266019218
  7.8656770131090648  1.6577386884859600  9.4131175407279244
 15.2276080935720639  3.7448599184859610  8.0892057780709248
  6.7191358011460629  1.6577386884859600  1.6977522399909220
  6.6328891795930645  3.7448599184859610 10.2244569470529232
 15.4863479582320647  3.7448599184859610  2.5090916568829220
 15.3138547151250641  1.6577386884859600  9.5625010710089242
 15.5725945797850649  1.6577386884859600  3.9823869498209219
 13.9085736385030607  1.6577386884859600  7.4272498914599216
 12.6757857955890607  3.7448599184859610  8.2385893083519228
 14.1673135031630668  1.6577386884859600  1.8471357702719218
 14.0810668816100648  3.7448599184859610 10.3738404773339248
 12.9345256602480649  3.7448599184859610  2.6584751871639218
 12.7620324171420663  1.6577386884859600  9.7118846012899223
 14.3398067462690619  3.7448599184859610  4.7937263561459220
 14.8954964018320641  1.6577386884859600  6.8515501307339228
  7.6869686897860650  3.7448599184859610  7.8106290873929218
  5.7260831359950632  1.6577386884859600  4.4340642182959211
  6.0086578389270651  3.7448599184859610  5.8825769166119217
  6.8392445809900648  3.7448599184859610  3.4650909924439222
  7.4043939868540631  1.6577386884859600  6.3621163890769221
  9.0827048298140660  1.6577386884859600  8.2901685715879214
 10.1958662748090614  3.7448599184859610  7.3211953457359238
  8.2349807210170649  1.6577386884859600  3.9446304766389217
  8.5175554239500642  3.7448599184859610  5.3931431749549219
  9.3481421660130657  3.7448599184859610  2.9756572507869223
  9.9132915718770658  1.6577386884859600  5.8726826474199214
 11.5916024148360641  1.6577386884859600  7.8007348299309243
 12.7047638598320631  3.7448599184859610  6.8317616040789231
 10.7438783060400667  1.6577386884859600  3.4551967349819228
 11.0264530089720658  3.7448599184859610  4.9037094332979230
 11.8570397510360657  3.7448599184859610  2.4862235091299221
 12.4221891569000675  1.6577386884859600  5.3832489057629216
 11.5744650481030646  1.6577386884859600 11.0377108108139215
  8.0381702562150643  3.7448599184859610 12.3597081266019213
  6.7191358011460629  1.6577386884859600 11.6977522399909208
 14.1673135031630668  1.6577386884859600 11.8471357702719224
 10.5037459326460656  5.8319811384859639  0.7370293033839221
 10.5037459326460656 12.0933448084859663  0.7370293033839221
  9.2709580991300609 10.0062235884859678  1.5483687097099210
  9.1847114775760641  7.9191023584859650  0.0750734167719234
  7.9519236346620650  5.8319811384859639  0.8864128336649221
  9.1847114775760641 14.1804660284859683  0.0750734167719234
  7.9519236346620650 12.0933448084859663  0.8864128336649221
  6.6328891795930645  7.9191023584859650  0.2244569470529232
 15.4001013366790609  5.8319811384859639  1.0357963639459218
  6.6328891795930645 14.1804660284859683  0.2244569470529232
 15.4001013366790609 12.0933448084859663  1.0357963639459218
 14.0810668816100648  7.9191023584859650  0.3738404773339230
 12.8482790386950647  5.8319811384859639  1.1851798942269216
 14.0810668816100648 14.1804660284859683  0.3738404773339230
 12.8482790386950647 12.0933448084859663  1.1851798942269216
 11.5744650481030646 10.0062235884859678  1.0377108108139215
 10.5037459326460656  5.8319811384859639 10.7370293033839221
 10.4174993110920653 10.0062235884859678  9.2637340104469246
 10.5037459326460656 12.0933448084859663 10.7370293033839221
  7.7794303915560645  7.9191023584859650  7.9398222477899214
  7.7794303915560645 14.1804660284859683  7.9398222477899214
  9.0984648560230656  5.8319811384859639  8.6017781238349222
  9.2709580991300609 10.0062235884859678 11.5483687097099210
  9.1847114775760641  7.9191023584859650 10.0750734167719234
  7.9519236346620650  5.8319811384859639 10.8864128336649220
  8.0381702562150643  7.9191023584859650  2.3597081266019218
  7.8656770131090648 10.0062235884859678  9.4131175407279244
  9.0984648560230656 12.0933448084859663  8.6017781238349222
  9.1847114775760641 14.1804660284859683 10.0750734167719234
  7.9519236346620650 12.0933448084859663 10.8864128336649220
  8.0381702562150643 14.1804660284859683  2.3597081266019218
 15.2276080935720639  7.9191023584859650  8.0892057780709248
 15.2276080935720639 14.1804660284859683  8.0892057780709248
  6.5466425580400642  5.8319811384859639  8.7511616541159221
  6.7191358011460629 10.0062235884859678  1.6977522399909220
  6.6328891795930645  7.9191023584859650 10.2244569470529232
 15.4001013366790609  5.8319811384859639 11.0357963639459218
 15.4863479582320647  7.9191023584859650  2.5090916568829220
 15.3138547151250641 10.0062235884859678  9.5625010710089242
  6.5466425580400642 12.0933448084859663  8.7511616541159221
  6.6328891795930645 14.1804660284859683 10.2244569470529232
 15.4001013366790609 12.0933448084859663 11.0357963639459218
 15.4863479582320647 14.1804660284859683  2.5090916568829220
  6.8053824226990649  5.8319811384859639  3.1710475329279220
 15.5725945797850649 10.0062235884859678  3.9823869498209219
  6.8053824226990649 12.0933448084859663  3.1710475329279220
 13.9085736385030607 10.0062235884859678  7.4272498914599216
 12.6757857955890607  7.9191023584859650  8.2385893083519228
 12.6757857955890607 14.1804660284859683  8.2385893083519228
 13.9948202600560609  5.8319811384859639  8.9005451843969219
 14.1673135031630668 10.0062235884859678  1.8471357702719218
 14.0810668816100648  7.9191023584859650 10.3738404773339248
 12.8482790386950647  5.8319811384859639 11.1851798942269216
 12.9345256602480649  7.9191023584859650  2.6584751871639218
 12.7620324171420663 10.0062235884859678  9.7118846012899223
 13.9948202600560609 12.0933448084859663  8.9005451843969219
 14.0810668816100648 14.1804660284859683 10.3738404773339248
 12.8482790386950647 12.0933448084859663 11.1851798942269216
 12.9345256602480649 14.1804660284859683  2.6584751871639218
 14.2535601247160617  5.8319811384859639  3.3204310632089218
 14.3398067462690619  7.9191023584859650  4.7937263561459220
 14.2535601247160617 12.0933448084859663  3.3204310632089218
 14.3398067462690619 14.1804660284859683  4.7937263561459220
 14.6129216989000614  5.8319811384859639  5.4030374324179231
 14.8954964018320641 10.0062235884859678  6.8515501307339228
 14.6129216989000614 12.0933448084859663  5.4030374324179231
  7.6869686897860650  7.9191023584859650  7.8106290873929218
  7.6869686897860650 14.1804660284859683  7.8106290873929218
  6.2912325418590651  5.8319811384859639  7.3310896149289224
  5.7260831359950632 10.0062235884859678  4.4340642182959211
  6.0086578389270651  7.9191023584859650  5.8825769166119217
  7.1218192839220649  5.8319811384859639  4.9136036907609215
  6.8392445809900648  7.9191023584859650  3.4650909924439222
  7.4043939868540631 10.0062235884859678  6.3621163890769221
  6.2912325418590651 12.0933448084859663  7.3310896149289224
  6.0086578389270651 14.1804660284859683  5.8825769166119217
  7.1218192839220649 12.0933448084859663  4.9136036907609215
  6.8392445809900648 14.1804660284859683  3.4650909924439222
  9.0827048298140660 10.0062235884859678  8.2901685715879214
 10.4784409777410659  5.8319811384859639  8.7697080440529227
 10.1958662748090614  7.9191023584859650  7.3211953457359238
 10.4784409777410659 12.0933448084859663  8.7697080440529227
 10.1958662748090614 14.1804660284859683  7.3211953457359238
  8.8001301268820615  5.8319811384859639  6.8416558732709216
  8.2349807210170649 10.0062235884859678  3.9446304766389217
  8.5175554239500642  7.9191023584859650  5.3931431749549219
  9.6307168689450648  5.8319811384859639  4.4241699491039217
  9.3481421660130657  7.9191023584859650  2.9756572507869223
  9.9132915718770658 10.0062235884859678  5.8726826474199214
  8.8001301268820615 12.0933448084859663  6.8416558732709216
  8.5175554239500642 14.1804660284859683  5.3931431749549219
  9.6307168689450648 12.0933448084859663  4.4241699491039217
  9.3481421660130657 14.1804660284859683  2.9756572507869223
 11.5916024148360641 10.0062235884859678  7.8007348299309243
 12.7047638598320631  7.9191023584859650  6.8317616040789231
 12.7047638598320631 14.1804660284859683  6.8317616040789231
 11.3090277119040650  5.8319811384859639  6.3522221316139218
 10.7438783060400667 10.0062235884859678  3.4551967349819228
 11.0264530089720658  7.9191023584859650  4.9037094332979230
 12.1396144539680648  5.8319811384859639  3.9347362074469223
 11.8570397510360657  7.9191023584859650  2.4862235091299221
 12.4221891569000675 10.0062235884859678  5.3832489057629216
 11.3090277119040650 12.0933448084859663  6.3522221316139218
 11.0264530089720658 14.1804660284859683  4.9037094332979230
 12.1396144539680648 12.0933448084859663  3.9347362074469223
 11.8570397510360657 14.1804660284859683  2.4862235091299221
 10.4613036031080622  5.8319811384859639  2.0066840366659218
 11.5744650481030646 10.0062235884859678 11.0377108108139215
 10.4613036031080622 12.0933448084859663  2.0066840366659218
  8.0381702562150643  7.9191023584859650 12.3597081266019213
  8.0381702562150643 14.1804660284859683 12.3597081266019213
  6.7191358011460629 10.0062235884859678 11.6977522399909208
 14.1673135031630668 10.0062235884859678 11.8471357702719224
 10.4613036031080622  5.8319811384859639 12.0066840366659218
 10.4613036031080622 12.0933448084859663 12.0066840366659218
 15.7260831359950650  1.6577386884859600  4.4340642182959211
 16.0086578389270642  3.7448599184859610  5.8825769166119217
 15.7260831359950650 10.0062235884859678  4.4340642182959211
 16.0086578389270642  7.9191023584859650  5.8825769166119217
 16.0086578389270642 14.1804660284859683  5.8825769166119217
