Cu
 1.0000000000000000
    17.0466579229179374    0.0000000000000000    0.0000000000000000
     0.0000000000000000   13.4200526594957399    0.0000000000000000
     0.0000000000000000    0.0000000000000000   14.7108450848768406
 Cu 
 266
Cartesian
  2.2873460236112626  3.2162999451241205  5.7931163211866616
  2.3735926451652629  5.3034211651241217  7.2664116141236601
  2.2873460236112626  9.4776636051241212  5.7931163211866616
  2.3735926451652629 11.5647848351241187  7.2664116141236601
  1.1408048116492626  3.2162999451241205  8.0777510204496590
  1.0545581900952623  1.1291787151241213  6.6044557275116622
  0.9683115685422639  5.3034211651241217  5.1311604345746602
  1.1408048116492626  9.4776636051241212  8.0777510204496590
  1.0545581900952623  7.3905423851241210  6.6044557275116622
  0.9683115685422639 11.5647848351241187  5.1311604345746602
  7.0974548060912621  1.1291787151241213  4.6185880888106619
  7.0974548060912621  7.3905423851241210  4.6185880888106619
  7.1837014276442623  3.2162999451241205  6.0918833817486613
  7.2699480491982627  5.3034211651241217  7.5651786746856597
  7.1837014276442623  9.4776636051241212  6.0918833817486613
  7.2699480491982627 11.5647848351241187  7.5651786746856597
  7.4424412923042631  3.2162999451241205  0.5117692605606599
  7.4424412923042631  9.4776636051241212  0.5117692605606599
  5.7784203510222625  3.2162999451241205  3.9566322021996601
  4.5456325081082634  1.1291787151241213  4.7679716190916617
  5.7784203510222625  9.4776636051241212  3.9566322021996601
  4.5456325081082634  7.3905423851241210  4.7679716190916617
  5.9509135941292630  1.1291787151241213  6.9032227880736610
  4.6318791296612645  3.2162999451241205  6.2412669120296602
  5.8646669725752627  5.3034211651241217  5.4299274951366598
  5.9509135941292630  7.3905423851241210  6.9032227880736610
  4.7181257512142629  5.3034211651241217  7.7145622049666605
  4.6318791296612645  9.4776636051241212  6.2412669120296602
  5.8646669725752627 11.5647848351241187  5.4299274951366598
  4.7181257512142629 11.5647848351241187  7.7145622049666605
  6.2096534587882637  1.1291787151241213  1.3231086668856600
  6.2096534587882637  7.3905423851241210  1.3231086668856600
  6.7653431143512623  3.2162999451241205  3.3809324414736599
  6.4827684114192632  5.3034211651241217  1.9324197431576606
  6.7653431143512623  9.4776636051241212  3.3809324414736599
  6.4827684114192632 11.5647848351241187  1.9324197431576606
  0.9525515423332642  3.2162999451241205  4.8195508823276594
  2.0657129873282631  1.1291787151241213  3.8505776564756613
  0.9525515423332642  9.4776636051241212  4.8195508823276594
  2.3482876902602632  5.3034211651241217  5.2990903547926598
  2.0657129873282631  7.3905423851241210  3.8505776564756613
  2.3482876902602632 11.5647848351241187  5.2990903547926598
  0.1048274335362631  3.2162999451241205  0.4740127873786597
  0.3874021364692624  1.1291787151241213  1.9225254856946599
  1.7831382843962640  3.2162999451241205  2.4020649581596594
  0.6699768394012633  5.3034211651241217  3.3710381840106596
  0.1048274335362631  9.4776636051241212  0.4740127873786597
  0.3874021364692624  7.3905423851241210  1.9225254856946599
  1.5005635814642631  5.3034211651241217  0.9535522598436598
  1.7831382843962640  9.4776636051241212  2.4020649581596594
  0.6699768394012633 11.5647848351241187  3.3710381840106596
  1.5005635814642631 11.5647848351241187  0.9535522598436598
  3.4614491273552632  3.2162999451241205  4.3301171406706613
  4.5746105723512649  1.1291787151241213  3.3611439148186601
  3.4614491273552632  9.4776636051241212  4.3301171406706613
  4.5746105723512649  7.3905423851241210  3.3611439148186601
  2.8962997214912631  1.1291787151241213  1.4330917440376605
  4.2920358694192648  3.2162999451241205  1.9126312165026595
  3.1788744244232636  5.3034211651241217  2.8816044423536598
  2.8962997214912631  7.3905423851241210  1.4330917440376605
  4.0094611664872630  5.3034211651241217  0.4641185181866598
  4.2920358694192648  9.4776636051241212  1.9126312165026595
  3.1788744244232636 11.5647848351241187  2.8816044423536598
  4.0094611664872630 11.5647848351241187  0.4641185181866598
  3.4443117606222637  3.2162999451241205  7.5670931215536585
  3.4443117606222637  9.4776636051241212  7.5670931215536585
  7.0974548060912621  1.1291787151241213 14.6185880888106627
  7.0974548060912621  7.3905423851241210 14.6185880888106627
  7.3561946707512629  1.1291787151241213  9.0384739676226591
  7.3561946707512629  7.3905423851241210  9.0384739676226591
  7.4424412923042631  3.2162999451241205 10.5117692605606603
  7.4424412923042631  9.4776636051241212 10.5117692605606603
  5.7784203510222625  3.2162999451241205 13.9566322021996587
  5.7784203510222625  9.4776636051241212 13.9566322021996587
  6.0371602156822650  3.2162999451241205  8.3765180810116604
  4.8043723727672631  1.1291787151241213  9.1878574979036589
  6.0371602156822650  9.4776636051241212  8.3765180810116604
  4.8043723727672631  7.3905423851241210  9.1878574979036589
  6.2096534587882637  1.1291787151241213 11.3231086668856609
  6.1234068372352635  5.3034211651241217  9.8498133739486597
  6.2096534587882637  7.3905423851241210 11.3231086668856609
  6.1234068372352635 11.5647848351241187  9.8498133739486597
  6.7653431143512623  3.2162999451241205 13.3809324414736590
  6.4827684114192632  5.3034211651241217 11.9324197431576611
  6.7653431143512623  9.4776636051241212 13.3809324414736590
  6.4827684114192632 11.5647848351241187 11.9324197431576611
  2.0657129873282631  1.1291787151241213 13.8505776564756644
  2.0657129873282631  7.3905423851241210 13.8505776564756644
  0.1048274335362631  3.2162999451241205 10.4740127873786601
  0.3874021364692624  1.1291787151241213 11.9225254856946599
  1.2179888785322630  1.1291787151241213  9.5050395615266599
  1.7831382843962640  3.2162999451241205 12.4020649581596594
  0.6699768394012633  5.3034211651241217 13.3710381840106596
  0.1048274335362631  9.4776636051241212 10.4740127873786601
  0.3874021364692624  7.3905423851241210 11.9225254856946599
  1.5005635814642631  5.3034211651241217 10.9535522598436597
  1.2179888785322630  7.3905423851241210  9.5050395615266599
  1.7831382843962640  9.4776636051241212 12.4020649581596594
  0.6699768394012633 11.5647848351241187 13.3710381840106596
  1.5005635814642631 11.5647848351241187 10.9535522598436597
  3.4614491273552632  3.2162999451241205 14.3301171406706604
  4.5746105723512649  1.1291787151241213 13.3611439148186601
  3.4614491273552632  9.4776636051241212 14.3301171406706604
  4.5746105723512649  7.3905423851241210 13.3611439148186601
  2.6137250185592640  3.2162999451241205  9.9845790457216594
  2.8962997214912631  1.1291787151241213 11.4330917440376609
  3.7268864635552630  1.1291787151241213  9.0156058198696591
  4.2920358694192648  3.2162999451241205 11.9126312165026587
  3.1788744244232636  5.3034211651241217 12.8816044423536606
  2.6137250185592640  9.4776636051241212  9.9845790457216594
  2.8962997214912631  7.3905423851241210 11.4330917440376609
  4.0094611664872630  5.3034211651241217 10.4641185181866607
  3.7268864635552630  7.3905423851241210  9.0156058198696591
  4.2920358694192648  9.4776636051241212 11.9126312165026587
  3.1788744244232636 11.5647848351241187 12.8816044423536606
  4.0094611664872630 11.5647848351241187 10.4641185181866607
  2.3311503156272639  5.3034211651241217  8.5360663474056597
  2.3311503156272639 11.5647848351241187  8.5360663474056597
 12.2873460236112635  3.2162999451241205  5.7931163211866616
 12.3735926451652638  5.3034211651241217  7.2664116141236601
 12.2873460236112635  9.4776636051241212  5.7931163211866616
 12.3735926451652638 11.5647848351241187  7.2664116141236601
  9.6492771040752636  1.1291787151241213  4.4692045585296594
  9.6492771040752636  7.3905423851241210  4.4692045585296594
 11.1408048116492626  3.2162999451241205  8.0777510204496590
 11.0545581900952623  1.1291787151241213  6.6044557275116622
  9.7355237256282621  3.2162999451241205  5.9424998514676615
 10.9683115685422639  5.3034211651241217  5.1311604345746602
 11.1408048116492626  9.4776636051241212  8.0777510204496590
 11.0545581900952623  7.3905423851241210  6.6044557275116622
  9.8217703471812641  5.3034211651241217  7.4157951444046599
  9.7355237256282621  9.4776636051241212  5.9424998514676615
 10.9683115685422639 11.5647848351241187  5.1311604345746602
  9.8217703471812641 11.5647848351241187  7.4157951444046599
  8.5027358921122627  1.1291787151241213  6.7538392577926611
  8.4164892705592624  5.3034211651241217  5.2805439648556600
  8.5027358921122627  7.3905423851241210  6.7538392577926611
  8.4164892705592624 11.5647848351241187  5.2805439648556600
 15.7784203510222625  3.2162999451241205  3.9566322021996601
 14.5456325081082625  1.1291787151241213  4.7679716190916617
 15.7784203510222625  9.4776636051241212  3.9566322021996601
 14.5456325081082625  7.3905423851241210  4.7679716190916617
 15.9509135941292630  1.1291787151241213  6.9032227880736610
 14.6318791296612645  3.2162999451241205  6.2412669120296602
 15.8646669725752645  5.3034211651241217  5.4299274951366598
 15.9509135941292630  7.3905423851241210  6.9032227880736610
 14.7181257512142629  5.3034211651241217  7.7145622049666605
 14.6318791296612645  9.4776636051241212  6.2412669120296602
 15.8646669725752645 11.5647848351241187  5.4299274951366598
 14.7181257512142629 11.5647848351241187  7.7145622049666605
 16.2096534587882637  1.1291787151241213  1.3231086668856600
 16.2096534587882637  7.3905423851241210  1.3231086668856600
 16.7653431143512606  3.2162999451241205  3.3809324414736599
 16.4827684114192650  5.3034211651241217  1.9324197431576606
 16.7653431143512606  9.4776636051241212  3.3809324414736599
 16.4827684114192650 11.5647848351241187  1.9324197431576606
  9.5568154023052632  1.1291787151241213  4.3400113981326598
  9.5568154023052632  7.3905423851241210  4.3400113981326598
  7.5959298485142632  3.2162999451241205  0.9634465290356595
  7.8785045514462633  1.1291787151241213  2.4119592273516597
  9.2742406993732640  3.2162999451241205  2.8914986998166601
  8.1610792543782633  5.3034211651241217  3.8604719256686599
  7.5959298485142632  9.4776636051241212  0.9634465290356595
  7.8785045514462633  7.3905423851241210  2.4119592273516597
  8.9916659964412631  5.3034211651241217  1.4429860015006595
  9.2742406993732640  9.4776636051241212  2.8914986998166601
  8.1610792543782633 11.5647848351241187  3.8604719256686599
  8.9916659964412631 11.5647848351241187  1.4429860015006595
 10.9525515423332642  3.2162999451241205  4.8195508823276594
 12.0657129873282631  1.1291787151241213  3.8505776564756613
 10.9525515423332642  9.4776636051241212  4.8195508823276594
 12.3482876902602641  5.3034211651241217  5.2990903547926598
 12.0657129873282631  7.3905423851241210  3.8505776564756613
 12.3482876902602641 11.5647848351241187  5.2990903547926598
 10.1048274335362631  3.2162999451241205  0.4740127873786597
 10.3874021364692641  1.1291787151241213  1.9225254856946599
 11.7831382843962640  3.2162999451241205  2.4020649581596594
 10.6699768394012633  5.3034211651241217  3.3710381840106596
 10.1048274335362631  9.4776636051241212  0.4740127873786597
 10.3874021364692641  7.3905423851241210  1.9225254856946599
 11.5005635814642631  5.3034211651241217  0.9535522598436598
 11.7831382843962640  9.4776636051241212  2.4020649581596594
 10.6699768394012633 11.5647848351241187  3.3710381840106596
 11.5005635814642631 11.5647848351241187  0.9535522598436598
 13.4614491273552623  3.2162999451241205  4.3301171406706613
 14.5746105723512631  1.1291787151241213  3.3611439148186601
 13.4614491273552623  9.4776636051241212  4.3301171406706613
 14.5746105723512631  7.3905423851241210  3.3611439148186601
 12.8962997214912640  1.1291787151241213  1.4330917440376605
 14.2920358694192657  3.2162999451241205  1.9126312165026595
 13.1788744244232632  5.3034211651241217  2.8816044423536598
 12.8962997214912640  7.3905423851241210  1.4330917440376605
 14.0094611664872630  5.3034211651241217  0.4641185181866598
 14.2920358694192657  9.4776636051241212  1.9126312165026595
 13.1788744244232632 11.5647848351241187  2.8816044423536598
 14.0094611664872630 11.5647848351241187  0.4641185181866598
 13.4443117606222629  3.2162999451241205  7.5670931215536585
 13.4443117606222629  9.4776636051241212  7.5670931215536585
  9.6492771040752636  1.1291787151241213 14.4692045585296594
  9.6492771040752636  7.3905423851241210 14.4692045585296594
  9.9080169687342625  1.1291787151241213  8.8890904373416593
  9.9080169687342625  7.3905423851241210  8.8890904373416593
  8.5889825136652629  3.2162999451241205  8.2271345507306588
  8.5889825136652629  9.4776636051241212  8.2271345507306588
  8.6752291352182631  5.3034211651241217  9.7004298436676599
  8.6752291352182631 11.5647848351241187  9.7004298436676599
 15.7784203510222625  3.2162999451241205 13.9566322021996587
 15.7784203510222625  9.4776636051241212 13.9566322021996587
 16.0371602156822632  3.2162999451241205  8.3765180810116604
 14.8043723727672631  1.1291787151241213  9.1878574979036589
 16.0371602156822632  9.4776636051241212  8.3765180810116604
 14.8043723727672631  7.3905423851241210  9.1878574979036589
 16.2096534587882637  1.1291787151241213 11.3231086668856609
 16.1234068372352652  5.3034211651241217  9.8498133739486597
 16.2096534587882637  7.3905423851241210 11.3231086668856609
 16.1234068372352652 11.5647848351241187  9.8498133739486597
 16.7653431143512606  3.2162999451241205 13.3809324414736590
 16.4827684114192650  5.3034211651241217 11.9324197431576611
 16.7653431143512606  9.4776636051241212 13.3809324414736590
 16.4827684114192650 11.5647848351241187 11.9324197431576611
  9.5568154023052632  1.1291787151241213 14.3400113981326616
  9.5568154023052632  7.3905423851241210 14.3400113981326616
  7.5959298485142632  3.2162999451241205 10.9634465290356591
  7.8785045514462633  1.1291787151241213 12.4119592273516606
  8.7090912935092621  1.1291787151241213  9.9944733031836606
  9.2742406993732640  3.2162999451241205 12.8914986998166601
  8.1610792543782633  5.3034211651241217 13.8604719256686604
  7.5959298485142632  9.4776636051241212 10.9634465290356591
  7.8785045514462633  7.3905423851241210 12.4119592273516606
  8.9916659964412631  5.3034211651241217 11.4429860015006586
  8.7090912935092621  7.3905423851241210  9.9944733031836606
  9.2742406993732640  9.4776636051241212 12.8914986998166601
  8.1610792543782633 11.5647848351241187 13.8604719256686604
  8.9916659964412631 11.5647848351241187 11.4429860015006586
 12.0657129873282631  1.1291787151241213 13.8505776564756644
 12.0657129873282631  7.3905423851241210 13.8505776564756644
 10.1048274335362631  3.2162999451241205 10.4740127873786601
 10.3874021364692641  1.1291787151241213 11.9225254856946599
 11.2179888785322657  1.1291787151241213  9.5050395615266599
 11.7831382843962640  3.2162999451241205 12.4020649581596594
 10.6699768394012633  5.3034211651241217 13.3710381840106596
 10.1048274335362631  9.4776636051241212 10.4740127873786601
 10.3874021364692641  7.3905423851241210 11.9225254856946599
 11.5005635814642631  5.3034211651241217 10.9535522598436597
 11.2179888785322657  7.3905423851241210  9.5050395615266599
 11.7831382843962640  9.4776636051241212 12.4020649581596594
 10.6699768394012633 11.5647848351241187 13.3710381840106596
 11.5005635814642631 11.5647848351241187 10.9535522598436597
 13.4614491273552623  3.2162999451241205 14.3301171406706604
 14.5746105723512631  1.1291787151241213 13.3611439148186601
 13.4614491273552623  9.4776636051241212 14.3301171406706604
 14.5746105723512631  7.3905423851241210 13.3611439148186601
 12.6137250185592649  3.2162999451241205  9.9845790457216594
 12.8962997214912640  1.1291787151241213 11.4330917440376609
 13.7268864635552639  1.1291787151241213  9.0156058198696591
 14.2920358694192657  3.2162999451241205 11.9126312165026587
 13.1788744244232632  5.3034211651241217 12.8816044423536606
 12.6137250185592649  9.4776636051241212  9.9845790457216594
 12.8962997214912640  7.3905423851241210 11.4330917440376609
 14.0094611664872630  5.3034211651241217 10.4641185181866607
 13.7268864635552639  7.3905423851241210  9.0156058198696591
 14.2920358694192657  9.4776636051241212 11.9126312165026587
 13.1788744244232632 11.5647848351241187 12.8816044423536606
 14.0094611664872630 11.5647848351241187 10.4641185181866607
 12.3311503156272639  5.3034211651241217  8.5360663474056597
 12.3311503156272639 11.5647848351241187  8.5360663474056597
