Cu
 1.0000000000000000
    16.1653792197723014    0.0000000000000000    0.0000000000000000
     0.0000000000000000   15.5112916824403726    0.0000000000000000
     0.0000000000000000    0.0000000000000000   12.1728966390426443
 Cu 
 298
Cartesian
  3.0579652244626123  2.9436585969407325  0.6805959109228019
  3.1442118460166126  5.0307798169407318  2.1538912038598004
  3.0579652244626123  9.2050222669407322  0.6805959109228019
  3.1442118460166126 11.2921434869407360  2.1538912038598004
  3.0579652244626123 15.4663859269407329  0.6805959109228019
  1.8251773909476130  0.8565373669407323  1.4919353172478016
  0.5061429264796145  2.9436585969407325  0.8299794412038008
  1.7389307693936127  5.0307798169407318  0.0186400243108005
  1.8251773909476130  7.1179010369407347  1.4919353172478016
  0.5923895480326129  5.0307798169407318  2.3032747341408002
  0.5061429264796145  9.2050222669407322  0.8299794412038008
  1.7389307693936127 11.2921434869407360  0.0186400243108005
  1.8251773909476130 13.3792647069407327  1.4919353172478016
  0.5923895480326129 11.2921434869407360  2.3032747341408002
  0.5061429264796145 15.4663859269407329  0.8299794412038008
  2.9717186029096121  0.8565373669407323  9.2073006179848029
  2.9717186029096121  7.1179010369407347  9.2073006179848029
  2.9717186029096121 13.3792647069407327  9.2073006179848029
  3.2304584675696137  0.8565373669407323  3.6271864967968002
  3.0579652244626123  2.9436585969407325 10.6805959109228024
  3.1442118460166126  5.0307798169407318 12.1538912038597982
  3.2304584675696137  7.1179010369407347  3.6271864967968002
  3.0579652244626123  9.2050222669407322 10.6805959109228024
  3.1442118460166126 11.2921434869407360 12.1538912038597982
  3.2304584675696137 13.3792647069407327  3.6271864967968002
  3.0579652244626123 15.4663859269407329 10.6805959109228024
  3.3167050891226131  2.9436585969407325  5.1004817897348005
  3.3167050891226131  9.2050222669407322  5.1004817897348005
  3.3167050891226131 15.4663859269407329  5.1004817897348005
  1.6526841478406129  2.9436585969407325  8.5453447313738007
  0.4198963049266135  0.8565373669407323  9.3566841482658027
  1.6526841478406129  9.2050222669407322  8.5453447313738007
  0.4198963049266135  7.1179010369407347  9.3566841482658027
  1.6526841478406129 15.4663859269407329  8.5453447313738007
  0.4198963049266135 13.3792647069407327  9.3566841482658027
  1.9114240125006150  2.9436585969407325  2.9652306101858001
  1.8251773909476130  0.8565373669407323 11.4919353172478012
  0.6786361695856131  0.8565373669407323  3.7765700270778004
  0.5061429264796145  2.9436585969407325 10.8299794412038004
  1.7389307693936127  5.0307798169407318 10.0186400243108000
  1.9114240125006150  9.2050222669407322  2.9652306101858001
  1.8251773909476130  7.1179010369407347 11.4919353172478012
  0.6786361695856131  7.1179010369407347  3.7765700270778004
  0.5061429264796145  9.2050222669407322 10.8299794412038004
  1.7389307693936127 11.2921434869407360 10.0186400243108000
  1.9114240125006150 15.4663859269407329  2.9652306101858001
  1.8251773909476130 13.3792647069407327 11.4919353172478012
  0.6786361695856131 13.3792647069407327  3.7765700270778004
  0.5061429264796145 15.4663859269407329 10.8299794412038004
  2.0839172556066137  0.8565373669407323  5.9118211960598011
  1.9976706340536139  5.0307798169407318  4.4385259031227999
  2.0839172556066137  7.1179010369407347  5.9118211960598011
  1.9976706340536139 11.2921434869407360  4.4385259031227999
  2.0839172556066137 13.3792647069407327  5.9118211960598011
  2.6396069111696123  2.9436585969407325  7.9696449706478001
  2.3570322082376132  5.0307798169407318  6.5211322723318004
  2.6396069111696123  9.2050222669407322  7.9696449706478001
  2.3570322082376132 11.2921434869407360  6.5211322723318004
  2.6396069111696123 15.4663859269407329  7.9696449706478001
  0.4488743691696149  0.8565373669407323  7.9498564439928003
  0.4488743691696149  7.1179010369407347  7.9498564439928003
  0.4488743691696149 13.3792647069407327  7.9498564439928003
  0.1662996662376149  2.9436585969407325  6.5013437456767997
  0.1662996662376149  9.2050222669407322  6.5013437456767997
  0.1662996662376149 15.4663859269407329  6.5013437456767997
  8.1616098204296126  2.9436585969407325  0.3818288503608023
  8.2478564419836129  5.0307798169407318  1.8551241432978007
  8.1616098204296126  9.2050222669407322  0.3818288503608023
  8.2478564419836129 11.2921434869407360  1.8551241432978007
  8.1616098204296126 15.4663859269407329  0.3818288503608023
  7.0150686084676153  2.9436585969407325  2.6664635496237996
  6.9288219869136132  0.8565373669407323  1.1931682566858020
  5.6097875224466129  2.9436585969407325  0.5312123806418021
  7.0150686084676153  9.2050222669407322  2.6664635496237996
  6.9288219869136132  7.1179010369407347  1.1931682566858020
  5.6960341439996132  5.0307798169407318  2.0045076735788006
  5.6097875224466129  9.2050222669407322  0.5312123806418021
  7.0150686084676153 15.4663859269407329  2.6664635496237996
  6.9288219869136132 13.3792647069407327  1.1931682566858020
  5.6960341439996132 11.2921434869407360  2.0045076735788006
  5.6097875224466129 15.4663859269407329  0.5312123806418021
  4.3769996889306126  0.8565373669407323  1.3425517869668018
 13.0579652244626132  2.9436585969407325  0.6805959109228019
  4.3769996889306126  7.1179010369407347  1.3425517869668018
 13.1442118460166171  5.0307798169407318  2.1538912038598004
 13.0579652244626132  9.2050222669407322  0.6805959109228019
  4.3769996889306126 13.3792647069407327  1.3425517869668018
 13.1442118460166171 11.2921434869407360  2.1538912038598004
 13.0579652244626132 15.4663859269407329  0.6805959109228019
 11.8251773909476121  0.8565373669407323  1.4919353172478016
 10.5061429264796153  2.9436585969407325  0.8299794412038008
 11.7389307693936153  5.0307798169407318  0.0186400243108005
 11.8251773909476121  7.1179010369407347  1.4919353172478016
 10.5923895480326138  5.0307798169407318  2.3032747341408002
 10.5061429264796153  9.2050222669407322  0.8299794412038008
 11.7389307693936153 11.2921434869407360  0.0186400243108005
 11.8251773909476121 13.3792647069407327  1.4919353172478016
 10.5923895480326138 11.2921434869407360  2.3032747341408002
 10.5061429264796153 15.4663859269407329  0.8299794412038008
  9.3185755574406137  2.9436585969407325  2.1558056507278001
  9.3185755574406137  9.2050222669407322  2.1558056507278001
  9.3185755574406137 15.4663859269407329  2.1558056507278001
  8.1616098204296126  2.9436585969407325 10.3818288503608027
  8.2478564419836129  5.0307798169407318 11.8551241432978003
  8.1616098204296126  9.2050222669407322 10.3818288503608027
  8.2478564419836129 11.2921434869407360 11.8551241432978003
  8.1616098204296126 15.4663859269407329 10.3818288503608027
  5.5235409008936145  0.8565373669407323  9.0579170877037996
  5.5235409008936145  7.1179010369407347  9.0579170877037996
  5.5235409008936145 13.3792647069407327  9.0579170877037996
  6.9288219869136132  0.8565373669407323 11.1931682566858015
  5.7822807655526152  0.8565373669407323  3.4778029665157999
  5.6097875224466129  2.9436585969407325 10.5312123806418025
  6.8425753653606129  5.0307798169407318  9.7198729637488004
  6.9288219869136132  7.1179010369407347 11.1931682566858015
  5.6960341439996132  5.0307798169407318 12.0045076735788001
  5.7822807655526152  7.1179010369407347  3.4778029665157999
  5.6097875224466129  9.2050222669407322 10.5312123806418025
  6.8425753653606129 11.2921434869407360  9.7198729637488004
  6.9288219869136132 13.3792647069407327 11.1931682566858015
  5.6960341439996132 11.2921434869407360 12.0045076735788001
  5.7822807655526152 13.3792647069407327  3.4778029665157999
  5.6097875224466129 15.4663859269407329 10.5312123806418025
 12.9717186029096112  0.8565373669407323  9.2073006179848029
 12.9717186029096112  7.1179010369407347  9.2073006179848029
 12.9717186029096112 13.3792647069407327  9.2073006179848029
  4.4632463104836129  2.9436585969407325  2.8158470799048003
  4.3769996889306126  0.8565373669407323 11.3425517869668013
 13.2304584675696120  0.8565373669407323  3.6271864967968002
 13.0579652244626132  2.9436585969407325 10.6805959109228024
  4.2907530673776133  5.0307798169407318  9.8692564940298002
  4.4632463104836129  9.2050222669407322  2.8158470799048003
  4.3769996889306126  7.1179010369407347 11.3425517869668013
 13.1442118460166171  5.0307798169407318 12.1538912038597982
 13.2304584675696120  7.1179010369407347  3.6271864967968002
 13.0579652244626132  9.2050222669407322 10.6805959109228024
  4.2907530673776133 11.2921434869407360  9.8692564940298002
  4.4632463104836129 15.4663859269407329  2.8158470799048003
  4.3769996889306126 13.3792647069407327 11.3425517869668013
 13.1442118460166171 11.2921434869407360 12.1538912038597982
 13.2304584675696120 13.3792647069407327  3.6271864967968002
 13.0579652244626132 15.4663859269407329 10.6805959109228024
 13.3167050891226140  2.9436585969407325  5.1004817897348005
  4.5494929320366149  5.0307798169407318  4.2891423728418001
 13.3167050891226140  9.2050222669407322  5.1004817897348005
  4.5494929320366149 11.2921434869407360  4.2891423728418001
 13.3167050891226140 15.4663859269407329  5.1004817897348005
 11.6526841478406133  2.9436585969407325  8.5453447313738007
 10.4198963049266169  0.8565373669407323  9.3566841482658027
 11.6526841478406133  9.2050222669407322  8.5453447313738007
 10.4198963049266169  7.1179010369407347  9.3566841482658027
 11.6526841478406133 15.4663859269407329  8.5453447313738007
 10.4198963049266169 13.3792647069407327  9.3566841482658027
 11.9114240125006177  2.9436585969407325  2.9652306101858001
 11.8251773909476121  0.8565373669407323 11.4919353172478012
 10.6786361695856158  0.8565373669407323  3.7765700270778004
 10.5061429264796153  2.9436585969407325 10.8299794412038004
 11.7389307693936153  5.0307798169407318 10.0186400243108000
 11.9114240125006177  9.2050222669407322  2.9652306101858001
 11.8251773909476121  7.1179010369407347 11.4919353172478012
 10.6786361695856158  7.1179010369407347  3.7765700270778004
 10.5061429264796153  9.2050222669407322 10.8299794412038004
 11.7389307693936153 11.2921434869407360 10.0186400243108000
 11.9114240125006177 15.4663859269407329  2.9652306101858001
 11.8251773909476121 13.3792647069407327 11.4919353172478012
 10.6786361695856158 13.3792647069407327  3.7765700270778004
 10.5061429264796153 15.4663859269407329 10.8299794412038004
 12.0839172556066146  0.8565373669407323  5.9118211960598011
 11.9976706340536126  5.0307798169407318  4.4385259031227999
 12.0839172556066146  7.1179010369407347  5.9118211960598011
 11.9976706340536126 11.2921434869407360  4.4385259031227999
 12.0839172556066146 13.3792647069407327  5.9118211960598011
 12.6396069111696114  2.9436585969407325  7.9696449706478001
 12.3570322082376123  5.0307798169407318  6.5211322723318004
 12.6396069111696114  9.2050222669407322  7.9696449706478001
 12.3570322082376123 11.2921434869407360  6.5211322723318004
 12.6396069111696114 15.4663859269407329  7.9696449706478001
  5.4310791991236123  0.8565373669407323  8.9287239273068000
  5.4310791991236123  7.1179010369407347  8.9287239273068000
  5.4310791991236123 13.3792647069407327  8.9287239273068000
  3.4701936453326128  2.9436585969407325  5.5521590582098002
  3.7527683482646128  0.8565373669407323  7.0006717565257999
  4.5833550903276148  0.8565373669407323  4.5831858323578007
  5.1485044961916140  2.9436585969407325  7.4802112289908003
  4.0353430511966124  5.0307798169407318  8.4491844548428006
  3.4701936453326128  9.2050222669407322  5.5521590582098002
  3.7527683482646128  7.1179010369407347  7.0006717565257999
  4.8659297932596148  5.0307798169407318  6.0316985306748006
  4.5833550903276148  7.1179010369407347  4.5831858323578007
  5.1485044961916140  9.2050222669407322  7.4802112289908003
  4.0353430511966124 11.2921434869407360  8.4491844548428006
  3.4701936453326128 15.4663859269407329  5.5521590582098002
  3.7527683482646128 13.3792647069407327  7.0006717565257999
  4.8659297932596148 11.2921434869407360  6.0316985306748006
  4.5833550903276148 13.3792647069407327  4.5831858323578007
  5.1485044961916140 15.4663859269407329  7.4802112289908003
  6.8268153391516133  2.9436585969407325  9.4082634115017996
  7.9399767841466131  0.8565373669407323  8.4392901856498028
  6.8268153391516133  9.2050222669407322  9.4082634115017996
  8.2225514870786132  5.0307798169407318  9.8878028839668008
  7.9399767841466131  7.1179010369407347  8.4392901856498028
  6.8268153391516133 15.4663859269407329  9.4082634115017996
  8.2225514870786132 11.2921434869407360  9.8878028839668008
  7.9399767841466131 13.3792647069407327  8.4392901856498028
  5.9790912303546122  2.9436585969407325  5.0627253165528003
  6.2616659332876132  0.8565373669407323  6.5112380148688009
  7.0922526753506130  0.8565373669407323  4.0937520907008000
  7.6574020812146140  2.9436585969407325  6.9907774873337996
  6.5442406362196124  5.0307798169407318  7.9597507131847998
  5.9790912303546122  9.2050222669407322  5.0627253165528003
  6.2616659332876132  7.1179010369407347  6.5112380148688009
  7.3748273782826130  5.0307798169407318  5.5422647890177998
  7.0922526753506130  7.1179010369407347  4.0937520907008000
  7.6574020812146140  9.2050222669407322  6.9907774873337996
  6.5442406362196124 11.2921434869407360  7.9597507131847998
  5.9790912303546122 15.4663859269407329  5.0627253165528003
  6.2616659332876132 13.3792647069407327  6.5112380148688009
  7.3748273782826130 11.2921434869407360  5.5422647890177998
  7.0922526753506130 13.3792647069407327  4.0937520907008000
  7.6574020812146140 15.4663859269407329  6.9907774873337996
  9.3357129241736132  2.9436585969407325  8.9188296698448024
 10.4488743691696158  0.8565373669407323  7.9498564439928003
  9.3357129241736132  9.2050222669407322  8.9188296698448024
 10.4488743691696158  7.1179010369407347  7.9498564439928003
  9.3357129241736132 15.4663859269407329  8.9188296698448024
 10.4488743691696158 13.3792647069407327  7.9498564439928003
  8.4879888153776140  2.9436585969407325  4.5732915748958005
  8.7705635183096131  0.8565373669407323  6.0218042732118011
  9.6011502603736130  0.8565373669407323  3.6043183490437998
 10.1662996662376148  2.9436585969407325  6.5013437456767997
  9.0531382212416140  5.0307798169407318  7.4703169715277999
  8.4879888153776140  9.2050222669407322  4.5732915748958005
  8.7705635183096131  7.1179010369407347  6.0218042732118011
  9.8837249633056139  5.0307798169407318  5.0528310473608009
  9.6011502603736130  7.1179010369407347  3.6043183490437998
 10.1662996662376148  9.2050222669407322  6.5013437456767997
  9.0531382212416140 11.2921434869407360  7.4703169715277999
  8.4879888153776140 15.4663859269407329  4.5732915748958005
  8.7705635183096131 13.3792647069407327  6.0218042732118011
  9.8837249633056139 11.2921434869407360  5.0528310473608009
  9.6011502603736130 13.3792647069407327  3.6043183490437998
 10.1662996662376148 15.4663859269407329  6.5013437456767997
  9.3185755574406137  2.9436585969407325 12.1558056507277978
  8.2054141124456130  5.0307798169407318  3.1247788765798004
  9.3185755574406137  9.2050222669407322 12.1558056507277978
  8.2054141124456130 11.2921434869407360  3.1247788765798004
  9.3185755574406137 15.4663859269407329 12.1558056507277978
 15.6097875224466129  2.9436585969407325  0.5312123806418021
 15.6960341439996114  5.0307798169407318  2.0045076735788006
 15.6097875224466129  9.2050222669407322  0.5312123806418021
 15.6960341439996114 11.2921434869407360  2.0045076735788006
 15.6097875224466129 15.4663859269407329  0.5312123806418021
 14.3769996889306135  0.8565373669407323  1.3425517869668018
 14.3769996889306135  7.1179010369407347  1.3425517869668018
 14.3769996889306135 13.3792647069407327  1.3425517869668018
 15.5235409008936109  0.8565373669407323  9.0579170877037996
 15.5235409008936109  7.1179010369407347  9.0579170877037996
 15.5235409008936109 13.3792647069407327  9.0579170877037996
 15.7822807655526134  0.8565373669407323  3.4778029665157999
 15.6097875224466129  2.9436585969407325 10.5312123806418025
 15.6960341439996114  5.0307798169407318 12.0045076735788001
 15.7822807655526134  7.1179010369407347  3.4778029665157999
 15.6097875224466129  9.2050222669407322 10.5312123806418025
 15.6960341439996114 11.2921434869407360 12.0045076735788001
 15.7822807655526134 13.3792647069407327  3.4778029665157999
 15.6097875224466129 15.4663859269407329 10.5312123806418025
 14.4632463104836120  2.9436585969407325  2.8158470799048003
 14.3769996889306135  0.8565373669407323 11.3425517869668013
 14.2907530673776115  5.0307798169407318  9.8692564940298002
 14.4632463104836120  9.2050222669407322  2.8158470799048003
 14.3769996889306135  7.1179010369407347 11.3425517869668013
 14.2907530673776115 11.2921434869407360  9.8692564940298002
 14.4632463104836120 15.4663859269407329  2.8158470799048003
 14.3769996889306135 13.3792647069407327 11.3425517869668013
 14.5494929320366140  5.0307798169407318  4.2891423728418001
 14.5494929320366140 11.2921434869407360  4.2891423728418001
 15.4310791991236158  0.8565373669407323  8.9287239273068000
 15.4310791991236158  7.1179010369407347  8.9287239273068000
 15.4310791991236158 13.3792647069407327  8.9287239273068000
 13.4701936453326141  2.9436585969407325  5.5521590582098002
 13.7527683482646133  0.8565373669407323  7.0006717565257999
 14.5833550903276148  0.8565373669407323  4.5831858323578007
 15.1485044961916167  2.9436585969407325  7.4802112289908003
 14.0353430511966124  5.0307798169407318  8.4491844548428006
 13.4701936453326141  9.2050222669407322  5.5521590582098002
 13.7527683482646133  7.1179010369407347  7.0006717565257999
 14.8659297932596175  5.0307798169407318  6.0316985306748006
 14.5833550903276148  7.1179010369407347  4.5831858323578007
 15.1485044961916167  9.2050222669407322  7.4802112289908003
 14.0353430511966124 11.2921434869407360  8.4491844548428006
 13.4701936453326141 15.4663859269407329  5.5521590582098002
 13.7527683482646133 13.3792647069407327  7.0006717565257999
 14.8659297932596175 11.2921434869407360  6.0316985306748006
 14.5833550903276148 13.3792647069407327  4.5831858323578007
 15.1485044961916167 15.4663859269407329  7.4802112289908003
 15.9790912303546122  2.9436585969407325  5.0627253165528003
 15.9790912303546122  9.2050222669407322  5.0627253165528003
 15.9790912303546122 15.4663859269407329  5.0627253165528003
