Cu
 1.0000000000000000
    19.6239930621438532    0.0000000000000000    0.0000000000000000
     0.0000000000000000   12.5745771240230759    0.0000000000000000
     0.0000000000000000    0.0000000000000000   13.1023482874224406
 Cu 
 284
Cartesian
  0.4195009990005421  5.8234572877361330  3.1640495845548982
  0.5057476205535423  3.7363360577361315  4.6373448774928985
  0.5919942421075426  1.6492148377361318  6.1106401704298960
  0.0873893072605423  3.7363360577361315  1.9263939372178964
  0.6782408636605428  5.8234572877361330  7.5839354633668963
  0.7644874852135431  3.7363360577361315  9.0572307563048966
  0.0873893072605423  3.7363360577361315 11.9263939372178953
  0.4195009990005421  9.9976997277361335  3.1640495845548982
  0.5919942421075426  7.9105785077361332  6.1106401704298960
  0.5057476205535423 12.0848209577361345  4.6373448774928985
  0.0873893072605423 12.0848209577361345  1.9263939372178964
  0.6782408636605428  9.9976997277361335  7.5839354633668963
  0.7644874852135431 12.0848209577361345  9.0572307563048966
  0.0873893072605423 12.0848209577361345 11.9263939372178953
  5.6093922165205425  3.7363360577361315  4.3385778169308979
  5.6956388380745429  1.6492148377361318  5.8118731098678964
  2.9713232969845427  5.8234572877361330  3.0146660542738957
  4.4628510045585426  3.7363360577361315  6.6232125161938962
  4.3766043830045422  5.8234572877361330  5.1499172232558976
  3.0575699185375429  3.7363360577361315  4.4879613472118978
  4.2903577614515438  1.6492148377361318  3.6766219303188965
  3.1438165400905431  1.6492148377361318  5.9612566401488962
 10.4195009990005421  5.8234572877361330  3.1640495845548982
  1.8247820850215428  5.8234572877361330  5.2993007535368974
 10.5057476205535423  3.7363360577361315  4.6373448774928985
  1.7385354634685428  1.6492148377361318  3.8260054605998968
 10.5919942421075426  1.6492148377361318  6.1106401704298960
  9.1004665439315424  3.7363360577361315  2.5020936979438959
  7.8676787010175433  5.8234572877361330  3.3134331148358984
  9.2729597870385430  5.8234572877361330  5.4486842838178973
  7.9539253225705444  3.7363360577361315  4.7867284077738974
  9.1867131654845426  1.6492148377361318  3.9753889908808966
  8.0401719441235429  1.6492148377361318  6.2600237007108968
 10.0873893072605441  3.7363360577361315  1.9263939372178964
  9.8048146043285431  1.6492148377361318  0.4778812389018969
  2.8788615952145427  5.8234572877361330  2.8854728938768961
  1.2005507443555430  5.8234572877361330  0.9574207230958961
  2.5962868922825431  3.7363360577361315  1.4369601955608964
  1.4831254472875428  1.6492148377361318  2.4059334214128958
  4.2745977352425442  3.7363360577361315  3.3650123780718961
  5.3877591802375431  5.8234572877361330  2.3960391522198980
  5.6703338831695440  1.6492148377361318  3.8445518505368961
  3.7094483293785436  5.8234572877361330  0.4679869814388962
  5.1051844773055439  3.7363360577361315  0.9475264539038958
  3.9920230323105428  1.6492148377361318  1.9164996797548959
  6.7834953202645432  3.7363360577361315  2.8755786364148976
  7.8966567652605457  5.8234572877361330  1.9066054105628965
  7.6140820623285448  3.7363360577361315  0.4580927122468959
  6.5009206173325431  1.6492148377361318  1.4270659380978961
  6.7663579535315437  3.7363360577361315  6.1125546172978957
  2.9713232969845427  5.8234572877361330 13.0146660542738957
  3.2300631616435429  5.8234572877361330  7.4345519330858956
  1.9110287065745430  3.7363360577361315  6.7725960464748960
 10.6782408636605428  5.8234572877361330  7.5839354633668963
 10.7644874852135430  3.7363360577361315  9.0572307563048966
  1.9972753281275430  1.6492148377361318  8.2458913394118962
  9.1004665439315424  3.7363360577361315 12.5020936979438950
  9.3592064085915450  3.7363360577361315  6.9219795767558967
  8.1264185656765431  5.8234572877361330  7.7333189936478961
  9.5316996516975436  5.8234572877361330  9.8685701626298972
  9.4454530301445434  1.6492148377361318  8.3952748696928960
 10.0873893072605441  3.7363360577361315 11.9263939372178953
  9.8048146043285431  1.6492148377361318 10.4778812389018974
  2.8788615952145427  5.8234572877361330 12.8854728938768996
  0.9179760414235428  3.7363360577361315  9.5089080247798954
  1.2005507443555430  5.8234572877361330 10.9574207230958969
  2.0311374864185430  5.8234572877361330  8.5399347989278969
  2.5962868922825431  3.7363360577361315 11.4369601955608964
  1.4831254472875428  1.6492148377361318 12.4059334214128967
  2.3137121893505430  1.6492148377361318  9.9884474972448949
  5.3877591802375431  5.8234572877361330 12.3960391522199007
  3.4268736264455426  3.7363360577361315  9.0194742831228965
  3.7094483293785436  5.8234572877361330 10.4679869814388962
  4.5400350714415429  5.8234572877361330  8.0505010572708962
  5.1051844773055439  3.7363360577361315 10.9475264539038974
  3.9920230323105428  1.6492148377361318 11.9164996797548959
  4.8226097743735430  1.6492148377361318  9.4990137555878960
  6.7834953202645432  3.7363360577361315 12.8755786364148967
  7.8966567652605457  5.8234572877361330 11.9066054105628965
  5.9357712114685439  3.7363360577361315  8.5300405414658975
  6.2183459144005431  5.8234572877361330  9.9785532397818972
  7.0489326564645438  5.8234572877361330  7.5610673156138963
  7.6140820623285448  3.7363360577361315 10.4580927122468950
  6.5009206173325431  1.6492148377361318 11.4270659380978969
  7.3315073593965430  1.6492148377361318  9.0095800139308970
  5.6531965085365439  1.6492148377361318  7.0815278431498960
  5.6956388380745429  7.9105785077361332  5.8118731098678964
  5.6093922165205425 12.0848209577361345  4.3385778169308979
  2.9713232969845427  9.9976997277361335  3.0146660542738957
  4.2903577614515438  7.9105785077361332  3.6766219303188965
  4.4628510045585426 12.0848209577361345  6.6232125161938962
  4.3766043830045422  9.9976997277361335  5.1499172232558976
  3.1438165400905431  7.9105785077361332  5.9612566401488962
  3.0575699185375429 12.0848209577361345  4.4879613472118978
 10.4195009990005421  9.9976997277361335  3.1640495845548982
  1.7385354634685428  7.9105785077361332  3.8260054605998968
  1.8247820850215428  9.9976997277361335  5.2993007535368974
 10.5919942421075426  7.9105785077361332  6.1106401704298960
 10.5057476205535423 12.0848209577361345  4.6373448774928985
  9.1004665439315424 12.0848209577361345  2.5020936979438959
  7.8676787010175433  9.9976997277361335  3.3134331148358984
  9.1867131654845426  7.9105785077361332  3.9753889908808966
  9.2729597870385430  9.9976997277361335  5.4486842838178973
  8.0401719441235429  7.9105785077361332  6.2600237007108968
  7.9539253225705444 12.0848209577361345  4.7867284077738974
  9.8048146043285431  7.9105785077361332  0.4778812389018969
 10.0873893072605441 12.0848209577361345  1.9263939372178964
  2.8788615952145427  9.9976997277361335  2.8854728938768961
  1.4831254472875428  7.9105785077361332  2.4059334214128958
  1.2005507443555430  9.9976997277361335  0.9574207230958961
  2.5962868922825431 12.0848209577361345  1.4369601955608964
  4.2745977352425442 12.0848209577361345  3.3650123780718961
  5.6703338831695440  7.9105785077361332  3.8445518505368961
  5.3877591802375431  9.9976997277361335  2.3960391522198980
  3.9920230323105428  7.9105785077361332  1.9164996797548959
  3.7094483293785436  9.9976997277361335  0.4679869814388962
  5.1051844773055439 12.0848209577361345  0.9475264539038958
  6.7834953202645432 12.0848209577361345  2.8755786364148976
  7.8966567652605457  9.9976997277361335  1.9066054105628965
  6.5009206173325431  7.9105785077361332  1.4270659380978961
  7.6140820623285448 12.0848209577361345  0.4580927122468959
  6.7663579535315437 12.0848209577361345  6.1125546172978957
  2.9713232969845427  9.9976997277361335 13.0146660542738957
  3.2300631616435429  9.9976997277361335  7.4345519330858956
  1.9110287065745430 12.0848209577361345  6.7725960464748960
 10.6782408636605428  9.9976997277361335  7.5839354633668963
  1.9972753281275430  7.9105785077361332  8.2458913394118962
 10.7644874852135430 12.0848209577361345  9.0572307563048966
  9.1004665439315424 12.0848209577361345 12.5020936979438950
  9.3592064085915450 12.0848209577361345  6.9219795767558967
  8.1264185656765431  9.9976997277361335  7.7333189936478961
  9.4454530301445434  7.9105785077361332  8.3952748696928960
  9.5316996516975436  9.9976997277361335  9.8685701626298972
  9.8048146043285431  7.9105785077361332 10.4778812389018974
 10.0873893072605441 12.0848209577361345 11.9263939372178953
  2.8788615952145427  9.9976997277361335 12.8854728938768996
  1.4831254472875428  7.9105785077361332 12.4059334214128967
  0.9179760414235428 12.0848209577361345  9.5089080247798954
  1.2005507443555430  9.9976997277361335 10.9574207230958969
  2.3137121893505430  7.9105785077361332  9.9884474972448949
  2.0311374864185430  9.9976997277361335  8.5399347989278969
  2.5962868922825431 12.0848209577361345 11.4369601955608964
  5.3877591802375431  9.9976997277361335 12.3960391522199007
  3.9920230323105428  7.9105785077361332 11.9164996797548959
  3.4268736264455426 12.0848209577361345  9.0194742831228965
  3.7094483293785436  9.9976997277361335 10.4679869814388962
  4.8226097743735430  7.9105785077361332  9.4990137555878960
  4.5400350714415429  9.9976997277361335  8.0505010572708962
  5.1051844773055439 12.0848209577361345 10.9475264539038974
  6.7834953202645432 12.0848209577361345 12.8755786364148967
  7.8966567652605457  9.9976997277361335 11.9066054105628965
  6.5009206173325431  7.9105785077361332 11.4270659380978969
  5.9357712114685439 12.0848209577361345  8.5300405414658975
  6.2183459144005431  9.9976997277361335  9.9785532397818972
  7.3315073593965430  7.9105785077361332  9.0095800139308970
  7.0489326564645438  9.9976997277361335  7.5610673156138963
  7.6140820623285448 12.0848209577361345 10.4580927122468950
  5.6531965085365439  7.9105785077361332  7.0815278431498960
 15.6093922165205434  3.7363360577361315  4.3385778169308979
 15.6956388380745437  1.6492148377361318  5.8118731098678964
 12.9713232969845418  5.8234572877361330  3.0146660542738957
 14.4628510045585426  3.7363360577361315  6.6232125161938962
 14.3766043830045422  5.8234572877361330  5.1499172232558976
 13.0575699185375438  3.7363360577361315  4.4879613472118978
 14.2903577614515438  1.6492148377361318  3.6766219303188965
 13.1438165400905422  1.6492148377361318  5.9612566401488962
 11.8247820850215426  5.8234572877361330  5.2993007535368974
 11.7385354634685424  1.6492148377361318  3.8260054605998968
 19.1004665439315389  3.7363360577361315  2.5020936979438959
 17.8676787010175460  5.8234572877361330  3.3134331148358984
 19.2729597870385447  5.8234572877361330  5.4486842838178973
 17.9539253225705409  3.7363360577361315  4.7867284077738974
 19.1867131654845409  1.6492148377361318  3.9753889908808966
 18.0401719441235429  1.6492148377361318  6.2600237007108968
 12.8788615952145431  5.8234572877361330  2.8854728938768961
 11.2005507443555423  5.8234572877361330  0.9574207230958961
 12.5962868922825439  3.7363360577361315  1.4369601955608964
 11.4831254472875433  1.6492148377361318  2.4059334214128958
 14.2745977352425442  3.7363360577361315  3.3650123780718961
 15.3877591802375431  5.8234572877361330  2.3960391522198980
 15.6703338831695422  1.6492148377361318  3.8445518505368961
 13.7094483293785423  5.8234572877361330  0.4679869814388962
 15.1051844773055439  3.7363360577361315  0.9475264539038958
 13.9920230323105432  1.6492148377361318  1.9164996797548959
 16.7834953202645423  3.7363360577361315  2.8755786364148976
 17.8966567652605448  5.8234572877361330  1.9066054105628965
 17.6140820623285421  3.7363360577361315  0.4580927122468959
 16.5009206173325431  1.6492148377361318  1.4270659380978961
 16.7663579535315463  3.7363360577361315  6.1125546172978957
 12.9713232969845418  5.8234572877361330 13.0146660542738957
 13.2300631616435425  5.8234572877361330  7.4345519330858956
 11.9110287065745428  3.7363360577361315  6.7725960464748960
 11.9972753281275430  1.6492148377361318  8.2458913394118962
 19.1004665439315389  3.7363360577361315 12.5020936979438950
 19.3592064085915467  3.7363360577361315  6.9219795767558967
 18.1264185656765449  5.8234572877361330  7.7333189936478961
 19.5316996516975436  5.8234572877361330  9.8685701626298972
 19.4454530301445416  1.6492148377361318  8.3952748696928960
 12.8788615952145431  5.8234572877361330 12.8854728938768996
 10.9179760414235432  3.7363360577361315  9.5089080247798954
 11.2005507443555423  5.8234572877361330 10.9574207230958969
 12.0311374864185421  5.8234572877361330  8.5399347989278969
 12.5962868922825439  3.7363360577361315 11.4369601955608964
 11.4831254472875433  1.6492148377361318 12.4059334214128967
 12.3137121893505430  1.6492148377361318  9.9884474972448949
 15.3877591802375431  5.8234572877361330 12.3960391522199007
 13.4268736264455431  3.7363360577361315  9.0194742831228965
 13.7094483293785423  5.8234572877361330 10.4679869814388962
 14.5400350714415421  5.8234572877361330  8.0505010572708962
 15.1051844773055439  3.7363360577361315 10.9475264539038974
 13.9920230323105432  1.6492148377361318 11.9164996797548959
 14.8226097743735430  1.6492148377361318  9.4990137555878960
 16.7834953202645423  3.7363360577361315 12.8755786364148967
 17.8966567652605448  5.8234572877361330 11.9066054105628965
 15.9357712114685430  3.7363360577361315  8.5300405414658975
 16.2183459144005440  5.8234572877361330  9.9785532397818972
 17.0489326564645438  5.8234572877361330  7.5610673156138963
 17.6140820623285421  3.7363360577361315 10.4580927122468950
 16.5009206173325431  1.6492148377361318 11.4270659380978969
 17.3315073593965394  1.6492148377361318  9.0095800139308970
 15.6531965085365439  1.6492148377361318  7.0815278431498960
 15.6956388380745437  7.9105785077361332  5.8118731098678964
 15.6093922165205434 12.0848209577361345  4.3385778169308979
 12.9713232969845418  9.9976997277361335  3.0146660542738957
 14.2903577614515438  7.9105785077361332  3.6766219303188965
 14.4628510045585426 12.0848209577361345  6.6232125161938962
 14.3766043830045422  9.9976997277361335  5.1499172232558976
 13.1438165400905422  7.9105785077361332  5.9612566401488962
 13.0575699185375438 12.0848209577361345  4.4879613472118978
 11.7385354634685424  7.9105785077361332  3.8260054605998968
 11.8247820850215426  9.9976997277361335  5.2993007535368974
 19.1004665439315389 12.0848209577361345  2.5020936979438959
 17.8676787010175460  9.9976997277361335  3.3134331148358984
 19.1867131654845409  7.9105785077361332  3.9753889908808966
 19.2729597870385447  9.9976997277361335  5.4486842838178973
 18.0401719441235429  7.9105785077361332  6.2600237007108968
 17.9539253225705409 12.0848209577361345  4.7867284077738974
 12.8788615952145431  9.9976997277361335  2.8854728938768961
 11.4831254472875433  7.9105785077361332  2.4059334214128958
 11.2005507443555423  9.9976997277361335  0.9574207230958961
 12.5962868922825439 12.0848209577361345  1.4369601955608964
 14.2745977352425442 12.0848209577361345  3.3650123780718961
 15.6703338831695422  7.9105785077361332  3.8445518505368961
 15.3877591802375431  9.9976997277361335  2.3960391522198980
 13.9920230323105432  7.9105785077361332  1.9164996797548959
 13.7094483293785423  9.9976997277361335  0.4679869814388962
 15.1051844773055439 12.0848209577361345  0.9475264539038958
 16.7834953202645423 12.0848209577361345  2.8755786364148976
 17.8966567652605448  9.9976997277361335  1.9066054105628965
 16.5009206173325431  7.9105785077361332  1.4270659380978961
 17.6140820623285421 12.0848209577361345  0.4580927122468959
 16.7663579535315463 12.0848209577361345  6.1125546172978957
 12.9713232969845418  9.9976997277361335 13.0146660542738957
 13.2300631616435425  9.9976997277361335  7.4345519330858956
 11.9110287065745428 12.0848209577361345  6.7725960464748960
 11.9972753281275430  7.9105785077361332  8.2458913394118962
 19.1004665439315389 12.0848209577361345 12.5020936979438950
 19.3592064085915467 12.0848209577361345  6.9219795767558967
 18.1264185656765449  9.9976997277361335  7.7333189936478961
 19.4454530301445416  7.9105785077361332  8.3952748696928960
 19.5316996516975436  9.9976997277361335  9.8685701626298972
 12.8788615952145431  9.9976997277361335 12.8854728938768996
 11.4831254472875433  7.9105785077361332 12.4059334214128967
 10.9179760414235432 12.0848209577361345  9.5089080247798954
 11.2005507443555423  9.9976997277361335 10.9574207230958969
 12.3137121893505430  7.9105785077361332  9.9884474972448949
 12.0311374864185421  9.9976997277361335  8.5399347989278969
 12.5962868922825439 12.0848209577361345 11.4369601955608964
 15.3877591802375431  9.9976997277361335 12.3960391522199007
 13.9920230323105432  7.9105785077361332 11.9164996797548959
 13.4268736264455431 12.0848209577361345  9.0194742831228965
 13.7094483293785423  9.9976997277361335 10.4679869814388962
 14.8226097743735430  7.9105785077361332  9.4990137555878960
 14.5400350714415421  9.9976997277361335  8.0505010572708962
 15.1051844773055439 12.0848209577361345 10.9475264539038974
 16.7834953202645423 12.0848209577361345 12.8755786364148967
 17.8966567652605448  9.9976997277361335 11.9066054105628965
 16.5009206173325431  7.9105785077361332 11.4270659380978969
 15.9357712114685430 12.0848209577361345  8.5300405414658975
 16.2183459144005440  9.9976997277361335  9.9785532397818972
 17.3315073593965394  7.9105785077361332  9.0095800139308970
 17.0489326564645438  9.9976997277361335  7.5610673156138963
 17.6140820623285421 12.0848209577361345 10.4580927122468950
 15.6531965085365439  7.9105785077361332  7.0815278431498960
