Cu
 1.0000000000000000
    17.5855178048793093    0.0000000000000000    0.0000000000000000
     0.0000000000000000   13.6561643321984967    0.0000000000000000
     0.0000000000000000    0.0000000000000000   14.4165725502691089
 Cu 
 282
Cartesian
  2.4905694410603871  3.8621184379537468  4.2140722711341958
  2.5768160626143874  5.9492396579537470  5.6873675640711951
  2.4905694410603871 10.1234820979537474  4.2140722711341958
  2.5768160626143874 12.2106033279537449  5.6873675640711951
  1.3440282290983874  3.8621184379537468  6.4987069703971923
  1.2577816075443868  1.7749972079537475  5.0254116774591946
  1.1715349859913884  5.9492396579537470  3.5521163845221944
  1.3440282290983874 10.1234820979537474  6.4987069703971923
  1.2577816075443868  8.0363608779537472  5.0254116774591946
  0.0249937646303877  5.9492396579537470  5.8367510943521932
  1.1715349859913884 12.2106033279537449  3.5521163845221944
  0.0249937646303877 12.2106033279537449  5.8367510943521932
  7.3006782235403866  1.7749972079537475  3.0395440387581951
  7.3006782235403866  8.0363608779537472  3.0395440387581951
  7.3869248450933869  3.8621184379537468  4.5128393316961963
  7.4731714666473872  5.9492396579537470  5.9861346246331948
  7.3869248450933869 10.1234820979537474  4.5128393316961963
  7.4731714666473872 12.2106033279537449  5.9861346246331948
  5.9816437684713870  3.8621184379537468  2.3775881521471938
  4.7488559255573879  1.7749972079537475  3.1889275690391949
  5.9816437684713870 10.1234820979537474  2.3775881521471938
  4.7488559255573879  8.0363608779537472  3.1889275690391949
  6.1541370115783884  1.7749972079537475  5.3241787380211951
  4.8351025471103908  3.8621184379537468  4.6622228619771935
  6.0678903900243872  5.9492396579537470  3.8508834450841936
  6.1541370115783884  8.0363608779537472  5.3241787380211951
  4.9213491686633883  5.9492396579537470  6.1355181549141937
  4.8351025471103908 10.1234820979537474  4.6622228619771935
  6.0678903900243872 12.2106033279537449  3.8508834450841936
  4.9213491686633883 12.2106033279537449  6.1355181549141937
  6.9685665318003869  3.8621184379537468  1.8018883914211936
  6.6859918288683877  5.9492396579537470  0.3533756931051943
  6.9685665318003869 10.1234820979537474  1.8018883914211936
  6.6859918288683877 12.2106033279537449  0.3533756931051943
  1.1557749597823888  3.8621184379537468  3.2405068322751935
  2.2689364047773877  1.7749972079537475  2.2715336064231950
  1.1557749597823888 10.1234820979537474  3.2405068322751935
  2.5515111077093877  5.9492396579537470  3.7200463047401930
  2.2689364047773877  8.0363608779537472  2.2715336064231950
  2.5515111077093877 12.2106033279537449  3.7200463047401930
  0.5906255539183869  1.7749972079537475  0.3434814356421931
  1.9863617018453885  3.8621184379537468  0.8230209081071929
  0.8732002568503878  5.9492396579537470  1.7919941339581933
  0.5906255539183869  8.0363608779537472  0.3434814356421931
  1.9863617018453885 10.1234820979537474  0.8230209081071929
  0.8732002568503878 12.2106033279537449  1.7919941339581933
  3.6646725448043878  3.8621184379537468  2.7510730906181946
  4.7778339898003894  1.7749972079537475  1.7820998647661939
  3.6646725448043878 10.1234820979537474  2.7510730906181946
  4.7778339898003894  8.0363608779537472  1.7820998647661939
  4.4952592868683894  3.8621184379537468  0.3335871664501929
  3.3820978418723877  5.9492396579537470  1.3025603923011930
  4.4952592868683894 10.1234820979537474  0.3335871664501929
  3.3820978418723877 12.2106033279537449  1.3025603923011930
  3.6475351780713883  3.8621184379537468  5.9880490715011927
  3.6475351780713883 10.1234820979537474  5.9880490715011927
  2.4905694410603871  3.8621184379537468 14.2140722711341994
  2.4905694410603871 10.1234820979537474 14.2140722711341994
  0.1112403861833871  1.7749972079537475  7.3100463872891952
  1.1715349859913884  5.9492396579537470 13.5521163845221935
  0.1112403861833871  8.0363608779537472  7.3100463872891952
  1.1715349859913884 12.2106033279537449 13.5521163845221935
  7.3006782235403866  1.7749972079537475 13.0395440387581942
  7.3006782235403866  8.0363608779537472 13.0395440387581942
  7.5594180882003874  1.7749972079537475  7.4594299175701941
  7.5594180882003874  8.0363608779537472  7.4594299175701941
  7.6456647097533894  3.8621184379537468  8.9327252105081936
  7.6456647097533894 10.1234820979537474  8.9327252105081936
  5.9816437684713870  3.8621184379537468 12.3775881521471973
  4.7488559255573879  1.7749972079537475 13.1889275690391976
  5.9816437684713870 10.1234820979537474 12.3775881521471973
  4.7488559255573879  8.0363608779537472 13.1889275690391976
  6.2403836331313896  3.8621184379537468  6.7974740309591946
  5.0075957902163877  1.7749972079537475  7.6088134478511957
  6.0678903900243872  5.9492396579537470 13.8508834450841967
  6.2403836331313896 10.1234820979537474  6.7974740309591946
  5.0075957902163877  8.0363608779537472  7.6088134478511957
  6.0678903900243872 12.2106033279537449 13.8508834450841967
  6.4128768762373882  1.7749972079537475  9.7440646168331959
  6.3266302546843880  5.9492396579537470  8.2707693238961966
  6.4128768762373882  8.0363608779537472  9.7440646168331959
  6.3266302546843880 12.2106033279537449  8.2707693238961966
  6.9685665318003869  3.8621184379537468 11.8018883914211976
  6.6859918288683877  5.9492396579537470 10.3533756931051943
  6.9685665318003869 10.1234820979537474 11.8018883914211976
  6.6859918288683877 12.2106033279537449 10.3533756931051943
  1.1557749597823888  3.8621184379537468 13.2405068322751962
  2.2689364047773877  1.7749972079537475 12.2715336064231941
  1.1557749597823888 10.1234820979537474 13.2405068322751962
  2.5515111077093877  5.9492396579537470 13.7200463047401975
  2.2689364047773877  8.0363608779537472 12.2715336064231941
  2.5515111077093877 12.2106033279537449 13.7200463047401975
  0.3080508509853876  3.8621184379537468  8.8949687373261970
  0.5906255539183869  1.7749972079537475 10.3434814356421931
  1.4212122959813875  1.7749972079537475  7.9259955114741931
  1.9863617018453885  3.8621184379537468 10.8230209081071962
  0.8732002568503878  5.9492396579537470 11.7919941339581964
  0.3080508509853876 10.1234820979537474  8.8949687373261970
  0.5906255539183869  8.0363608779537472 10.3434814356421931
  1.7037869989133876  5.9492396579537470  9.3745082097911947
  1.4212122959813875  8.0363608779537472  7.9259955114741931
  1.9863617018453885 10.1234820979537474 10.8230209081071962
  0.8732002568503878 12.2106033279537449 11.7919941339581964
  1.7037869989133876 12.2106033279537449  9.3745082097911947
  3.6646725448043878  3.8621184379537468 12.7510730906181973
  4.7778339898003894  1.7749972079537475 11.7820998647661970
  3.6646725448043878 10.1234820979537474 12.7510730906181973
  4.7778339898003894  8.0363608779537472 11.7820998647661970
  2.8169484360083894  3.8621184379537468  8.4055349956691927
  3.0995231389403877  1.7749972079537475  9.8540476939851978
  3.9301098810043875  1.7749972079537475  7.4365617698171933
  4.4952592868683894  3.8621184379537468 10.3335871664501937
  3.3820978418723877  5.9492396579537470 11.3025603923011921
  2.8169484360083894 10.1234820979537474  8.4055349956691927
  3.0995231389403877  8.0363608779537472  9.8540476939851978
  4.2126845839363876  5.9492396579537470  8.8850744681341922
  3.9301098810043875  8.0363608779537472  7.4365617698171933
  4.4952592868683894 10.1234820979537474 10.3335871664501937
  3.3820978418723877 12.2106033279537449 11.3025603923011921
  4.2126845839363876 12.2106033279537449  8.8850744681341922
  2.5343737330763894  5.9492396579537470  6.9570222973531930
  2.5343737330763894 12.2106033279537449  6.9570222973531930
 12.4905694410603907  3.8621184379537468  4.2140722711341958
 12.5768160626143874  5.9492396579537470  5.6873675640711951
 12.4905694410603907 10.1234820979537474  4.2140722711341958
 12.5768160626143874 12.2106033279537449  5.6873675640711951
  9.8525005215243873  1.7749972079537475  2.8901605084771935
  9.8525005215243873  8.0363608779537472  2.8901605084771935
 11.3440282290983880  3.8621184379537468  6.4987069703971923
 11.2577816075443877  1.7749972079537475  5.0254116774591946
  9.9387471430773875  3.8621184379537468  4.3634558014151947
 11.1715349859913875  5.9492396579537470  3.5521163845221944
 11.3440282290983880 10.1234820979537474  6.4987069703971923
 11.2577816075443877  8.0363608779537472  5.0254116774591946
 10.0249937646303877  5.9492396579537470  5.8367510943521932
  9.9387471430773875 10.1234820979537474  4.3634558014151947
 11.1715349859913875 12.2106033279537449  3.5521163845221944
 10.0249937646303877 12.2106033279537449  5.8367510943521932
 17.3006782235403875  1.7749972079537475  3.0395440387581951
 17.3006782235403875  8.0363608779537472  3.0395440387581951
  8.7059593095613881  1.7749972079537475  5.1747952077401962
 17.3869248450933860  3.8621184379537468  4.5128393316961963
  8.6197126880083879  5.9492396579537470  3.7014999148031933
  8.7059593095613881  8.0363608779537472  5.1747952077401962
 17.4731714666473863  5.9492396579537470  5.9861346246331948
 17.3869248450933860 10.1234820979537474  4.5128393316961963
  8.6197126880083879 12.2106033279537449  3.7014999148031933
 17.4731714666473863 12.2106033279537449  5.9861346246331948
 15.9816437684713861  3.8621184379537468  2.3775881521471938
 14.7488559255573914  1.7749972079537475  3.1889275690391949
 15.9816437684713861 10.1234820979537474  2.3775881521471938
 14.7488559255573914  8.0363608779537472  3.1889275690391949
 16.1541370115783884  1.7749972079537475  5.3241787380211951
 14.8351025471103917  3.8621184379537468  4.6622228619771935
 16.0678903900243881  5.9492396579537470  3.8508834450841936
 16.1541370115783884  8.0363608779537472  5.3241787380211951
 14.9213491686633883  5.9492396579537470  6.1355181549141937
 14.8351025471103917 10.1234820979537474  4.6622228619771935
 16.0678903900243881 12.2106033279537449  3.8508834450841936
 14.9213491686633883 12.2106033279537449  6.1355181549141937
 16.9685665318003878  3.8621184379537468  1.8018883914211936
 16.6859918288683886  5.9492396579537470  0.3533756931051943
 16.9685665318003878 10.1234820979537474  1.8018883914211936
 16.6859918288683886 12.2106033279537449  0.3533756931051943
  9.7600388197543868  1.7749972079537475  2.7609673480801935
  9.7600388197543868  8.0363608779537472  2.7609673480801935
  8.0817279688953878  1.7749972079537475  0.8329151772991932
  9.4774641168223877  3.8621184379537468  1.3124546497641933
  8.3643026718273870  5.9492396579537470  2.2814278756161928
  8.0817279688953878  8.0363608779537472  0.8329151772991932
  9.4774641168223877 10.1234820979537474  1.3124546497641933
  8.3643026718273870 12.2106033279537449  2.2814278756161928
 11.1557749597823879  3.8621184379537468  3.2405068322751935
 12.2689364047773886  1.7749972079537475  2.2715336064231950
 11.1557749597823879 10.1234820979537474  3.2405068322751935
 12.5515111077093895  5.9492396579537470  3.7200463047401930
 12.2689364047773886  8.0363608779537472  2.2715336064231950
 12.5515111077093895 12.2106033279537449  3.7200463047401930
 10.5906255539183878  1.7749972079537475  0.3434814356421931
 11.9863617018453894  3.8621184379537468  0.8230209081071929
 10.8732002568503869  5.9492396579537470  1.7919941339581933
 10.5906255539183878  8.0363608779537472  0.3434814356421931
 11.9863617018453894 10.1234820979537474  0.8230209081071929
 10.8732002568503869 12.2106033279537449  1.7919941339581933
 13.6646725448043878  3.8621184379537468  2.7510730906181946
 14.7778339898003885  1.7749972079537475  1.7820998647661939
 13.6646725448043878 10.1234820979537474  2.7510730906181946
 14.7778339898003885  8.0363608779537472  1.7820998647661939
 14.4952592868683894  3.8621184379537468  0.3335871664501929
 13.3820978418723886  5.9492396579537470  1.3025603923011930
 14.4952592868683894 10.1234820979537474  0.3335871664501929
 13.3820978418723886 12.2106033279537449  1.3025603923011930
 13.6475351780713883  3.8621184379537468  5.9880490715011927
 13.6475351780713883 10.1234820979537474  5.9880490715011927
 12.4905694410603907  3.8621184379537468 14.2140722711341994
 12.4905694410603907 10.1234820979537474 14.2140722711341994
  9.8525005215243873  1.7749972079537475 12.8901605084771926
  9.8525005215243873  8.0363608779537472 12.8901605084771926
 10.1112403861833879  1.7749972079537475  7.3100463872891952
  9.9387471430773875  3.8621184379537468 14.3634558014151956
 11.1715349859913875  5.9492396579537470 13.5521163845221935
 10.1112403861833879  8.0363608779537472  7.3100463872891952
  9.9387471430773875 10.1234820979537474 14.3634558014151956
 11.1715349859913875 12.2106033279537449 13.5521163845221935
 17.3006782235403875  1.7749972079537475 13.0395440387581942
 17.3006782235403875  8.0363608779537472 13.0395440387581942
  8.7922059311143883  3.8621184379537468  6.6480905006781947
 17.5594180882003883  1.7749972079537475  7.4594299175701941
  8.6197126880083879  5.9492396579537470 13.7014999148031968
  8.7922059311143883 10.1234820979537474  6.6480905006781947
 17.5594180882003883  8.0363608779537472  7.4594299175701941
  8.6197126880083879 12.2106033279537449 13.7014999148031968
  8.8784525526673903  5.9492396579537470  8.1213857936151932
  8.8784525526673903 12.2106033279537449  8.1213857936151932
 15.9816437684713861  3.8621184379537468 12.3775881521471973
 14.7488559255573914  1.7749972079537475 13.1889275690391976
 15.9816437684713861 10.1234820979537474 12.3775881521471973
 14.7488559255573914  8.0363608779537472 13.1889275690391976
 16.2403836331313904  3.8621184379537468  6.7974740309591946
 15.0075957902163886  1.7749972079537475  7.6088134478511957
 16.0678903900243881  5.9492396579537470 13.8508834450841967
 16.2403836331313904 10.1234820979537474  6.7974740309591946
 15.0075957902163886  8.0363608779537472  7.6088134478511957
 16.0678903900243881 12.2106033279537449 13.8508834450841967
 16.4128768762373873  1.7749972079537475  9.7440646168331959
 16.3266302546843889  5.9492396579537470  8.2707693238961966
 16.4128768762373873  8.0363608779537472  9.7440646168331959
 16.3266302546843889 12.2106033279537449  8.2707693238961966
 16.9685665318003878  3.8621184379537468 11.8018883914211976
 16.6859918288683886  5.9492396579537470 10.3533756931051943
 16.9685665318003878 10.1234820979537474 11.8018883914211976
 16.6859918288683886 12.2106033279537449 10.3533756931051943
  9.7600388197543868  1.7749972079537475 12.7609673480801966
  9.7600388197543868  8.0363608779537472 12.7609673480801966
  7.7991532659633878  3.8621184379537468  9.3844024789831924
  8.0817279688953878  1.7749972079537475 10.8329151772991956
  8.9123147109583876  1.7749972079537475  8.4154292531311938
  9.4774641168223877  3.8621184379537468 11.3124546497641933
  8.3643026718273870  5.9492396579537470 12.2814278756161919
  7.7991532659633878 10.1234820979537474  9.3844024789831924
  8.0817279688953878  8.0363608779537472 10.8329151772991956
  9.1948894138903920  5.9492396579537470  9.8639419514481972
  8.9123147109583876  8.0363608779537472  8.4154292531311938
  9.4774641168223877 10.1234820979537474 11.3124546497641933
  8.3643026718273870 12.2106033279537449 12.2814278756161919
  9.1948894138903920 12.2106033279537449  9.8639419514481972
 11.1557749597823879  3.8621184379537468 13.2405068322751962
 12.2689364047773886  1.7749972079537475 12.2715336064231941
 11.1557749597823879 10.1234820979537474 13.2405068322751962
 12.5515111077093895  5.9492396579537470 13.7200463047401975
 12.2689364047773886  8.0363608779537472 12.2715336064231941
 12.5515111077093895 12.2106033279537449 13.7200463047401975
 10.3080508509853868  3.8621184379537468  8.8949687373261970
 10.5906255539183878  1.7749972079537475 10.3434814356421931
 11.4212122959813875  1.7749972079537475  7.9259955114741931
 11.9863617018453894  3.8621184379537468 10.8230209081071962
 10.8732002568503869  5.9492396579537470 11.7919941339581964
 10.3080508509853868 10.1234820979537474  8.8949687373261970
 10.5906255539183878  8.0363608779537472 10.3434814356421931
 11.7037869989133867  5.9492396579537470  9.3745082097911947
 11.4212122959813875  8.0363608779537472  7.9259955114741931
 11.9863617018453894 10.1234820979537474 10.8230209081071962
 10.8732002568503869 12.2106033279537449 11.7919941339581964
 11.7037869989133867 12.2106033279537449  9.3745082097911947
 13.6646725448043878  3.8621184379537468 12.7510730906181973
 14.7778339898003885  1.7749972079537475 11.7820998647661970
 13.6646725448043878 10.1234820979537474 12.7510730906181973
 14.7778339898003885  8.0363608779537472 11.7820998647661970
 12.8169484360083885  3.8621184379537468  8.4055349956691927
 13.0995231389403912  1.7749972079537475  9.8540476939851978
 13.9301098810043875  1.7749972079537475  7.4365617698171933
 14.4952592868683894  3.8621184379537468 10.3335871664501937
 13.3820978418723886  5.9492396579537470 11.3025603923011921
 12.8169484360083885 10.1234820979537474  8.4055349956691927
 13.0995231389403912  8.0363608779537472  9.8540476939851978
 14.2126845839363867  5.9492396579537470  8.8850744681341922
 13.9301098810043875  8.0363608779537472  7.4365617698171933
 14.4952592868683894 10.1234820979537474 10.3335871664501937
 13.3820978418723886 12.2106033279537449 11.3025603923011921
 14.2126845839363867 12.2106033279537449  8.8850744681341922
 12.5343737330763894  5.9492396579537470  6.9570222973531930
 12.5343737330763894 12.2106033279537449  6.9570222973531930
