Cu
 1.0000000000000000
    19.6781961786337618    0.0000000000000000    0.0000000000000000
     0.0000000000000000   12.8240214730412703    0.0000000000000000
     0.0000000000000000    0.0000000000000000   12.3286327464387746
 Cu 
 275
Cartesian
  4.3357004499087672  5.7994304864782036  2.2424311309267582
  4.4219470714617675  1.6251880464782038  3.7157264238647576
  4.5081936930157678  3.7123092664782043  5.1890217168017561
  4.4219470714617675  7.8865517064782038  3.7157264238647576
  4.5081936930157678  9.9736729364782004  5.1890217168017561
  4.4219470714617675 12.0607941664782032  3.7157264238647576
  3.0166659948397676  1.6251880464782038  1.5804752443157561
  3.0166659948397676  7.8865517064782038  1.5804752443157561
  1.7838781519257685  5.7994304864782036  2.3918146612077589
  3.0166659948397676 12.0607941664782032  1.5804752443157561
  1.8701247734787694  1.6251880464782038  3.8651099541457570
  3.1029126163927678  3.7123092664782043  3.0537705372527562
  3.1891592379467681  5.7994304864782036  4.5270658301897582
  1.9563713950317680  3.7123092664782043  5.3384052470827568
  1.8701247734787694  7.8865517064782038  3.8651099541457570
  3.1029126163927678  9.9736729364782004  3.0537705372527562
  1.9563713950317680  9.9736729364782004  5.3384052470827568
  1.8701247734787694 12.0607941664782032  3.8651099541457570
  4.0035887581687675  1.6251880464782038  1.0047754835897564
  4.0035887581687675  7.8865517064782038  1.0047754835897564
  4.0035887581687675 12.0607941664782032  1.0047754835897564
  0.6996947711727683  1.6251880464782038  1.9539601827867579
  0.6996947711727683  7.8865517064782038  1.9539601827867579
  1.8128562161687698  5.7994304864782036  0.9849869569347567
  0.6996947711727683 12.0607941664782032  1.9539601827867579
  0.4171200682407683  3.7123092664782043  0.5054474844697561
  0.4171200682407683  9.9736729364782004  0.5054474844697561
  0.6825574044397689  1.6251880464782038  5.1909361636697566
  0.6825574044397689  7.8865517064782038  5.1909361636697566
  0.6825574044397689 12.0607941664782032  5.1909361636697566
  4.3357004499087672  5.7994304864782036 12.2424311309267573
  4.5944403145687680  5.7994304864782036  6.6623170097387563
  4.6806869361217682  1.6251880464782038  8.1356123026767584
  4.6806869361217682  7.8865517064782038  8.1356123026767584
  4.6806869361217682 12.0607941664782032  8.1356123026767584
  3.0166659948397676  1.6251880464782038 11.5804752443157604
  3.0166659948397676  7.8865517064782038 11.5804752443157604
  3.0166659948397676 12.0607941664782032 11.5804752443157604
  3.2754058594997701  1.6251880464782038  6.0003611231277576
  3.2754058594997701  7.8865517064782038  6.0003611231277576
  2.0426180165847683  5.7994304864782036  6.8117005400197570
  3.2754058594997701 12.0607941664782032  6.0003611231277576
  3.3616524810527686  3.7123092664782043  7.4736564160647578
  3.4478991026057688  5.7994304864782036  8.9469517090017554
  3.3616524810527686  9.9736729364782004  7.4736564160647578
  4.0035887581687675  1.6251880464782038 11.0047754835897607
  3.7210140552367683  3.7123092664782043  9.5562627852737574
  4.0035887581687675  7.8865517064782038 11.0047754835897607
  3.7210140552367683  9.9736729364782004  9.5562627852737574
  4.0035887581687675 12.0607941664782032 11.0047754835897607
  0.6996947711727683  1.6251880464782038 11.9539601827867585
  0.6996947711727683  7.8865517064782038 11.9539601827867585
  1.8128562161687698  5.7994304864782036 10.9849869569347582
  0.6996947711727683 12.0607941664782032 11.9539601827867585
  1.5302815132367700  1.6251880464782038  9.5364742586187567
  0.4171200682407683  3.7123092664782043 10.5054474844697552
  0.1345453653087683  5.7994304864782036  9.0569347861537572
  1.2477068103047682  3.7123092664782043  8.0879615603027570
  0.9651321073727681  5.7994304864782036  6.6394488619857563
  1.5302815132367700  7.8865517064782038  9.5364742586187567
  0.4171200682407683  9.9736729364782004 10.5054474844697552
  1.2477068103047682  9.9736729364782004  8.0879615603027570
  1.5302815132367700 12.0607941664782032  9.5364742586187567
  9.5255916674287668  1.6251880464782038  3.4169593633027580
  9.6118382889827672  3.7123092664782043  4.8902546562397564
  9.5255916674287668  7.8865517064782038  3.4169593633027580
  9.6118382889827672  9.9736729364782004  4.8902546562397564
  9.5255916674287668 12.0607941664782032  3.4169593633027580
  6.8875227478927679  5.7994304864782036  2.0930476006457557
  8.3790504554667677  1.6251880464782038  5.7015940625657553
  6.9737693694457681  1.6251880464782038  3.5663428935837587
  8.2065572123597690  3.7123092664782043  2.7550034766907570
  8.3790504554667677  7.8865517064782038  5.7015940625657553
  8.2928038339127674  5.7994304864782036  4.2282987696277576
  7.0600159909987692  3.7123092664782043  5.0396381865207580
  6.9737693694457681  7.8865517064782038  3.5663428935837587
  8.2065572123597690  9.9736729364782004  2.7550034766907570
  7.0600159909987692  9.9736729364782004  5.0396381865207580
  8.3790504554667677 12.0607941664782032  5.7015940625657553
  6.9737693694457681 12.0607941664782032  3.5663428935837587
 14.3357004499087672  5.7994304864782036  2.2424311309267582
 14.4219470714617675  1.6251880464782038  3.7157264238647576
  5.6547349143767676  3.7123092664782043  2.9043870069717568
  5.7409815359297678  5.7994304864782036  4.3776822999087575
 14.5081936930157678  3.7123092664782043  5.1890217168017561
 14.4219470714617675  7.8865517064782038  3.7157264238647576
  5.6547349143767676  9.9736729364782004  2.9043870069717568
 14.5081936930157678  9.9736729364782004  5.1890217168017561
 14.4219470714617675 12.0607941664782032  3.7157264238647576
 13.0166659948397676  1.6251880464782038  1.5804752443157561
 13.0166659948397676  7.8865517064782038  1.5804752443157561
 11.7838781519257694  5.7994304864782036  2.3918146612077589
 13.0166659948397676 12.0607941664782032  1.5804752443157561
 11.8701247734787696  1.6251880464782038  3.8651099541457570
 13.1029126163927678  3.7123092664782043  3.0537705372527562
 13.1891592379467681  5.7994304864782036  4.5270658301897582
 11.9563713950317680  3.7123092664782043  5.3384052470827568
 11.8701247734787696  7.8865517064782038  3.8651099541457570
 13.1029126163927678  9.9736729364782004  3.0537705372527562
 11.9563713950317680  9.9736729364782004  5.3384052470827568
 11.8701247734787696 12.0607941664782032  3.8651099541457570
 14.0035887581687675  1.6251880464782038  1.0047754835897564
 14.0035887581687675  7.8865517064782038  1.0047754835897564
 14.0035887581687675 12.0607941664782032  1.0047754835897564
  6.7950610461227683  5.7994304864782036  1.9638544402487563
  6.5124863431907674  1.6251880464782038  0.5153417419327564
  5.3993248981957684  3.7123092664782043  1.4843149677847560
  5.1167501952637684  5.7994304864782036  0.0358022694677560
  6.5124863431907674  7.8865517064782038  0.5153417419327564
  5.3993248981957684  9.9736729364782004  1.4843149677847560
  6.5124863431907674 12.0607941664782032  0.5153417419327564
  8.1907971861507693  1.6251880464782038  2.4433939244437557
  8.1907971861507693  7.8865517064782038  2.4433939244437557
  9.5865333340777674  3.7123092664782043  2.9229333969087561
  9.3039586311457683  5.7994304864782036  1.4744206985917581
  9.5865333340777674  9.9736729364782004  2.9229333969087561
  8.1907971861507693 12.0607941664782032  2.4433939244437557
  9.0213839282137691  1.6251880464782038  0.0259080002757557
  7.9082224832187684  3.7123092664782043  0.9948812261267561
  9.0213839282137691  7.8865517064782038  0.0259080002757557
  7.9082224832187684  9.9736729364782004  0.9948812261267561
  9.0213839282137691 12.0607941664782032  0.0259080002757557
 10.6996947711727692  1.6251880464782038  1.9539601827867579
 10.6996947711727692  7.8865517064782038  1.9539601827867579
 11.8128562161687700  5.7994304864782036  0.9849869569347567
 10.6996947711727692 12.0607941664782032  1.9539601827867579
 10.4171200682407683  3.7123092664782043  0.5054474844697561
 10.4171200682407683  9.9736729364782004  0.5054474844697561
 10.6825574044397698  1.6251880464782038  5.1909361636697566
 10.6825574044397698  7.8865517064782038  5.1909361636697566
 10.6825574044397698 12.0607941664782032  5.1909361636697566
  6.8875227478927679  5.7994304864782036 12.0930476006457575
  7.1462626125517668  5.7994304864782036  6.5129334794577556
 14.3357004499087672  5.7994304864782036 12.2424311309267573
  5.8272281574827680  1.6251880464782038  5.8509775928467560
  5.8272281574827680  7.8865517064782038  5.8509775928467560
 14.5944403145687662  5.7994304864782036  6.6623170097387563
  5.8272281574827680 12.0607941664782032  5.8509775928467560
 14.6806869361217682  1.6251880464782038  8.1356123026767584
  5.9134747790357673  3.7123092664782043  7.3242728857837571
 14.6806869361217682  7.8865517064782038  8.1356123026767584
  5.9134747790357673  9.9736729364782004  7.3242728857837571
 14.6806869361217682 12.0607941664782032  8.1356123026767584
 13.0166659948397676  1.6251880464782038 11.5804752443157604
 13.0166659948397676  7.8865517064782038 11.5804752443157604
 13.0166659948397676 12.0607941664782032 11.5804752443157604
 13.2754058594997701  1.6251880464782038  6.0003611231277576
 13.2754058594997701  7.8865517064782038  6.0003611231277576
 12.0426180165847683  5.7994304864782036  6.8117005400197570
 13.2754058594997701 12.0607941664782032  6.0003611231277576
 13.3616524810527668  3.7123092664782043  7.4736564160647578
 13.4478991026057688  5.7994304864782036  8.9469517090017554
 13.3616524810527668  9.9736729364782004  7.4736564160647578
 14.0035887581687675  1.6251880464782038 11.0047754835897607
 13.7210140552367683  3.7123092664782043  9.5562627852737574
 14.0035887581687675  7.8865517064782038 11.0047754835897607
 13.7210140552367683  9.9736729364782004  9.5562627852737574
 14.0035887581687675 12.0607941664782032 11.0047754835897607
  6.7950610461227683  5.7994304864782036 11.9638544402487561
  4.8341754923317684  1.6251880464782038  8.5872895711517554
  6.5124863431907674  1.6251880464782038 10.5153417419327582
  5.3993248981957684  3.7123092664782043 11.4843149677847549
  4.8341754923317684  7.8865517064782038  8.5872895711517554
  5.1167501952637684  5.7994304864782036 10.0358022694677551
  6.2299116402587682  3.7123092664782043  9.0668290436167567
  5.9473369373267682  5.7994304864782036  7.6183163452997569
  6.5124863431907674  7.8865517064782038 10.5153417419327582
  5.3993248981957684  9.9736729364782004 11.4843149677847549
  6.2299116402587682  9.9736729364782004  9.0668290436167567
  4.8341754923317684 12.0607941664782032  8.5872895711517554
  6.5124863431907674 12.0607941664782032 10.5153417419327582
  9.3039586311457683  5.7994304864782036 11.4744206985917607
  7.3430730773537682  1.6251880464782038  8.0978558294947565
  9.0213839282137691  1.6251880464782038 10.0259080002757575
  7.9082224832187684  3.7123092664782043 10.9948812261267559
  7.3430730773537682  7.8865517064782038  8.0978558294947565
  7.6256477802867675  5.7994304864782036  9.5463685278107580
  8.7388092252817682  3.7123092664782043  8.5773953019597560
  8.4562345223497672  5.7994304864782036  7.1288826036427562
  9.0213839282137691  7.8865517064782038 10.0259080002757575
  7.9082224832187684  9.9736729364782004 10.9948812261267559
  8.7388092252817682  9.9736729364782004  8.5773953019597560
  7.3430730773537682 12.0607941664782032  8.0978558294947565
  9.0213839282137691 12.0607941664782032 10.0259080002757575
 10.6996947711727692  1.6251880464782038 11.9539601827867585
 10.6996947711727692  7.8865517064782038 11.9539601827867585
 11.8128562161687700  5.7994304864782036 10.9849869569347582
 10.6996947711727692 12.0607941664782032 11.9539601827867585
  9.8519706623767682  1.6251880464782038  7.6084220878377566
 11.5302815132367691  1.6251880464782038  9.5364742586187567
 10.4171200682407683  3.7123092664782043 10.5054474844697552
  9.8519706623767682  7.8865517064782038  7.6084220878377566
 10.1345453653087674  5.7994304864782036  9.0569347861537572
 11.2477068103047682  3.7123092664782043  8.0879615603027570
 10.9651321073727690  5.7994304864782036  6.6394488619857563
 11.5302815132367691  7.8865517064782038  9.5364742586187567
 10.4171200682407683  9.9736729364782004 10.5054474844697552
 11.2477068103047682  9.9736729364782004  8.0879615603027570
  9.8519706623767682 12.0607941664782032  7.6084220878377566
 11.5302815132367691 12.0607941664782032  9.5364742586187567
  9.5693959594447691  3.7123092664782043  6.1599093895217569
  9.5693959594447691  9.9736729364782004  6.1599093895217569
 19.5255916674287668  1.6251880464782038  3.4169593633027580
 19.6118382889827672  3.7123092664782043  4.8902546562397564
 19.5255916674287668  7.8865517064782038  3.4169593633027580
 19.6118382889827672  9.9736729364782004  4.8902546562397564
 19.5255916674287668 12.0607941664782032  3.4169593633027580
 16.8875227478927670  5.7994304864782036  2.0930476006457557
 18.3790504554667677  1.6251880464782038  5.7015940625657553
 16.9737693694457690  1.6251880464782038  3.5663428935837587
 18.2065572123597690  3.7123092664782043  2.7550034766907570
 18.3790504554667677  7.8865517064782038  5.7015940625657553
 18.2928038339127674  5.7994304864782036  4.2282987696277576
 17.0600159909987674  3.7123092664782043  5.0396381865207580
 16.9737693694457690  7.8865517064782038  3.5663428935837587
 18.2065572123597690  9.9736729364782004  2.7550034766907570
 17.0600159909987674  9.9736729364782004  5.0396381865207580
 18.3790504554667677 12.0607941664782032  5.7015940625657553
 16.9737693694457690 12.0607941664782032  3.5663428935837587
 15.6547349143767676  3.7123092664782043  2.9043870069717568
 15.7409815359297660  5.7994304864782036  4.3776822999087575
 15.6547349143767676  9.9736729364782004  2.9043870069717568
 16.7950610461227683  5.7994304864782036  1.9638544402487563
 16.5124863431907691  1.6251880464782038  0.5153417419327564
 15.3993248981957684  3.7123092664782043  1.4843149677847560
 15.1167501952637675  5.7994304864782036  0.0358022694677560
 16.5124863431907691  7.8865517064782038  0.5153417419327564
 15.3993248981957684  9.9736729364782004  1.4843149677847560
 16.5124863431907691 12.0607941664782032  0.5153417419327564
 18.1907971861507676  1.6251880464782038  2.4433939244437557
 18.1907971861507676  7.8865517064782038  2.4433939244437557
 19.5865333340777674  3.7123092664782043  2.9229333969087561
 19.3039586311457683  5.7994304864782036  1.4744206985917581
 19.5865333340777674  9.9736729364782004  2.9229333969087561
 18.1907971861507676 12.0607941664782032  2.4433939244437557
 19.0213839282137691  1.6251880464782038  0.0259080002757557
 17.9082224832187684  3.7123092664782043  0.9948812261267561
 19.0213839282137691  7.8865517064782038  0.0259080002757557
 17.9082224832187684  9.9736729364782004  0.9948812261267561
 19.0213839282137691 12.0607941664782032  0.0259080002757557
 16.8875227478927670  5.7994304864782036 12.0930476006457575
 17.1462626125517659  5.7994304864782036  6.5129334794577556
 15.8272281574827680  1.6251880464782038  5.8509775928467560
 15.8272281574827680  7.8865517064782038  5.8509775928467560
 15.8272281574827680 12.0607941664782032  5.8509775928467560
 15.9134747790357682  3.7123092664782043  7.3242728857837571
 15.9134747790357682  9.9736729364782004  7.3242728857837571
 16.7950610461227683  5.7994304864782036 11.9638544402487561
 14.8341754923317684  1.6251880464782038  8.5872895711517554
 16.5124863431907691  1.6251880464782038 10.5153417419327582
 15.3993248981957684  3.7123092664782043 11.4843149677847549
 14.8341754923317684  7.8865517064782038  8.5872895711517554
 15.1167501952637675  5.7994304864782036 10.0358022694677551
 16.2299116402587700  3.7123092664782043  9.0668290436167567
 15.9473369373267673  5.7994304864782036  7.6183163452997569
 16.5124863431907691  7.8865517064782038 10.5153417419327582
 15.3993248981957684  9.9736729364782004 11.4843149677847549
 16.2299116402587700  9.9736729364782004  9.0668290436167567
 14.8341754923317684 12.0607941664782032  8.5872895711517554
 16.5124863431907691 12.0607941664782032 10.5153417419327582
 19.3039586311457683  5.7994304864782036 11.4744206985917607
 17.3430730773537682  1.6251880464782038  8.0978558294947565
 19.0213839282137691  1.6251880464782038 10.0259080002757575
 17.9082224832187684  3.7123092664782043 10.9948812261267559
 17.3430730773537682  7.8865517064782038  8.0978558294947565
 17.6256477802867693  5.7994304864782036  9.5463685278107580
 18.7388092252817700  3.7123092664782043  8.5773953019597560
 18.4562345223497672  5.7994304864782036  7.1288826036427562
 19.0213839282137691  7.8865517064782038 10.0259080002757575
 17.9082224832187684  9.9736729364782004 10.9948812261267559
 18.7388092252817700  9.9736729364782004  8.5773953019597560
 17.3430730773537682 12.0607941664782032  8.0978558294947565
 19.0213839282137691 12.0607941664782032 10.0259080002757575
 19.5693959594447691  3.7123092664782043  6.1599093895217569
 19.5693959594447691  9.9736729364782004  6.1599093895217569
