Cu
 1.0000000000000000
    15.2635356090502583    0.0000000000000000    0.0000000000000000
     0.0000000000000000   13.0945702242370103    0.0000000000000000
     0.0000000000000000    0.0000000000000000   16.5989754369842686
 Cu 
 292
Cartesian
  4.3712659658753132  3.4638125758490581  2.9469376526454871
  4.4575125874293144  1.3766913558490579  4.4202329455824856
  1.7331970463393129  5.5509338058490592  1.6230258899884848
  3.2247247539133137  3.4638125758490581  5.2315723519084845
  3.1384781323593125  5.5509338058490592  3.7582770589704872
  1.8194436678923132  3.4638125758490581  3.0963211829264869
  3.0522315108063132  1.3766913558490579  2.2849817660334857
  1.9056902894453134  1.3766913558490579  4.5696164758634854
  9.1813747483553154  5.5509338058490592  1.7724094202694873
  0.5866558343763127  5.5509338058490592  3.9076605892514866
  9.2676213699083121  3.4638125758490581  3.2457047132074868
  0.5004092128233127  1.3766913558490579  2.4343652963144855
  9.3538679914623124  1.3766913558490579  4.7190000061444852
  7.8623402932863131  3.4638125758490581  1.1104535336584851
  6.6295524503723131  5.5509338058490592  1.9217929505504872
  8.0348335363933128  5.5509338058490592  4.0570441195324864
  6.7157990719253160  3.4638125758490581  3.3950882434884857
  7.9485869148393133  1.3766913558490579  2.5837488265954858
  6.8020456934783127  1.3766913558490579  4.8683835364254850
  8.8492630566153156  3.4638125758490581  0.5347537729324854
  1.6407353445693125  5.5509338058490592  1.4938327295914853
  1.3581606416373131  3.4638125758490581  0.0453200312754856
  0.2449991966423126  1.3766913558490579  1.0142932571274850
  3.0364714845973135  3.4638125758490581  1.9733722137864849
  4.1496329295923129  5.5509338058490592  1.0043989879344872
  4.4322076325243129  1.3766913558490579  2.4529116862514853
  2.7538967816653126  1.3766913558490579  0.5248595154694851
  5.5453690696193130  3.4638125758490581  1.4839384721294870
  6.6585305146153146  5.5509338058490592  0.5149652462774856
  5.2627943666873129  1.3766913558490579  0.0354257738124852
  5.5282317028863153  3.4638125758490581  4.7209144530124849
  4.3712659658753132  3.4638125758490581 12.9469376526454880
  4.4575125874293144  1.3766913558490579 14.4202329455824856
  1.7331970463393129  5.5509338058490592 11.6230258899884848
  3.2247247539133137  3.4638125758490581 15.2315723519084845
  3.1384781323593125  5.5509338058490592 13.7582770589704868
  1.9919369109983129  5.5509338058490592  6.0429117688004848
  1.8194436678923132  3.4638125758490581 13.0963211829264878
  3.0522315108063132  1.3766913558490579 12.2849817660334857
  1.9056902894453134  1.3766913558490579 14.5696164758634854
  9.1813747483553154  5.5509338058490592 11.7724094202694900
  0.6729024559293126  3.4638125758490581  5.3809558821894852
  0.5866558343763127  5.5509338058490592 13.9076605892514866
  9.4401146130153162  5.5509338058490592  6.1922952990814855
  9.2676213699083121  3.4638125758490581 13.2457047132074912
  0.5004092128233127  1.3766913558490579 12.4343652963144855
  9.3538679914623124  1.3766913558490579 14.7190000061444852
  9.5263612345683129  3.4638125758490581  7.6655905920194858
  0.7591490774823126  1.3766913558490579  6.8542511751264854
  7.8623402932863131  3.4638125758490581 11.1104535336584860
  6.6295524503723131  5.5509338058490592 11.9217929505504863
  8.1210801579463183  3.4638125758490581  5.5303394124704850
  8.0348335363933128  5.5509338058490592 14.0570441195324864
  6.8882923150313129  5.5509338058490592  6.3416788293624853
  6.7157990719253160  3.4638125758490581 13.3950882434884857
  7.9485869148393133  1.3766913558490579 12.5837488265954853
  6.8020456934783127  1.3766913558490579 14.8683835364254850
  8.2935734010523134  5.5509338058490592  8.4769299983444846
  8.2073267794993132  1.3766913558490579  7.0036347054074852
  8.8492630566153156  3.4638125758490581 10.5347537729324863
  8.5666883536833129  1.3766913558490579  9.0862410746164866
  1.6407353445693125  5.5509338058490592 11.4938327295914888
  0.7930112357733128  5.5509338058490592  7.1482946346424860
  1.3581606416373131  3.4638125758490581 10.0453200312754856
  0.2449991966423126  1.3766913558490579 11.0142932571274841
  1.0755859387053130  1.3766913558490579  8.5968073329594858
  3.0364714845973135  3.4638125758490581 11.9733722137864849
  4.1496329295923129  5.5509338058490592 11.0043989879344863
  4.4322076325243129  1.3766913558490579 12.4529116862514861
  2.1887473758003124  3.4638125758490581  7.6278341188374856
  2.4713220787333126  5.5509338058490592  9.0763468171534853
  3.3019088207963136  5.5509338058490592  6.6588608929854853
  3.8670582266603137  3.4638125758490581  9.5558862896184849
  2.7538967816653126  1.3766913558490579 10.5248595154694851
  3.5844835237283137  1.3766913558490579  8.1073735913024851
  5.5453690696193130  3.4638125758490581 11.4839384721294877
  6.6585305146153146  5.5509338058490592 10.5149652462774856
  4.6976449608233137  3.4638125758490581  7.1384003771804858
  4.9802196637553129  5.5509338058490592  8.5869130754964864
  5.8108064058193127  5.5509338058490592  6.1694271513284855
  6.3759558116833164  3.4638125758490581  9.0664525479614859
  5.2627943666873129  1.3766913558490579 10.0354257738124844
  6.0933811087513128  1.3766913558490579  7.6179398496454853
  5.5282317028863153  3.4638125758490581 14.7209144530124849
  4.4150702578913137  1.3766913558490579  5.6898876788644852
  1.9919369109983129  5.5509338058490592 16.0429117688004865
  0.6729024559293126  3.4638125758490581 15.3809558821894843
  9.4401146130153162  5.5509338058490592 16.1922952990814863
  8.1210801579463183  3.4638125758490581 15.5303394124704859
  6.8882923150313129  5.5509338058490592 16.3416788293624862
  5.8108064058193127  5.5509338058490592 16.1694271513284846
  4.4150702578913137  1.3766913558490579 15.6898876788644852
  4.4575125874293144  7.6380550258490594  4.4202329455824856
  4.3712659658753132 11.8122974758490606  2.9469376526454871
  1.7331970463393129  9.7251762458490596  1.6230258899884848
  3.0522315108063132  7.6380550258490594  2.2849817660334857
  3.2247247539133137 11.8122974758490606  5.2315723519084845
  3.1384781323593125  9.7251762458490596  3.7582770589704872
  1.9056902894453134  7.6380550258490594  4.5696164758634854
  1.8194436678923132 11.8122974758490606  3.0963211829264869
  9.1813747483553154  9.7251762458490596  1.7724094202694873
  0.5004092128233127  7.6380550258490594  2.4343652963144855
  0.5866558343763127  9.7251762458490596  3.9076605892514866
  9.3538679914623124  7.6380550258490594  4.7190000061444852
  9.2676213699083121 11.8122974758490606  3.2457047132074868
  7.8623402932863131 11.8122974758490606  1.1104535336584851
  6.6295524503723131  9.7251762458490596  1.9217929505504872
  7.9485869148393133  7.6380550258490594  2.5837488265954858
  8.0348335363933128  9.7251762458490596  4.0570441195324864
  6.8020456934783127  7.6380550258490594  4.8683835364254850
  6.7157990719253160 11.8122974758490606  3.3950882434884857
  8.8492630566153156 11.8122974758490606  0.5347537729324854
  1.6407353445693125  9.7251762458490596  1.4938327295914853
  0.2449991966423126  7.6380550258490594  1.0142932571274850
  1.3581606416373131 11.8122974758490606  0.0453200312754856
  3.0364714845973135 11.8122974758490606  1.9733722137864849
  4.4322076325243129  7.6380550258490594  2.4529116862514853
  4.1496329295923129  9.7251762458490596  1.0043989879344872
  2.7538967816653126  7.6380550258490594  0.5248595154694851
  5.5453690696193130 11.8122974758490606  1.4839384721294870
  6.6585305146153146  9.7251762458490596  0.5149652462774856
  5.2627943666873129  7.6380550258490594  0.0354257738124852
  5.5282317028863153 11.8122974758490606  4.7209144530124849
  4.4575125874293144  7.6380550258490594 14.4202329455824856
  4.3712659658753132 11.8122974758490606 12.9469376526454880
  1.7331970463393129  9.7251762458490596 11.6230258899884848
  3.0522315108063132  7.6380550258490594 12.2849817660334857
  3.2247247539133137 11.8122974758490606 15.2315723519084845
  3.1384781323593125  9.7251762458490596 13.7582770589704868
  1.9056902894453134  7.6380550258490594 14.5696164758634854
  1.9919369109983129  9.7251762458490596  6.0429117688004848
  1.8194436678923132 11.8122974758490606 13.0963211829264878
  9.1813747483553154  9.7251762458490596 11.7724094202694900
  0.5004092128233127  7.6380550258490594 12.4343652963144855
  0.6729024559293126 11.8122974758490606  5.3809558821894852
  0.5866558343763127  9.7251762458490596 13.9076605892514866
  9.3538679914623124  7.6380550258490594 14.7190000061444852
  9.4401146130153162  9.7251762458490596  6.1922952990814855
  9.2676213699083121 11.8122974758490606 13.2457047132074912
  0.7591490774823126  7.6380550258490594  6.8542511751264854
  9.5263612345683129 11.8122974758490606  7.6655905920194858
  7.8623402932863131 11.8122974758490606 11.1104535336584860
  6.6295524503723131  9.7251762458490596 11.9217929505504863
  7.9485869148393133  7.6380550258490594 12.5837488265954853
  8.1210801579463183 11.8122974758490606  5.5303394124704850
  8.0348335363933128  9.7251762458490596 14.0570441195324864
  6.8020456934783127  7.6380550258490594 14.8683835364254850
  6.8882923150313129  9.7251762458490596  6.3416788293624853
  6.7157990719253160 11.8122974758490606 13.3950882434884857
  8.2073267794993132  7.6380550258490594  7.0036347054074852
  8.2935734010523134  9.7251762458490596  8.4769299983444846
  8.5666883536833129  7.6380550258490594  9.0862410746164866
  8.8492630566153156 11.8122974758490606 10.5347537729324863
  1.6407353445693125  9.7251762458490596 11.4938327295914888
  0.2449991966423126  7.6380550258490594 11.0142932571274841
  1.0755859387053130  7.6380550258490594  8.5968073329594858
  0.7930112357733128  9.7251762458490596  7.1482946346424860
  1.3581606416373131 11.8122974758490606 10.0453200312754856
  3.0364714845973135 11.8122974758490606 11.9733722137864849
  4.4322076325243129  7.6380550258490594 12.4529116862514861
  4.1496329295923129  9.7251762458490596 11.0043989879344863
  2.7538967816653126  7.6380550258490594 10.5248595154694851
  2.1887473758003124 11.8122974758490606  7.6278341188374856
  2.4713220787333126  9.7251762458490596  9.0763468171534853
  3.5844835237283137  7.6380550258490594  8.1073735913024851
  3.3019088207963136  9.7251762458490596  6.6588608929854853
  3.8670582266603137 11.8122974758490606  9.5558862896184849
  5.5453690696193130 11.8122974758490606 11.4839384721294877
  6.6585305146153146  9.7251762458490596 10.5149652462774856
  5.2627943666873129  7.6380550258490594 10.0354257738124844
  4.6976449608233137 11.8122974758490606  7.1384003771804858
  4.9802196637553129  9.7251762458490596  8.5869130754964864
  6.0933811087513128  7.6380550258490594  7.6179398496454853
  5.8108064058193127  9.7251762458490596  6.1694271513284855
  6.3759558116833164 11.8122974758490606  9.0664525479614859
  4.4150702578913137  7.6380550258490594  5.6898876788644852
  5.5282317028863153 11.8122974758490606 14.7209144530124849
  1.9919369109983129  9.7251762458490596 16.0429117688004865
  0.6729024559293126 11.8122974758490606 15.3809558821894843
  9.4401146130153162  9.7251762458490596 16.1922952990814863
  8.1210801579463183 11.8122974758490606 15.5303394124704859
  6.8882923150313129  9.7251762458490596 16.3416788293624862
  5.8108064058193127  9.7251762458490596 16.1694271513284846
  4.4150702578913137  7.6380550258490594 15.6898876788644852
 14.3712659658753115  3.4638125758490581  2.9469376526454871
 14.4575125874293153  1.3766913558490579  4.4202329455824856
 11.7331970463393116  5.5509338058490592  1.6230258899884848
 13.2247247539133124  3.4638125758490581  5.2315723519084845
 13.1384781323593121  5.5509338058490592  3.7582770589704872
 11.8194436678923136  3.4638125758490581  3.0963211829264869
 13.0522315108063136  1.3766913558490579  2.2849817660334857
 11.9056902894453120  1.3766913558490579  4.5696164758634854
 10.5866558343763124  5.5509338058490592  3.9076605892514866
 10.5004092128233122  1.3766913558490579  2.4343652963144855
 11.6407353445693129  5.5509338058490592  1.4938327295914853
 11.3581606416373173  3.4638125758490581  0.0453200312754856
 10.2449991966423166  1.3766913558490579  1.0142932571274850
 13.0364714845973140  3.4638125758490581  1.9733722137864849
 14.1496329295923129  5.5509338058490592  1.0043989879344872
 14.4322076325243120  1.3766913558490579  2.4529116862514853
 12.7538967816653166  1.3766913558490579  0.5248595154694851
 15.2627943666873165  1.3766913558490579  0.0354257738124852
 14.3712659658753115  3.4638125758490581 12.9469376526454880
 14.4575125874293153  1.3766913558490579 14.4202329455824856
 11.7331970463393116  5.5509338058490592 11.6230258899884848
 13.2247247539133124  3.4638125758490581 15.2315723519084845
 13.1384781323593121  5.5509338058490592 13.7582770589704868
 11.9919369109983158  5.5509338058490592  6.0429117688004848
 11.8194436678923136  3.4638125758490581 13.0963211829264878
 13.0522315108063136  1.3766913558490579 12.2849817660334857
 11.9056902894453120  1.3766913558490579 14.5696164758634854
 10.6729024559293162  3.4638125758490581  5.3809558821894852
 10.5866558343763124  5.5509338058490592 13.9076605892514866
 10.5004092128233122  1.3766913558490579 12.4343652963144855
 10.7591490774823129  1.3766913558490579  6.8542511751264854
 11.6407353445693129  5.5509338058490592 11.4938327295914888
  9.6798497907783130  3.4638125758490581  8.1172678604944846
  9.9624244937103121  5.5509338058490592  9.5657805588104843
 10.7930112357733119  5.5509338058490592  7.1482946346424860
 11.3581606416373173  3.4638125758490581 10.0453200312754856
 10.2449991966423166  1.3766913558490579 11.0142932571274841
 11.0755859387053128  1.3766913558490579  8.5968073329594858
 13.0364714845973140  3.4638125758490581 11.9733722137864849
 14.1496329295923129  5.5509338058490592 11.0043989879344863
 14.4322076325243120  1.3766913558490579 12.4529116862514861
 12.1887473758003129  3.4638125758490581  7.6278341188374856
 12.4713220787333121  5.5509338058490592  9.0763468171534853
 13.3019088207963119  5.5509338058490592  6.6588608929854853
 13.8670582266603173  3.4638125758490581  9.5558862896184849
 12.7538967816653166  1.3766913558490579 10.5248595154694851
 13.5844835237283128  1.3766913558490579  8.1073735913024851
 14.6976449608233128  3.4638125758490581  7.1384003771804858
 14.9802196637553120  5.5509338058490592  8.5869130754964864
 15.2627943666873165  1.3766913558490579 10.0354257738124844
 14.4150702578913137  1.3766913558490579  5.6898876788644852
 11.9919369109983158  5.5509338058490592 16.0429117688004865
 10.6729024559293162  3.4638125758490581 15.3809558821894843
 14.4150702578913137  1.3766913558490579 15.6898876788644852
 14.4575125874293153  7.6380550258490594  4.4202329455824856
 14.3712659658753115 11.8122974758490606  2.9469376526454871
 11.7331970463393116  9.7251762458490596  1.6230258899884848
 13.0522315108063136  7.6380550258490594  2.2849817660334857
 13.2247247539133124 11.8122974758490606  5.2315723519084845
 13.1384781323593121  9.7251762458490596  3.7582770589704872
 11.9056902894453120  7.6380550258490594  4.5696164758634854
 11.8194436678923136 11.8122974758490606  3.0963211829264869
 10.5004092128233122  7.6380550258490594  2.4343652963144855
 10.5866558343763124  9.7251762458490596  3.9076605892514866
 11.6407353445693129  9.7251762458490596  1.4938327295914853
 10.2449991966423166  7.6380550258490594  1.0142932571274850
 11.3581606416373173 11.8122974758490606  0.0453200312754856
 13.0364714845973140 11.8122974758490606  1.9733722137864849
 14.4322076325243120  7.6380550258490594  2.4529116862514853
 14.1496329295923129  9.7251762458490596  1.0043989879344872
 12.7538967816653166  7.6380550258490594  0.5248595154694851
 15.2627943666873165  7.6380550258490594  0.0354257738124852
 14.4575125874293153  7.6380550258490594 14.4202329455824856
 14.3712659658753115 11.8122974758490606 12.9469376526454880
 11.7331970463393116  9.7251762458490596 11.6230258899884848
 13.0522315108063136  7.6380550258490594 12.2849817660334857
 13.2247247539133124 11.8122974758490606 15.2315723519084845
 13.1384781323593121  9.7251762458490596 13.7582770589704868
 11.9056902894453120  7.6380550258490594 14.5696164758634854
 11.9919369109983158  9.7251762458490596  6.0429117688004848
 11.8194436678923136 11.8122974758490606 13.0963211829264878
 10.5004092128233122  7.6380550258490594 12.4343652963144855
 10.6729024559293162 11.8122974758490606  5.3809558821894852
 10.5866558343763124  9.7251762458490596 13.9076605892514866
 10.7591490774823129  7.6380550258490594  6.8542511751264854
 11.6407353445693129  9.7251762458490596 11.4938327295914888
 10.2449991966423166  7.6380550258490594 11.0142932571274841
  9.6798497907783130 11.8122974758490606  8.1172678604944846
  9.9624244937103121  9.7251762458490596  9.5657805588104843
 11.0755859387053128  7.6380550258490594  8.5968073329594858
 10.7930112357733119  9.7251762458490596  7.1482946346424860
 11.3581606416373173 11.8122974758490606 10.0453200312754856
 13.0364714845973140 11.8122974758490606 11.9733722137864849
 14.4322076325243120  7.6380550258490594 12.4529116862514861
 14.1496329295923129  9.7251762458490596 11.0043989879344863
 12.7538967816653166  7.6380550258490594 10.5248595154694851
 12.1887473758003129 11.8122974758490606  7.6278341188374856
 12.4713220787333121  9.7251762458490596  9.0763468171534853
 13.5844835237283128  7.6380550258490594  8.1073735913024851
 13.3019088207963119  9.7251762458490596  6.6588608929854853
 13.8670582266603173 11.8122974758490606  9.5558862896184849
 15.2627943666873165  7.6380550258490594 10.0354257738124844
 14.6976449608233128 11.8122974758490606  7.1384003771804858
 14.9802196637553120  9.7251762458490596  8.5869130754964864
 14.4150702578913137  7.6380550258490594  5.6898876788644852
 11.9919369109983158  9.7251762458490596 16.0429117688004865
 10.6729024559293162 11.8122974758490606 15.3809558821894843
 14.4150702578913137  7.6380550258490594 15.6898876788644852
