Cu
 1.0000000000000000
    15.0176478630640311    0.0000000000000000    0.0000000000000000
     0.0000000000000000   15.1528558607449497    0.0000000000000000
     0.0000000000000000    0.0000000000000000   13.0488695442097580
 Cu 
 264
Cartesian
  2.9688244569800686  1.4872003812119881  2.1680834688635677
  3.0550710785340698  3.5743216012119889  3.6413787618005662
  2.9688244569800686  7.7485640412119903  2.1680834688635677
  3.0550710785340698  9.8356852712119860  3.6413787618005662
  2.9688244569800686 11.9228065012119906  2.1680834688635677
  0.3307555374440688  5.6614428212119901  0.8441717062065655
  0.3307555374440688 14.0099277212119908  0.8441717062065655
  1.8222832450180695  1.4872003812119881  4.4527181681265651
  0.4170021589970691  1.4872003812119881  2.3174669991445676
  1.6497900019110694  3.5743216012119889  1.5061275822515663
  1.8222832450180695  7.7485640412119903  4.4527181681265651
  1.7360366234640692  5.6614428212119901  2.9794228751885674
  0.5032487805500692  3.5743216012119889  3.7907622920815660
  0.4170021589970691  7.7485640412119903  2.3174669991445676
  1.6497900019110694  9.8356852712119860  1.5061275822515663
  0.5032487805500692  9.8356852712119860  3.7907622920815660
  1.8222832450180695 11.9228065012119906  4.4527181681265651
  1.7360366234640692 14.0099277212119908  2.9794228751885674
  0.4170021589970691 11.9228065012119906  2.3174669991445676
  7.7789332394600681  5.6614428212119901  0.9935552364875678
  7.7789332394600681 14.0099277212119908  0.9935552364875678
  7.8651798610130692  1.4872003812119881  2.4668505294255674
  7.9514264825670686  3.5743216012119889  3.9401458223625658
  7.8651798610130692  7.7485640412119903  2.4668505294255674
  7.9514264825670686  9.8356852712119860  3.9401458223625658
  7.8651798610130692 11.9228065012119906  2.4668505294255674
  6.4598987843910685  1.4872003812119881  0.3315993498765657
  6.4598987843910685  7.7485640412119903  0.3315993498765657
  5.2271109414770693  5.6614428212119901  1.1429387667685678
  6.4598987843910685 11.9228065012119906  0.3315993498765657
  5.2271109414770693 14.0099277212119908  1.1429387667685678
  5.3133575630300705  1.4872003812119881  2.6162340597065663
  6.5461454059440687  3.5743216012119889  1.8048946428135657
  6.6323920274980690  5.6614428212119901  3.2781899357505671
  5.3996041845830689  3.5743216012119889  4.0895293526435657
  5.3133575630300705  7.7485640412119903  2.6162340597065663
  6.5461454059440687  9.8356852712119860  1.8048946428135657
  5.3996041845830689  9.8356852712119860  4.0895293526435657
  6.6323920274980690 14.0099277212119908  3.2781899357505671
  5.3133575630300705 11.9228065012119906  2.6162340597065663
  0.2382938356740687  5.6614428212119901  0.7149785458095659
  0.2382938356740687 14.0099277212119908  0.7149785458095659
  1.6340299757020698  1.4872003812119881  1.1945180300045655
  1.6340299757020698  7.7485640412119903  1.1945180300045655
  3.0297661236290692  3.5743216012119889  1.6740575024695659
  2.7471914206970691  5.6614428212119901  0.2255448041525678
  3.0297661236290692  9.8356852712119860  1.6740575024695659
  1.6340299757020698 11.9228065012119906  1.1945180300045655
  2.7471914206970691 14.0099277212119908  0.2255448041525678
  4.1429275607240692  1.4872003812119881  0.7050842883475674
  4.1429275607240692  7.7485640412119903  0.7050842883475674
  4.1429275607240692 11.9228065012119906  0.7050842883475674
  4.1257901939910715  1.4872003812119881  3.9420602692305651
  4.1257901939910715  7.7485640412119903  3.9420602692305651
  4.1257901939910715 11.9228065012119906  3.9420602692305651
  2.9688244569800686  1.4872003812119881 12.1680834688635677
  2.9688244569800686  7.7485640412119903 12.1680834688635677
  2.9688244569800686 11.9228065012119906 12.1680834688635677
  0.3307555374440688  5.6614428212119901 10.8441717062065663
  0.3307555374440688 14.0099277212119908 10.8441717062065663
  0.4170021589970691  1.4872003812119881 12.3174669991445676
  1.6497900019110694  3.5743216012119889 11.5061275822515654
  1.7360366234640692  5.6614428212119901 12.9794228751885683
  0.5894954021030689  5.6614428212119901  5.2640575850185662
  0.4170021589970691  7.7485640412119903 12.3174669991445676
  1.6497900019110694  9.8356852712119860 11.5061275822515654
  1.7360366234640692 14.0099277212119908 12.9794228751885683
  0.5894954021030689 14.0099277212119908  5.2640575850185662
  0.4170021589970691 11.9228065012119906 12.3174669991445676
  7.7789332394600681  5.6614428212119901 10.9935552364875679
  7.7789332394600681 14.0099277212119908 10.9935552364875679
  7.8651798610130692  1.4872003812119881 12.4668505294255674
  8.0376731041200724  5.6614428212119901  5.4134411152995661
  7.8651798610130692  7.7485640412119903 12.4668505294255674
  8.0376731041200724 14.0099277212119908  5.4134411152995661
  7.8651798610130692 11.9228065012119906 12.4668505294255674
  8.1239197256730726  1.4872003812119881  6.8867364082375655
  8.1239197256730726  7.7485640412119903  6.8867364082375655
  8.1239197256730726 11.9228065012119906  6.8867364082375655
  6.4598987843910685  1.4872003812119881 10.3315993498765657
  6.4598987843910685  7.7485640412119903 10.3315993498765657
  5.2271109414770693  5.6614428212119901 11.1429387667685678
  6.4598987843910685 11.9228065012119906 10.3315993498765657
  5.2271109414770693 14.0099277212119908 11.1429387667685678
  6.7186386490510728  1.4872003812119881  4.7514852286885656
  5.3133575630300705  1.4872003812119881 12.6162340597065654
  6.5461454059440687  3.5743216012119889 11.8048946428135650
  6.7186386490510728  7.7485640412119903  4.7514852286885656
  5.4858508061360709  5.6614428212119901  5.5628246455805659
  5.3133575630300705  7.7485640412119903 12.6162340597065654
  6.5461454059440687  9.8356852712119860 11.8048946428135650
  6.7186386490510728 11.9228065012119906  4.7514852286885656
  5.4858508061360709 14.0099277212119908  5.5628246455805659
  5.3133575630300705 11.9228065012119906 12.6162340597065654
  6.8048852706040712  3.5743216012119889  6.2247805216255658
  6.8911318921570714  5.6614428212119901  7.6980758145625661
  6.8048852706040712  9.8356852712119860  6.2247805216255658
  6.8911318921570714 14.0099277212119908  7.6980758145625661
  7.4468215477200701  1.4872003812119881  9.7558995891505660
  7.1642468447880692  3.5743216012119889  8.3073868908345663
  7.4468215477200701  7.7485640412119903  9.7558995891505660
  7.1642468447880692  9.8356852712119860  8.3073868908345663
  7.4468215477200701 11.9228065012119906  9.7558995891505660
  0.2382938356740687  5.6614428212119901 10.7149785458095650
  0.2382938356740687 14.0099277212119908 10.7149785458095650
  1.6340299757020698  1.4872003812119881 11.1945180300045664
  1.6340299757020698  7.7485640412119903 11.1945180300045664
  3.0297661236290692  3.5743216012119889 11.6740575024695659
  2.7471914206970691  5.6614428212119901 10.2255448041525678
  3.0297661236290692  9.8356852712119860 11.6740575024695659
  1.6340299757020698 11.9228065012119906 11.1945180300045664
  2.7471914206970691 14.0099277212119908 10.2255448041525678
  0.7863058669050689  1.4872003812119881  6.8489799350555645
  2.4646167177650700  1.4872003812119881  8.7770321058365646
  1.3514552727700688  3.5743216012119889  9.7460053316875666
  0.7863058669050689  7.7485640412119903  6.8489799350555645
  1.0688805698380688  5.6614428212119901  8.2974926333715651
  2.1820420148330690  3.5743216012119889  7.3285194075205649
  1.8994673119010690  5.6614428212119901  5.8800067092035659
  2.4646167177650700  7.7485640412119903  8.7770321058365646
  1.3514552727700688  9.8356852712119860  9.7460053316875666
  2.1820420148330690  9.8356852712119860  7.3285194075205649
  0.7863058669050689 11.9228065012119906  6.8489799350555645
  1.0688805698380688 14.0099277212119908  8.2974926333715651
  1.8994673119010690 14.0099277212119908  5.8800067092035659
  2.4646167177650700 11.9228065012119906  8.7770321058365646
  4.1429275607240692  1.4872003812119881 10.7050842883475674
  4.1429275607240692  7.7485640412119903 10.7050842883475674
  5.2560890057200709  5.6614428212119901  9.7361110624955671
  4.1429275607240692 11.9228065012119906 10.7050842883475674
  5.2560890057200709 14.0099277212119908  9.7361110624955671
  3.2952034519280700  1.4872003812119881  6.3595461933985664
  4.9735143027880726  1.4872003812119881  8.2875983641795656
  3.8603528577920696  3.5743216012119889  9.2565715900305658
  3.2952034519280700  7.7485640412119903  6.3595461933985664
  3.5777781548600696  5.6614428212119901  7.8080588917145661
  4.6909395998560690  3.5743216012119889  6.8390856658635650
  4.4083648969240707  5.6614428212119901  5.3905729675465661
  4.9735143027880726  7.7485640412119903  8.2875983641795656
  3.8603528577920696  9.8356852712119860  9.2565715900305658
  4.6909395998560690  9.8356852712119860  6.8390856658635650
  3.2952034519280700 11.9228065012119906  6.3595461933985664
  3.5777781548600696 14.0099277212119908  7.8080588917145661
  4.4083648969240707 14.0099277212119908  5.3905729675465661
  4.9735143027880726 11.9228065012119906  8.2875983641795656
  3.0126287489960699  3.5743216012119889  4.9110334950825658
  3.0126287489960699  9.8356852712119860  4.9110334950825658
 12.9688244569800677  1.4872003812119881  2.1680834688635677
 13.0550710785340680  3.5743216012119889  3.6413787618005662
 12.9688244569800677  7.7485640412119903  2.1680834688635677
 13.0550710785340680  9.8356852712119860  3.6413787618005662
 12.9688244569800677 11.9228065012119906  2.1680834688635677
 10.3307555374440678  5.6614428212119901  0.8441717062065655
 10.3307555374440678 14.0099277212119908  0.8441717062065655
 11.8222832450180686  1.4872003812119881  4.4527181681265651
 10.4170021589970698  1.4872003812119881  2.3174669991445676
 11.6497900019110698  3.5743216012119889  1.5061275822515663
 11.8222832450180686  7.7485640412119903  4.4527181681265651
 11.7360366234640683  5.6614428212119901  2.9794228751885674
 10.5032487805500683  3.5743216012119889  3.7907622920815660
 10.4170021589970698  7.7485640412119903  2.3174669991445676
 11.6497900019110698  9.8356852712119860  1.5061275822515663
 10.5032487805500683  9.8356852712119860  3.7907622920815660
 11.8222832450180686 11.9228065012119906  4.4527181681265651
 11.7360366234640683 14.0099277212119908  2.9794228751885674
 10.4170021589970698 11.9228065012119906  2.3174669991445676
  9.0979677039280684  3.5743216012119889  1.6555111125325661
  9.1842143254810722  5.6614428212119901  3.1288064054695668
  9.0979677039280684  9.8356852712119860  1.6555111125325661
  9.1842143254810722 14.0099277212119908  3.1288064054695668
 10.2382938356740727  5.6614428212119901  0.7149785458095659
 10.2382938356740727 14.0099277212119908  0.7149785458095659
  8.8425576877470728  3.5743216012119889  0.2354390733455656
  8.8425576877470728  9.8356852712119860  0.2354390733455656
 11.6340299757020738  1.4872003812119881  1.1945180300045655
 11.6340299757020738  7.7485640412119903  1.1945180300045655
 13.0297661236290683  3.5743216012119889  1.6740575024695659
 12.7471914206970727  5.6614428212119901  0.2255448041525678
 13.0297661236290683  9.8356852712119860  1.6740575024695659
 11.6340299757020738 11.9228065012119906  1.1945180300045655
 12.7471914206970727 14.0099277212119908  0.2255448041525678
 14.1429275607240701  1.4872003812119881  0.7050842883475674
 14.1429275607240701  7.7485640412119903  0.7050842883475674
 14.1429275607240701 11.9228065012119906  0.7050842883475674
 14.1257901939910706  1.4872003812119881  3.9420602692305651
 14.1257901939910706  7.7485640412119903  3.9420602692305651
 14.1257901939910706 11.9228065012119906  3.9420602692305651
 12.9688244569800677  1.4872003812119881 12.1680834688635677
 12.9688244569800677  7.7485640412119903 12.1680834688635677
 12.9688244569800677 11.9228065012119906 12.1680834688635677
 10.3307555374440678  5.6614428212119901 10.8441717062065663
 10.3307555374440678 14.0099277212119908 10.8441717062065663
 10.4170021589970698  1.4872003812119881 12.3174669991445676
 11.6497900019110698  3.5743216012119889 11.5061275822515654
 11.7360366234640683  5.6614428212119901 12.9794228751885683
 10.5894954021030685  5.6614428212119901  5.2640575850185662
 10.4170021589970698  7.7485640412119903 12.3174669991445676
 11.6497900019110698  9.8356852712119860 11.5061275822515654
 11.7360366234640683 14.0099277212119908 12.9794228751885683
 10.5894954021030685 14.0099277212119908  5.2640575850185662
 10.4170021589970698 11.9228065012119906 12.3174669991445676
  9.2704609470340724  1.4872003812119881  4.6021016984075658
  9.0979677039280684  3.5743216012119889 11.6555111125325652
  9.2704609470340724  7.7485640412119903  4.6021016984075658
  9.0979677039280684  9.8356852712119860 11.6555111125325652
  9.2704609470340724 11.9228065012119906  4.6021016984075658
  9.3567075685870726  3.5743216012119889  6.0753969913445660
  9.3567075685870726  9.8356852712119860  6.0753969913445660
 10.2382938356740727  5.6614428212119901 10.7149785458095650
 10.2382938356740727 14.0099277212119908 10.7149785458095650
  8.2774082818830692  1.4872003812119881  7.3384136767125661
  9.9557191327420718  1.4872003812119881  9.2664658474935671
  8.8425576877470728  3.5743216012119889 10.2354390733455656
  8.2774082818830692  7.7485640412119903  7.3384136767125661
  8.5599829848150684  5.6614428212119901  8.7869263750285658
  9.6731444298100691  3.5743216012119889  7.8179531491775647
  9.3905697268780681  5.6614428212119901  6.3694404508605658
  9.9557191327420718  7.7485640412119903  9.2664658474935671
  8.8425576877470728  9.8356852712119860 10.2354390733455656
  9.6731444298100691  9.8356852712119860  7.8179531491775647
  8.2774082818830692 11.9228065012119906  7.3384136767125661
  8.5599829848150684 14.0099277212119908  8.7869263750285658
  9.3905697268780681 14.0099277212119908  6.3694404508605658
  9.9557191327420718 11.9228065012119906  9.2664658474935671
 11.6340299757020738  1.4872003812119881 11.1945180300045664
 11.6340299757020738  7.7485640412119903 11.1945180300045664
 13.0297661236290683  3.5743216012119889 11.6740575024695659
 12.7471914206970727  5.6614428212119901 10.2255448041525678
 13.0297661236290683  9.8356852712119860 11.6740575024695659
 11.6340299757020738 11.9228065012119906 11.1945180300045664
 12.7471914206970727 14.0099277212119908 10.2255448041525678
 10.7863058669050726  1.4872003812119881  6.8489799350555645
 12.4646167177650700  1.4872003812119881  8.7770321058365646
 11.3514552727700693  3.5743216012119889  9.7460053316875666
 10.7863058669050726  7.7485640412119903  6.8489799350555645
 11.0688805698380683  5.6614428212119901  8.2974926333715651
 12.1820420148330690  3.5743216012119889  7.3285194075205649
 11.8994673119010717  5.6614428212119901  5.8800067092035659
 12.4646167177650700  7.7485640412119903  8.7770321058365646
 11.3514552727700693  9.8356852712119860  9.7460053316875666
 12.1820420148330690  9.8356852712119860  7.3285194075205649
 10.7863058669050726 11.9228065012119906  6.8489799350555645
 11.0688805698380683 14.0099277212119908  8.2974926333715651
 11.8994673119010717 14.0099277212119908  5.8800067092035659
 12.4646167177650700 11.9228065012119906  8.7770321058365646
 14.1429275607240701  1.4872003812119881 10.7050842883475674
 14.1429275607240701  7.7485640412119903 10.7050842883475674
 14.1429275607240701 11.9228065012119906 10.7050842883475674
 13.2952034519280708  1.4872003812119881  6.3595461933985664
 14.9735143027880699  1.4872003812119881  8.2875983641795656
 13.8603528577920692  3.5743216012119889  9.2565715900305658
 13.2952034519280708  7.7485640412119903  6.3595461933985664
 13.5777781548600718  5.6614428212119901  7.8080588917145661
 14.6909395998560708  3.5743216012119889  6.8390856658635650
 14.4083648969240716  5.6614428212119901  5.3905729675465661
 14.9735143027880699  7.7485640412119903  8.2875983641795656
 13.8603528577920692  9.8356852712119860  9.2565715900305658
 14.6909395998560708  9.8356852712119860  6.8390856658635650
 13.2952034519280708 11.9228065012119906  6.3595461933985664
 13.5777781548600718 14.0099277212119908  7.8080588917145661
 14.4083648969240716 14.0099277212119908  5.3905729675465661
 14.9735143027880699 11.9228065012119906  8.2875983641795656
 13.0126287489960699  3.5743216012119889  4.9110334950825658
 13.0126287489960699  9.8356852712119860  4.9110334950825658
