Cu
 1.0000000000000000
     7.6685730419681093    0.0000000000000000    0.0000000000000000
     3.8342865209840546    6.6411790651208911    0.0000000000000000
     0.0000000000000000    0.0000000000000000   25.0454546774459672
 Cu 
 108
Direct
  0.1111111111111111  0.1111111111111111  0.0000000000000000
  0.2380952380952382  0.7142857142857142  0.6666666666666667
  0.9047619047619048  0.3809523809523809  0.6666666666666667
  0.5714285714285715  0.3809523809523809  0.6666666666666667
  0.2380952380952381  0.3809523809523809  0.6666666666666667
  0.9047619047619048  0.0476190476190476  0.6666666666666667
  0.5714285714285715  0.0476190476190476  0.6666666666666667
  0.2380952380952380  0.0476190476190476  0.6666666666666667
  0.7936507936507936  0.9365079365079364  0.5833333333333334
  0.4603174603174603  0.9365079365079364  0.5833333333333334
  0.1269841269841271  0.9365079365079364  0.5833333333333334
  0.7936507936507936  0.6031746031746030  0.5833333333333334
  0.4603174603174603  0.6031746031746030  0.5833333333333334
  0.1269841269841270  0.6031746031746030  0.5833333333333334
  0.7936507936507936  0.2698412698412698  0.5833333333333334
  0.4603174603174603  0.2698412698412698  0.5833333333333334
  0.1269841269841270  0.2698412698412698  0.5833333333333334
  1.0158730158730158  0.8253968253968255  0.5000000000000000
  0.6825396825396824  0.8253968253968255  0.5000000000000000
  0.3492063492063492  0.8253968253968255  0.5000000000000000
  1.0158730158730158  0.4920634920634920  0.5000000000000000
  0.6825396825396826  0.4920634920634920  0.5000000000000000
  0.3492063492063492  0.4920634920634920  0.5000000000000000
  1.0158730158730158  0.1587301587301587  0.5000000000000000
  0.5714285714285715  0.7142857142857142  0.6666666666666667
  0.6825396825396824  0.1587301587301587  0.5000000000000000
  0.9047619047619048  0.7142857142857142  0.6666666666666667
  0.6825396825396824  0.1587301587301587  0.7500000000000001
  0.2380952380952382  0.7142857142857142  0.9166666666666669
  0.9047619047619048  0.3809523809523809  0.9166666666666669
  0.5714285714285715  0.3809523809523809  0.9166666666666669
  0.2380952380952381  0.3809523809523809  0.9166666666666669
  0.9047619047619048  0.0476190476190476  0.9166666666666669
  0.5714285714285715  0.0476190476190476  0.9166666666666669
  0.2380952380952380  0.0476190476190476  0.9166666666666669
  0.7936507936507936  0.9365079365079364  0.8333333333333335
  0.4603174603174603  0.9365079365079364  0.8333333333333335
  0.1269841269841271  0.9365079365079364  0.8333333333333335
  0.7936507936507936  0.6031746031746030  0.8333333333333335
  0.4603174603174603  0.6031746031746030  0.8333333333333335
  0.1269841269841270  0.6031746031746030  0.8333333333333335
  0.7936507936507936  0.2698412698412698  0.8333333333333335
  0.4603174603174603  0.2698412698412698  0.8333333333333335
  0.1269841269841270  0.2698412698412698  0.8333333333333335
  1.0158730158730158  0.8253968253968255  0.7500000000000001
  0.6825396825396824  0.8253968253968255  0.7500000000000001
  0.3492063492063492  0.8253968253968255  0.7500000000000001
  1.0158730158730158  0.4920634920634920  0.7500000000000001
  0.6825396825396826  0.4920634920634920  0.7500000000000001
  0.3492063492063492  0.4920634920634920  0.7500000000000001
  1.0158730158730158  0.1587301587301587  0.7500000000000001
  0.3492063492063492  0.1587301587301587  0.7500000000000001
  0.3492063492063492  0.1587301587301587  0.5000000000000000
  0.6666666666666666  0.6666666666666666  0.4166666666666667
  0.3333333333333333  0.6666666666666666  0.4166666666666667
  0.6666666666666666  0.3333333333333333  0.1666666666666667
  0.3333333333333333  0.3333333333333333  0.1666666666666667
  0.0000000000000000  0.3333333333333333  0.1666666666666667
  0.6666666666666666  0.0000000000000000  0.1666666666666667
  0.3333333333333333  0.0000000000000000  0.1666666666666667
  0.0000000000000000  0.0000000000000000  0.1666666666666667
  0.5555555555555556  0.8888888888888887  0.0833333333333333
  0.2222222222222223  0.8888888888888887  0.0833333333333333
 -0.1111111111111110  0.8888888888888887  0.0833333333333333
  0.5555555555555556  0.5555555555555555  0.0833333333333333
  0.2222222222222222  0.5555555555555555  0.0833333333333333
 -0.1111111111111111  0.5555555555555555  0.0833333333333333
  0.5555555555555556  0.2222222222222222  0.0833333333333333
  0.2222222222222222  0.2222222222222222  0.0833333333333333
 -0.1111111111111111  0.2222222222222222  0.0833333333333333
  0.7777777777777776  0.7777777777777778  0.0000000000000000
  0.4444444444444444  0.7777777777777778  0.0000000000000000
  0.1111111111111111  0.7777777777777778  0.0000000000000000
  0.7777777777777778  0.4444444444444444  0.0000000000000000
  0.4444444444444444  0.4444444444444444  0.0000000000000000
  0.1111111111111111  0.4444444444444444  0.0000000000000000
  0.7777777777777778  0.1111111111111111  0.0000000000000000
  0.4444444444444444  0.1111111111111111  0.0000000000000000
  0.0000000000000000  0.6666666666666666  0.1666666666666667
  0.3333333333333333  0.6666666666666666  0.1666666666666667
  0.6666666666666666  0.6666666666666666  0.1666666666666667
  0.1111111111111111  0.1111111111111111  0.2500000000000000
  0.0000000000000000  0.6666666666666666  0.4166666666666667
  0.6666666666666666  0.3333333333333333  0.4166666666666667
  0.3333333333333333  0.3333333333333333  0.4166666666666667
  0.0000000000000000  0.3333333333333333  0.4166666666666667
  0.6666666666666666  0.0000000000000000  0.4166666666666667
  0.3333333333333333  0.0000000000000000  0.4166666666666667
  0.0000000000000000  0.0000000000000000  0.4166666666666667
  0.5555555555555556  0.8888888888888887  0.3333333333333334
  0.2222222222222223  0.8888888888888887  0.3333333333333334
 -0.1111111111111110  0.8888888888888887  0.3333333333333334
  0.5555555555555556  0.5555555555555555  0.3333333333333334
  0.5714285714285715  0.7142857142857142  0.9166666666666669
  0.2222222222222222  0.5555555555555555  0.3333333333333334
  0.5555555555555556  0.2222222222222222  0.3333333333333334
  0.2222222222222222  0.2222222222222222  0.3333333333333334
 -0.1111111111111111  0.2222222222222222  0.3333333333333334
  0.7777777777777776  0.7777777777777778  0.2500000000000000
  0.4444444444444444  0.7777777777777778  0.2500000000000000
  0.1111111111111111  0.7777777777777778  0.2500000000000000
  0.7777777777777778  0.4444444444444444  0.2500000000000000
  0.4444444444444444  0.4444444444444444  0.2500000000000000
  0.1111111111111111  0.4444444444444444  0.2500000000000000
  0.7777777777777778  0.1111111111111111  0.2500000000000000
  0.4444444444444444  0.1111111111111111  0.2500000000000000
 -0.1111111111111111  0.5555555555555555  0.3333333333333334
  0.9047619047619048  0.7142857142857142  0.9166666666666669
