Cu
 1.0000000000000000
     7.6685730419681093    0.0000000000000000    0.0000000000000000
     3.8342865209840546    6.6411790651208911    0.0000000000000000
     0.0000000000000000    0.0000000000000000   25.0454546774459672
 Cu 
 108
Direct
  0.1111111111111111  0.1111111111111111  0.0000000000000000
  0.2857142857142858  0.9523809523809523  0.6666666666666667
  0.9523809523809523  0.6190476190476190  0.6666666666666667
  0.6190476190476191  0.6190476190476190  0.6666666666666667
  0.2857142857142858  0.6190476190476190  0.6666666666666667
  0.9523809523809523  0.2857142857142856  0.6666666666666667
  0.6190476190476191  0.2857142857142856  0.6666666666666667
  0.2857142857142856  0.2857142857142856  0.6666666666666667
  0.8412698412698414  1.1746031746031744  0.5833333333333334
  0.5079365079365080  1.1746031746031744  0.5833333333333334
  0.1746031746031748  1.1746031746031744  0.5833333333333334
  0.8412698412698413  0.8412698412698412  0.5833333333333334
  0.5079365079365079  0.8412698412698412  0.5833333333333334
  0.1746031746031746  0.8412698412698412  0.5833333333333334
  0.8412698412698413  0.5079365079365078  0.5833333333333334
  0.5079365079365079  0.5079365079365078  0.5833333333333334
  0.1746031746031746  0.5079365079365078  0.5833333333333334
  1.0634920634920635  1.0634920634920635  0.5000000000000000
  0.7301587301587301  1.0634920634920635  0.5000000000000000
  0.3968253968253968  1.0634920634920635  0.5000000000000000
  1.0634920634920635  0.7301587301587300  0.5000000000000000
  0.7301587301587301  0.7301587301587300  0.5000000000000000
  0.3968253968253969  0.7301587301587300  0.5000000000000000
  1.0634920634920635  0.3968253968253967  0.5000000000000000
  0.6190476190476191  0.9523809523809523  0.6666666666666667
  0.7301587301587301  0.3968253968253967  0.5000000000000000
  0.9523809523809523  0.9523809523809523  0.6666666666666667
  0.7301587301587301  0.3968253968253967  0.7500000000000001
  0.2857142857142858  0.9523809523809523  0.9166666666666669
  0.9523809523809523  0.6190476190476190  0.9166666666666669
  0.6190476190476191  0.6190476190476190  0.9166666666666669
  0.2857142857142858  0.6190476190476190  0.9166666666666669
  0.9523809523809523  0.2857142857142856  0.9166666666666669
  0.6190476190476191  0.2857142857142856  0.9166666666666669
  0.2857142857142856  0.2857142857142856  0.9166666666666669
  0.8412698412698414  1.1746031746031744  0.8333333333333335
  0.5079365079365080  1.1746031746031744  0.8333333333333335
  0.1746031746031748  1.1746031746031744  0.8333333333333335
  0.8412698412698413  0.8412698412698412  0.8333333333333335
  0.5079365079365079  0.8412698412698412  0.8333333333333335
  0.1746031746031746  0.8412698412698412  0.8333333333333335
  0.8412698412698413  0.5079365079365078  0.8333333333333335
  0.5079365079365079  0.5079365079365078  0.8333333333333335
  0.1746031746031746  0.5079365079365078  0.8333333333333335
  1.0634920634920635  1.0634920634920635  0.7500000000000001
  0.7301587301587301  1.0634920634920635  0.7500000000000001
  0.3968253968253968  1.0634920634920635  0.7500000000000001
  1.0634920634920635  0.7301587301587300  0.7500000000000001
  0.7301587301587301  0.7301587301587300  0.7500000000000001
  0.3968253968253969  0.7301587301587300  0.7500000000000001
  1.0634920634920635  0.3968253968253967  0.7500000000000001
  0.3968253968253969  0.3968253968253967  0.7500000000000001
  0.3968253968253969  0.3968253968253967  0.5000000000000000
  0.6666666666666666  0.6666666666666666  0.4166666666666667
  0.3333333333333333  0.6666666666666666  0.4166666666666667
  0.6666666666666666  0.3333333333333333  0.1666666666666667
  0.3333333333333333  0.3333333333333333  0.1666666666666667
  0.0000000000000000  0.3333333333333333  0.1666666666666667
  0.6666666666666666  0.0000000000000000  0.1666666666666667
  0.3333333333333333  0.0000000000000000  0.1666666666666667
  0.0000000000000000  0.0000000000000000  0.1666666666666667
  0.5555555555555556  0.8888888888888887  0.0833333333333333
  0.2222222222222223  0.8888888888888887  0.0833333333333333
 -0.1111111111111110  0.8888888888888887  0.0833333333333333
  0.5555555555555556  0.5555555555555555  0.0833333333333333
  0.2222222222222222  0.5555555555555555  0.0833333333333333
 -0.1111111111111111  0.5555555555555555  0.0833333333333333
  0.5555555555555556  0.2222222222222222  0.0833333333333333
  0.2222222222222222  0.2222222222222222  0.0833333333333333
 -0.1111111111111111  0.2222222222222222  0.0833333333333333
  0.7777777777777776  0.7777777777777778  0.0000000000000000
  0.4444444444444444  0.7777777777777778  0.0000000000000000
  0.1111111111111111  0.7777777777777778  0.0000000000000000
  0.7777777777777778  0.4444444444444444  0.0000000000000000
  0.4444444444444444  0.4444444444444444  0.0000000000000000
  0.1111111111111111  0.4444444444444444  0.0000000000000000
  0.7777777777777778  0.1111111111111111  0.0000000000000000
  0.4444444444444444  0.1111111111111111  0.0000000000000000
  0.0000000000000000  0.6666666666666666  0.1666666666666667
  0.3333333333333333  0.6666666666666666  0.1666666666666667
  0.6666666666666666  0.6666666666666666  0.1666666666666667
  0.1111111111111111  0.1111111111111111  0.2500000000000000
  0.0000000000000000  0.6666666666666666  0.4166666666666667
  0.6666666666666666  0.3333333333333333  0.4166666666666667
  0.3333333333333333  0.3333333333333333  0.4166666666666667
  0.0000000000000000  0.3333333333333333  0.4166666666666667
  0.6666666666666666  0.0000000000000000  0.4166666666666667
  0.3333333333333333  0.0000000000000000  0.4166666666666667
  0.0000000000000000  0.0000000000000000  0.4166666666666667
  0.5555555555555556  0.8888888888888887  0.3333333333333334
  0.2222222222222223  0.8888888888888887  0.3333333333333334
 -0.1111111111111110  0.8888888888888887  0.3333333333333334
  0.5555555555555556  0.5555555555555555  0.3333333333333334
  0.6190476190476191  0.9523809523809523  0.9166666666666669
  0.2222222222222222  0.5555555555555555  0.3333333333333334
  0.5555555555555556  0.2222222222222222  0.3333333333333334
  0.2222222222222222  0.2222222222222222  0.3333333333333334
 -0.1111111111111111  0.2222222222222222  0.3333333333333334
  0.7777777777777776  0.7777777777777778  0.2500000000000000
  0.4444444444444444  0.7777777777777778  0.2500000000000000
  0.1111111111111111  0.7777777777777778  0.2500000000000000
  0.7777777777777778  0.4444444444444444  0.2500000000000000
  0.4444444444444444  0.4444444444444444  0.2500000000000000
  0.1111111111111111  0.4444444444444444  0.2500000000000000
  0.7777777777777778  0.1111111111111111  0.2500000000000000
  0.4444444444444444  0.1111111111111111  0.2500000000000000
 -0.1111111111111111  0.5555555555555555  0.3333333333333334
  0.9523809523809523  0.9523809523809523  0.9166666666666669
