Cu
 1.0000000000000000
     7.6685730419681093    0.0000000000000000    0.0000000000000000
     3.8342865209840546    6.6411790651208911    0.0000000000000000
     0.0000000000000000    0.0000000000000000   25.0454546774459672
 Cu 
 108
Direct
  0.1125188065904341  0.1097245303008137 -0.0007331094315923
 -0.0023614602878203  0.6671410312489267  0.6661831217574553
  0.6664373807388243  0.3333783245041557  0.6671292907015512
  0.3347875864065793  0.3322372471692968  0.6670034620907975
  0.0007096460429391  0.3333126845529434  0.6661293131418269
  0.6657362988366795 -0.0025879365228226  0.6672557624512675
  0.3334696284037431  0.0025015073741530  0.6660715934356159
  0.0020317471687254 -0.0001668358162210  0.6673256635808054
  0.5579752139863228  0.8864060037915388  0.5831657847014668
  0.2208756950100431  0.8882147118060669  0.5826352354035104
  0.8866578660278622  0.8888887252050540  0.5837231804851242
  0.5556528882739700  0.5561713448627077  0.5840718674890591
  0.2200726667283843  0.5565946881085262  0.5828463905239976
  0.8911129231464412  0.5560968451515125  0.5830453475633970
  0.5574144180217213  0.2192493096565724  0.5837687803311807
  0.2235823858131585  0.2197463705355082  0.5841030421676645
  0.8902186287061389  0.2203799576236624  0.5833748933672046
  0.7759975039141074  0.7802487592838822  0.5000980629313238
  0.4446851764771273  0.7790704309922161  0.4994682515043058
  0.1137540346605915  0.7762548357989603  0.4994270362463460
  0.7788868613314538  0.4470085347846687  0.5003964767363961
  0.4454864698331774  0.4463256489417097  0.5002681355283560
  0.1142469351477284  0.4433358674714248  0.4994932611523173
  0.7797344691560930  0.1111755966817524  0.4997513253066587
  0.3349741939948163  0.6665994860424951  0.6674471601169342
  0.4441405660404011  0.1097248318842310  0.5005799378911118
  0.6636184807926230  0.6694554433919082  0.6671472601164309
  0.4440077352482965  0.1136027816934031  0.7493056950425737
 -0.0026247073359402  0.6680286146504009  0.9163154371107002
  0.6681696121603815  0.3329673075566102  0.9168078182018535
  0.3335445364935978  0.3313518866248288  0.9164936609026411
 -0.0007755867408055  0.3352200109385756  0.9174604399073180
  0.6675619295930988  0.0004157445753925  0.9171872517011465
  0.3351521665312974  0.0005018388819604  0.9159323509434879
  0.0017083091335188  0.0011085407953636  0.9171837766374183
  0.5548978681932978  0.8894086782380060  0.8327307340278975
  0.2200705886698395  0.8887453418677992  0.8332192042144536
  0.8904807281746976  0.8864426073320499  0.8331598574270754
  0.5572275560729617  0.5543143558107225  0.8337607997513810
  0.2244526719278077  0.5554118887289432  0.8339143349494466
  0.8913501629608117  0.5555777021001044  0.8337381118320240
  0.5575773538812993  0.2217651135443094  0.8340994423374422
  0.2223181817424295  0.2241562347537080  0.8341028595073673
  0.8891039227601031  0.2243415802987558  0.8327566724972179
  0.7760373620822689  0.7772173218801230  0.7492019321408560
  0.4439748358516499  0.7772805655388897  0.7500661357266835
  0.1092908090269507  0.7795644435480411  0.7495613231036742
  0.7779941166291041  0.4461860305144467  0.7504778453952136
  0.4429039334920634  0.4467183111911162  0.7493401036106450
  0.1128411923521839  0.4461380623958299  0.7499768982253959
  0.7798810242115140  0.1103992783544582  0.7497213795698325
  0.1100691520468329  0.1129995352063221  0.7501642595937119
  0.1096180766108017  0.1139808564817089  0.5004403053434683
  0.6647278513629933  0.6659485442337673  0.4165545090880148
  0.3367720887304617  0.6644189760437850  0.4172492526889189
  0.6642200819166286  0.3341109552000153  0.1673488735717824
  0.3304345479851150  0.3359961924803089  0.1664512346316050
  0.0010252506004289  0.3321208747309847  0.1669413590292873
  0.6670767320819715 -0.0018158640357953  0.1660130599190129
  0.3356901632726729 -0.0016223492145900  0.1659512015977271
  0.0001983592215498 -0.0021063761701104  0.1665873538588294
  0.5530622946769264  0.8911564635295905  0.0826283240278448
  0.2190506447134367  0.8908924135304718  0.0837918569436030
  0.8917462652786118  0.8872455517417270  0.0835300750515773
  0.5565355659264944  0.5545792905104272  0.0831602384530564
  0.2212650555143428  0.5559863816485029  0.0830488416182207
  0.8876420569379248  0.5579014512498581  0.0840265425747645
  0.5566345047376553  0.2223749319879255  0.0830302713576018
  0.2235396927605114  0.2215531929734595  0.0827505473553152
  0.8908382091707462  0.2233397465814442  0.0835736312687560
  0.7787299440065761  0.7770771645607720  0.0007940920892715
  0.4419708328733801  0.7788054532132420  0.0002350758067200
  0.1102992179207747  0.7773121208331645 -0.0007533188515508
  0.7749922487096836  0.4466318808546882  0.0000662175564917
  0.4477133121558645  0.4416352178289831  0.0003667818362855
  0.1124292926706172  0.4463468388899149 -0.0007941744420039
  0.7776428680606583  0.1124933750659519  0.0000696733072364
  0.4409791894731892  0.1129979461813807  0.0006592103558805
 -0.0016800037630205  0.6694046774279077  0.1666665002711052
  0.3325812943647107  0.6673907155190563  0.1674573834040732
  0.6691287238026157  0.6664260174668837  0.1670782844210696
  0.1110093936834448  0.1112876590397806  0.2504564272510032
  0.0014771084976977  0.6653045537094168  0.4169903215146536
  0.6645169587625191  0.3325205027144422  0.4159936983085178
  0.3352714218248924  0.3328236891162504  0.4171933953518123
 -0.0017222478201215  0.3358025271776335  0.4159369005397323
  0.6661077005035781  0.0020977673082436  0.4161004538086782
  0.3361212159716473 -0.0007865807419300  0.4167506923091617
 -0.0014123664679839  0.0019160511580943  0.4168687096545845
  0.5569889120209039  0.8892531371731958  0.3329954216630624
  0.2208587747270236  0.8894076104229309  0.3334197210677465
  0.8917388985423946  0.8872377930886118  0.3327337110880997
  0.5566063452300877  0.5541031905193798  0.3329207646030268
  0.3306265365608940  0.6688527242629112  0.9167695401372429
  0.2216200346982004  0.5551357429447602  0.3340776793023507
  0.5568626292375831  0.2222990683553378  0.3340186540453322
  0.2191019482079258  0.2235425888057890  0.3325603255733069
  0.8857934596606357  0.2236196017741456  0.3335159984091676
  0.7781532639436137  0.7774329765280952  0.2506883761090100
  0.4447436152374643  0.7803287113131062  0.2496264875511830
  0.1128529100262009  0.7776572445050203  0.2495725738122028
  0.7745223697260354  0.4472911004926461  0.2506227645866165
  0.4448921001105554  0.4473426951035391  0.2507302086314651
  0.1119314286124247  0.4472627764625172  0.2492249392933215
  0.7811910773883496  0.1087918400121495  0.2503657591687206
  0.4432931308807390  0.1125234119660615  0.2503372154839416
  0.8855976527066891  0.5576113187040298  0.3326412956014361
  0.6653847485599513  0.6690687929236928  0.9160054887095954
