Cu
 1.0000000000000000
     7.6685730419681093    0.0000000000000000    0.0000000000000000
     3.8342865209840546    6.6411790651208911    0.0000000000000000
     0.0000000000000000    0.0000000000000000   25.0454546774459672
 Cu 
 108
Direct
  0.1103463950447821  0.1094436333407103  0.0003654982511260
  0.1822062696783777  0.6681281916508779  0.6672687910351152
  0.8529113972282998  0.3324605750322541  0.6664143206225944
  0.5200013863336985  0.3310713945321758  0.6667808361356661
  0.1828662158773285  0.3340669874333546  0.6669472033924254
  0.8488433932377393  0.0009748736888973  0.6671282101758088
  0.5173209004740221  0.0026767080254591  0.6669931107425490
  0.1854163440358754  0.0006145078879408  0.6670691508216974
  0.7410865892039294  0.8861331438554086  0.5838297965458037
  0.4065299813356730  0.8868611076390245  0.5838317028440170
  0.0707726809050760  0.8898622947677114  0.5832023448136413
  0.7388959394544357  0.5538665596620194  0.5831139290510207
  0.4025975854734484  0.5583405135423755  0.5827026177248139
  0.0747139817539018  0.5555579459738400  0.5829015333158665
  0.7366720889854687  0.2217457149093164  0.5832308812539445
  0.4068840240438426  0.2235260744092027  0.5828569600391199
  0.0738938413555935  0.2239727726300003  0.5830685814744490
  0.9633739433903048  0.7754664174596650  0.5001923769937022
  0.6273453674665953  0.7794966439206314  0.4992478772109058
  0.2929471847713760  0.7771548387301839  0.5006723627304949
  0.9601672742126833  0.4473418183906351  0.5004493069345008
  0.6272035507062238  0.4418077085875274  0.4998710057122137
  0.2949201332473321  0.4436722380460760  0.5003424231788585
  0.9615117026153573  0.1119906744417759  0.5000120631089314
  0.5149841115684476  0.6661559048689409  0.6673334611659856
  0.6293375530397771  0.1127566809280161  0.5005181691399375
  0.8519118948820334  0.6679740513090253  0.6664801541569599
  0.6251823687827848  0.1123523274918975  0.7497091553385893
  0.1807880935988617  0.6685459965979478  0.9166471049860819
  0.8488732015279562  0.3328338886037497  0.9165585549151117
  0.5187891918908486  0.3323901838452056  0.9158761368643710
  0.1869392213385934  0.3307084324055271  0.9168439365942204
  0.8483985423858958  0.0027277721204360  0.9165532921905033
  0.5169724936767062 -0.0015719383427838  0.9164409519187866
  0.1828488564097662 -0.0009368307902072  0.9173840363123685
  0.7410539031772591  0.8871154727973424  0.8325896678742630
  0.4068775584248615  0.8871781423595413  0.8334134052442429
  0.0700965301982208  0.8879952115000912  0.8335776992977471
  0.7386609080954092  0.5554471072691306  0.8327707741995832
  0.4054451438936245  0.5554042997163188  0.8338795989036631
  0.0688206495198462  0.5578373369712799  0.8332596765716900
  0.7388452239727514  0.2215063632834041  0.8329779557464335
  0.4081018183883073  0.2198186906248070  0.8329403754795297
  0.0732181352779087  0.2192563787845390  0.8331111470811020
  0.9615335897245443  0.7804922142268891  0.7501900893914801
  0.6281244164410146  0.7757993240600510  0.7494386253902134
  0.2945262281342620  0.7749677262372742  0.7492733377237039
  0.9626788249330727  0.4415076344743629  0.7495719904247675
  0.6261216261506470  0.4451664093396043  0.7503568984254860
  0.2963724395370574  0.4437938306505281  0.7499094590587689
  0.9614874354632981  0.1137449748338306  0.7504233825945203
  0.2965486429007597  0.1108269381083231  0.7495339946426048
  0.2934503431295660  0.1129620905855250  0.4999051908755350
  0.6667798676243967  0.6652341909756145  0.4173662328634600
  0.3325998829827058  0.6647649263054495  0.4171491681821985
  0.6665417014088011  0.3305135451511151  0.1660213807981717
  0.3348806117733401  0.3328697878507739  0.1661460560801304
  0.0034909748311924  0.3308402039661331  0.1663434378093212
  0.6689040750905980 -0.0022537166662593  0.1663136484863247
  0.3318323879623883  0.0009790649439284  0.1662646319570333
  0.0032597028650248 -0.0023316770393695  0.1671760950518774
  0.5574595315727574  0.8860670174309562  0.0829953075008227
  0.2240460184615473  0.8864677017195512  0.0825546472002120
  0.8916834168897851  0.8879240243197305  0.0838127835215138
  0.5537475320558107  0.5558109961772577  0.0828318610462100
  0.2225208193088006  0.5567329587621083  0.0825839734096067
  0.8886047184951772  0.5529871676461475  0.0830440555423118
  0.5560609493122364  0.2199858073898330  0.0828741111164833
  0.2208766500073986  0.2203257624584007  0.0840716964712126
  0.8887901299712802  0.2202102793020396  0.0838935768675516
  0.7771176013568428  0.7799492343547054 -0.0001581047311236
  0.4468943394726415  0.7771925968680867 -0.0007115166599163
  0.1131438629830707  0.7750537290368621 -0.0001124893863074
  0.7756060649711239  0.4441408819175034 -0.0003920474075651
  0.4481240682920700  0.4414833573947216 -0.0003300104633449
  0.1119145417062895  0.4444349390310619  0.0003138059188091
  0.7774118400154354  0.1096989253162981 -0.0005815707631161
  0.4427326564918574  0.1093730844757906  0.0000842558757580
 -0.0001537432775400  0.6648696548547235  0.1664828906737864
  0.3361444404791303  0.6647749487856415  0.1663442931305990
  0.6661411966393918  0.6648684790320383  0.1672049705574134
  0.1091136602638692  0.1104480966613013  0.2494699664977085
  0.0005321479306209  0.6647484368363539  0.4159281708396975
  0.6684418965273564  0.3309221386497856  0.4171957765853828
  0.3317924360926549  0.3363125977434533  0.4162515353162377
  0.0008042345621263  0.3343897811253183  0.4168721389290574
  0.6646482716770540  0.0001362353360221  0.4166418474333757
  0.3326132155529939  0.0026357096246795  0.4162610410897267
  0.0014631696104294  0.0012778084875380  0.4164405532255147
  0.5557279068865670  0.8868952999352543  0.3327866143194008
  0.2235841994010626  0.8898655922322041  0.3334964049039225
  0.8905317695547075  0.8890584959609497  0.3336937520936121
  0.5525950487206134  0.5564153145077475  0.3338953456615560
  0.5156278503276113  0.6686896560446458  0.9171003276471565
  0.2248954278031727  0.5550360383541411  0.3336287043058432
  0.5532032435385811  0.2249517474837942  0.3339881368698900
  0.2196710444354213  0.2234120929250341  0.3339248723137593
  0.8912442904345776  0.2201142817898357  0.3340817362697180
  0.7746803335343141  0.7793473567950949  0.2501253524868733
  0.4446045091053866  0.7773386645168001  0.2505890137813287
  0.1109795756457262  0.7750026753214259  0.2500212364189044
  0.7791236776991846  0.4469182341994859  0.2494051406800881
  0.4445115884257906  0.4456940116188975  0.2494407743206803
  0.1085345973761067  0.4457948376673947  0.2492803253231287
  0.7760460077857099  0.1099637711132451  0.2500439947865353
  0.4439071960878818  0.1090877589660837  0.2494037652580684
  0.8895963040635390  0.5534508299212367  0.3341190404473656
  0.8488893363018929  0.6688028843830881  0.9159976707805096
