Cu
 1.0000000000000000
     7.6685730419681093    0.0000000000000000    0.0000000000000000
     3.8342865209840546    6.6411790651208911    0.0000000000000000
     0.0000000000000000    0.0000000000000000   25.0454546774459672
 Cu 
 108
Direct
  0.1145173414515789  0.1086640495806395  0.0006538902466346
  0.2190270857343228  0.6643170210152740  0.6666486223197893
  0.8832647485893108  0.3316581769369777  0.6666892937179413
  0.5534126262433697  0.3312929173000962  0.6662955565863535
  0.2178352127570274  0.3305772615799923  0.6668998403501128
  0.8847832244820215  0.0009039853866379  0.6662607049497170
  0.5499593885446710 -0.0003289105727539  0.6670042297272449
  0.2197260662329359 -0.0023295925992626  0.6659293209376276
  0.7697610792321835  0.8909350729577581  0.5831507959596192
  0.4399530314719111  0.8905533242732222  0.5826137961345662
  0.1053065818128976  0.8911706604353469  0.5834074653317700
  0.7744524944319905  0.5532939933369665  0.5838816799291846
  0.4401082160188732  0.5575604835304453  0.5834813570375994
  0.1078132220095387  0.5527378659431493  0.5836024432082185
  0.7736557262618678  0.2245114114639498  0.5839070760150044
  0.4410764901250737  0.2229613072425821  0.5826359486330001
  0.1076336391269212  0.2229975869896380  0.5839881328597467
  0.9979735126404277  0.7751617634706935  0.4993753520553219
  0.6636597850383559  0.7747851534137119  0.4992060279443093
  0.3281603009843921  0.7760156119481637  0.4996572097986755
  0.9925884897788164  0.4441823870664409  0.5000417627106013
  0.6634424617560316  0.4429559295923919  0.5006665766724094
  0.3286349434740878  0.4436081606184487  0.5005106711286859
  0.9948280067072882  0.1084796704486653  0.4999796611616577
  0.5491389259833497  0.6669544199529391  0.6668752464736336
  0.6610339841825476  0.1122038704762094  0.5001780523302534
  0.8796319821301699  0.6691712037784284  0.6666078710577975
  0.6629331411840702  0.1081568690985774  0.7503514719714705
  0.2175766786507775  0.6652225484516647  0.9160723441252698
  0.8817601758458762  0.3323074169991270  0.9171958916499848
  0.5527616099417691  0.3305879283592348  0.9166623065423403
  0.2167550353847751  0.3347999432977151  0.9164104098859769
  0.8796799421203091  0.0029134180752038  0.9173323190112730
  0.5476309822325428  0.0010606024498176  0.9163229874442225
  0.2206943753527147 -0.0029077081099641  0.9167971973353545
  0.7714439602108888  0.8892286909981963  0.8331272562602592
  0.4366637624653278  0.8894035346053817  0.8330819500665163
  0.1040847144903816  0.8897944874675120  0.8337626036624584
  0.7743929996596136  0.5557171637444147  0.8330431728923882
  0.4388467099367671  0.5571718117389133  0.8339802505356410
  0.1026121477172535  0.5563423524054358  0.8325489825029697
  0.7726464684341925  0.2220955152095549  0.8331470467902600
  0.4389493609498821  0.2198848757662080  0.8337543170610432
  0.1081859265260681  0.2205345945524649  0.8329895956029293
  0.9937304935979305  0.7751824129562638  0.7494468519325377
  0.6589095756340030  0.7796765163906072  0.7507807187811416
  0.3259188974327898  0.7770220075576069  0.7496578084555038
  0.9928786407399434  0.4450531342801168  0.7497203112439874
  0.6577623048150388  0.4464722262811266  0.7501032133801709
  0.3267547798525030  0.4428828304135609  0.7494622876377857
  0.9968239632196768  0.1112527399161664  0.7504897975952651
  0.3287003412004869  0.1137339737642624  0.7495308401608539
  0.3252220373825860  0.1120842818579005  0.5002774657798768
  0.6676477223721298  0.6642643885717715  0.4171778726190803
  0.3319291449333054  0.6693355507828410  0.4162853184881677
  0.6692927267000686  0.3319768588566342  0.1672183239638168
  0.3340224821209348  0.3314678545255068  0.1672154026350758
  0.0017645217224342  0.3310437275592106  0.1673720454646485
  0.6664005026405131  0.0000561390103806  0.1665160885310400
  0.3312390942625814  0.0012073454041062  0.1658800484264847
 -0.0001159417308052  0.0004138673272726  0.1663013821753123
  0.5557383066309808  0.8899269393561444  0.0836420631238775
  0.2230707632244691  0.8880195559065545  0.0833193088775254
  0.8888001613417975  0.8866393856261040  0.0841284533556890
  0.5565481874150496  0.5540601424056880  0.0836217809829123
  0.2196282804252787  0.5576087960146282  0.0832864126200016
  0.8918535478113211  0.5526873865521736  0.0829022517077043
  0.5574719205605027  0.2199872811932689  0.0831458959851721
  0.2197720827128754  0.2228061790736781  0.0835969583097107
  0.8900649009022300  0.2243938574450459  0.0826518693403573
  0.7782041021973184  0.7801902041316366 -0.0007235428796739
  0.4446817158137249  0.7799487546846915  0.0000215455679943
  0.1106653784322018  0.7783286066890275 -0.0003239010319467
  0.7747079467413516  0.4468577020711608 -0.0007472462400709
  0.4439935271086203  0.4446440301915854 -0.0004715337014167
  0.1130614008256203  0.4416607215158794 -0.0000067545343676
  0.7811608280439222  0.1094766410818684  0.0000301492318481
  0.4417726446826612  0.1119415684096454 -0.0000104504414304
 -0.0004675688521336  0.6692033764553201  0.1673776517873188
  0.3307553079028845  0.6683088397512891  0.1664034807297430
  0.6666338976407589  0.6692390282665110  0.1671979941871398
  0.1101679300359607  0.1104376893023180  0.2506296261887417
  0.0019042746683480  0.6678440472643357  0.4159320336368673
  0.6662762143051945  0.3334070695513702  0.4166932512711338
  0.3321993300078666  0.3312524492933071  0.4170152328061545
 -0.0010383707027189  0.3324237994477498  0.4168375833153195
  0.6673226395009620  0.0000412516797611  0.4169395366948746
  0.3323261366907101 -0.0024244795107580  0.4162439344081070
  0.0021591005936751 -0.0030103822189398  0.4170937361553644
  0.5524828118555057  0.8904739627262700  0.3329116317783817
  0.2236608733166178  0.8886577167127193  0.3325510445495898
  0.8902531645112653  0.8877383240350608  0.3335324757744615
  0.5532070636059401  0.5562060145238585  0.3341250851604073
  0.5473716597240259  0.6680129384927734  0.9168632080484116
  0.2213449399818886  0.5532167795518933  0.3335054755023287
  0.5554972505712811  0.2226993594006140  0.3326894389460570
  0.2247221438001729  0.2219362164372434  0.3340421153629031
  0.8896839363587933  0.2246698665021894  0.3337056165153161
  0.7783636118923982  0.7776864531323902  0.2492441604567920
  0.4459877086725691  0.7786172099827610  0.2497736042638615
  0.1117383499364928  0.7763905561526047  0.2493612065810893
  0.7765021990844345  0.4450333615798489  0.2494292879463672
  0.4464680352684502  0.4454288602570145  0.2492961984102969
  0.1104508318218598  0.4438408175507371  0.2493506871548408
  0.7749782039498940  0.1139921481511206  0.2507446411057707
  0.4435153783904796  0.1109262638267252  0.2493788668227727
  0.8871683278771226  0.5570249423394015  0.3327982637137370
  0.8822434821222828  0.6654769448669452  0.9159385895790007
