Cu
 1.0000000000000000
     7.6685730419681093    0.0000000000000000    0.0000000000000000
     3.8342865209840546    6.6411790651208911    0.0000000000000000
     0.0000000000000000    0.0000000000000000   25.0454546774459672
 Cu 
 108
Direct
  0.1093190217405505  0.1100686190437842 -0.0007189305105044
 -0.0005952648644274  0.8143303196113245  0.6673724303578805
  0.6683109895998360  0.4825946410218582  0.6668790121243078
  0.3345777161758133  0.4829604496318688  0.6673139751643474
 -0.0009193938127744  0.4814022332873413  0.6669821291383758
  0.6645909619356223  0.1526946367754157  0.6660353218304806
  0.3303344645012578  0.1509816260585541  0.6673560936223820
 -0.0014697685275815  0.1518605889798105  0.6660674030672091
  0.5578085565130664  0.0362194215331658  0.5841027907698556
  0.2200224621471704  0.0380936137516109  0.5830117232158651
  0.8873429908794350  0.0401875400206112  0.5826246904302396
  0.5537269226990101  0.7079968736951789  0.5836220257417312
  0.2232661987963516  0.7053625870983347  0.5840403062776394
  0.8851969632703863  0.7082597173553155  0.5833407489688209
  0.5548161203675200  0.3698351341868127  0.5826600436191327
  0.2211443498679587  0.3751896872175657  0.5838289500018962
  0.8888032167391495  0.3692755795076168  0.5832410589360573
  0.7766408269622624  0.9297616355890225  0.4998047403752289
  0.4445547598056432  0.9276193190675889  0.5000137424750083
  0.1106912620167879  0.9262172896205321  0.4998244497393494
  0.7806515419225917  0.5935832155999369  0.4997234157226598
  0.4449796237824810  0.5957446357762600  0.5005139156603960
  0.1093959283263434  0.5968643216097469  0.4992497370722742
  0.7794740508694420  0.2614440591363281  0.4993304862511370
  0.3326001491434324  0.8140662493397909  0.6665666919750851
  0.4458095093428613  0.2623418801419795  0.5005488762711993
  0.6663718257876193  0.8152917675841832  0.6666353649276875
  0.4459471653576766  0.2583457156583943  0.7502404701858195
 -0.0003309605296148  0.8192415282760307  0.9164068948360100
  0.6666915143055693  0.4846951321535612  0.9161457851441257
  0.3333789981194357  0.4830899082885402  0.9164314190310938
 -0.0008462991363279  0.4807967034689692  0.9159402241750301
  0.6661954985315550  0.1479300798952152  0.9173922530891924
  0.3333760988789986  0.1515155881704112  0.9167550317145768
 -0.0010422688045581  0.1475169665123717  0.9158906884515096
  0.5583097308483835  0.0379388405081595  0.8332883377909639
  0.2246307993937606  0.0384703210064785  0.8331283243179891
  0.8909609982458987  0.0358828359223188  0.8338894175021219
  0.5556271616114709  0.7066492337673531  0.8335584870074501
  0.2218676120706125  0.7072351743731653  0.8327748697507993
  0.8902695260364155  0.7032734948835652  0.8332562629734450
  0.5546339637038180  0.3741967063690239  0.8338898917972699
  0.2223516777152913  0.3735061763741774  0.8327062415754960
  0.8859696738855842  0.3728558030321729  0.8326784960113847
  0.7764558480613107  0.9263080255359534  0.7505001503424316
  0.4457993561556356  0.9251340176899644  0.7507102275351903
  0.1117166032088845  0.9279069826403751  0.7498136660487615
  0.7737736429305504  0.5973264265065682  0.7493261124629099
  0.4469963089174092  0.5937204439857284  0.7499134575676593
  0.1140708109929555  0.5927548466775632  0.7495060582065346
  0.7788968236458715  0.2640653376347910  0.7499444931804570
  0.1075874229927657  0.2639099803051394  0.7500764165376581
  0.1126482609617380  0.2626745393476180  0.5004726229861618
  0.6683921999360182  0.6662589494241532  0.4171711986672697
  0.3331532106262541  0.6638424884629524  0.4165832270402231
  0.6685458478009593  0.3310085997890048  0.1672693695381574
  0.3322114771285862  0.3334785875674113  0.1660447725663583
  0.0026499712457510  0.3310442525509313  0.1662544001284712
  0.6666753373223590 -0.0007820624268916  0.1665777716980615
  0.3310141629981433  0.0019839947185589  0.1663070971205441
  0.0001168686575900  0.0000234331011531  0.1659687369351300
  0.5538820988802474  0.8911080007043539  0.0830368815460862
  0.2247814600305282  0.8863121606088716  0.0835074043958532
  0.8873886685204367  0.8914835227155703  0.0829328916297581
  0.5564397486894627  0.5576598737753851  0.0835491131773552
  0.2239864451889904  0.5569311304669530  0.0835185937157137
  0.8893997804373908  0.5582525776805579  0.0834071119977229
  0.5534927395243494  0.2243425268761846  0.0835458456961968
  0.2242771598784299  0.2205037801088349  0.0825702660488695
  0.8893474542149942  0.2223480111226583  0.0826537110479903
  0.7760966555989147  0.7804132050923173 -0.0003213976054503
  0.4431995050704354  0.7792022610321688  0.0007780702557136
  0.1104055545363625  0.7767090237563555 -0.0007802888061608
  0.7776753326765679  0.4460209471693491 -0.0000184783734102
  0.4464667589216915  0.4430703047907196 -0.0003540967257677
  0.1079964177046549  0.4470461629733305 -0.0007073777781840
  0.7781089893135940  0.1110988615810132 -0.0007535759213228
  0.4423225332020971  0.1130736895585964  0.0001740475218879
  0.0008837269403526  0.6662044761490916  0.1671952618048439
  0.3312007796348737  0.6657875010980122  0.1660196521585700
  0.6690919594847197  0.6639294775595829  0.1674432267721772
  0.1095058382239079  0.1114273616429851  0.2501573967624272
 -0.0001897737494586  0.6657169224180584  0.4170216811199670
  0.6675926413895624  0.3308763083495631  0.4167241988205751
  0.3365464638315748  0.3319409627890177  0.4164698554145401
 -0.0022718624986678  0.3335201188365021  0.4168847309032510
  0.6679318262237027  0.0001148639820905  0.4173100352596871
  0.3320823183672192  0.0016286763311504  0.4171418130617903
 -0.0029996279234950  0.0011301606879616  0.4174436274550201
  0.5555293113697860  0.8907223750464675  0.3326166741498836
  0.2210547207024944  0.8880479443006435  0.3329552812443659
  0.8892510653449747  0.8894354340467906  0.3331209080318399
  0.5553553547415913  0.5564357416988406  0.3334360294630353
  0.3343629671895957  0.8146489140282736  0.9174364147938517
  0.2228833302961904  0.5582241838147035  0.3326985469409681
  0.5555048376901968  0.2225872971551241  0.3340017477611437
  0.2213256453892712  0.2195113173389776  0.3333959261191714
  0.8894701951306947  0.2227751873255484  0.3329088874076429
  0.7766462229075022  0.7753599046051287  0.2493614743683258
  0.4438727559085664  0.7780331031999140  0.2501214385930184
  0.1119266593267019  0.7780033526013898  0.2502395686122912
  0.7781043378518849  0.4434889804179188  0.2495819683439294
  0.4476571551934726  0.4426628429342419  0.2504902670858237
  0.1132884864720394  0.4441566145519589  0.2499515391585733
  0.7789873773523414  0.1137728640160320  0.2504176301774803
  0.4439563454576694  0.1094223658213613  0.2507936235167876
  0.8908777765833495  0.5538063685263610  0.3337852498630287
  0.6645946526906599  0.8162245786843987  0.9163700280221411
