Cu
 1.0000000000000000
     7.6685730419681093    0.0000000000000000    0.0000000000000000
     3.8342865209840546    6.6411790651208911    0.0000000000000000
     0.0000000000000000    0.0000000000000000   25.0454546774459672
 Cu 
 108
Direct
  0.1088907232330696  0.1113267699926786  0.0006670699150686
  0.0034097352976811  0.8304185526072282  0.6660116728892278
  0.6651351828346588  0.4986685624445470  0.6672548882165550
  0.3368934943551113  0.4980735523900938  0.6668764805370216
  0.0007203755180216  0.4985380869409646  0.6674151951195449
  0.6667794447401933  0.1686398989767842  0.6670763738310518
  0.3325805301324533  0.1670448859053275  0.6667894597071482
  0.0015432797499866  0.1677827274023521  0.6673501744928585
  0.5546949505252080  0.0527018665882506  0.5835076106796372
  0.2206874654579379  0.0540627137712358  0.5837927971510610
  0.8890623877817747  0.0561349666411508  0.5837802783840387
  0.5537091892081091  0.7244370235878602  0.5833680575859574
  0.2192017536738155  0.7243635473595095  0.5839325232982727
  0.8909603021550733  0.7215335506377635  0.5830951033346081
  0.5542918602137835  0.3894330802936657  0.5826408438566418
  0.2227744796121757  0.3871325043155036  0.5833267700039594
  0.8869194088488499  0.3894587138401228  0.5834127211549267
  0.7776141743233023  0.9446804926078699  0.5005545255287610
  0.4461034739642668  0.9437502464581287  0.5007638399601894
  0.1101092363058353  0.9460247059465927  0.5007981358423564
  0.7789116461107923  0.6112307628159042  0.5003559666050500
  0.4457306907001473  0.6114821766704783  0.5001193475078518
  0.1077809250584724  0.6132418968215146  0.5001589806327171
  0.7784005325946890  0.2770421297622304  0.5001630709444674
  0.3344438371829622  0.8307601466296620  0.6667195134139821
  0.4435190313250542  0.2773749591471991  0.5003489036410883
  0.6646779391450437  0.8342663402278143  0.6665155321439866
  0.4465523458134651  0.2758141155253176  0.7499713788026453
 -0.0007366328642649  0.8304170719612779  0.9163880201706454
  0.6644745393701840  0.5029741154461380  0.9162949494836001
  0.3341495735258495  0.5021910507326529  0.9165917668503878
 -0.0017236800255045  0.5001206128545376  0.9169420737102162
  0.6661392983253218  0.1649788895969639  0.9159577738813051
  0.3351538688288258  0.1656889658499279  0.9174449796121761
 -0.0021208634636152  0.1683361852743059  0.9170063620752964
  0.5548619845491169  0.0551922995177434  0.8332687840632985
  0.2216733860349693  0.0578836962433711  0.8331521169964402
  0.8893920597821910  0.0567571095053077  0.8336347114489104
  0.5565856698012903  0.7224598804981427  0.8335425311346215
  0.2219851384884555  0.7227422649859111  0.8338146269066340
  0.8910648450265887  0.7224064314205766  0.8328704276115984
  0.5525548619211058  0.3903630705770177  0.8328295682776338
  0.2231479751324860  0.3901489572215940  0.8340582672717488
  0.8869322181172004  0.3915700695851876  0.8335344258389507
  0.7791405763695581  0.9465055305406190  0.7504328950973148
  0.4429572275555543  0.9427129795134355  0.7494621277951363
  0.1143760531305031  0.9424502508252542  0.7505106742089563
  0.7775532837856349  0.6135938602554165  0.7502864596998974
  0.4419353890012735  0.6136569391352295  0.7503977840385687
  0.1081984691898756  0.6137459199283856  0.7493479611541143
  0.7779691122362294  0.2776740410116812  0.7504680731242673
  0.1091941526571349  0.2780005548513261  0.7503706186297193
  0.1136207214440750  0.2769609091438470  0.4997196527538573
  0.6671657939992047  0.6638383770374129  0.4165291667726205
  0.3359623341397917  0.6651837173565304  0.4174617474196096
  0.6688344536409286  0.3320475031479140  0.1660263476203773
  0.3316736802092732  0.3329247400016268  0.1662005107720862
 -0.0008613836564884  0.3350681901319464  0.1674090979593006
  0.6670916220075678  0.0009175474897435  0.1667058753129395
  0.3298713831119602  0.0028074308156542  0.1671427711324361
  0.0011983372217306  0.0022697088487129  0.1664147558940438
  0.5523854910500799  0.8905036921171736  0.0839366821409567
  0.2216629579358288  0.8885427718144797  0.0837909522812123
  0.8890786856432833  0.8907177889132972  0.0835091166766770
  0.5547408744282059  0.5580716460016606  0.0838115083567338
  0.2233047711218867  0.5541909763425342  0.0840900099318233
  0.8885665718354385  0.5533467603369665  0.0829349063398055
  0.5545758879067153  0.2235120420016262  0.0827052642564311
  0.2230486679006251  0.2235168854273087  0.0831681725892991
  0.8881169544349830  0.2197475162485870  0.0832042929999855
  0.7771359227595613  0.7772239967392202 -0.0003785809234796
  0.4476579364770710  0.7754273068270664 -0.0007583797005669
  0.1100964971276579  0.7757866124837124  0.0007543671397916
  0.7789603958226125  0.4457079769127831 -0.0006871413707170
  0.4405669143537715  0.4474022236898994  0.0003084611451028
  0.1125966657705483  0.4430057870346237  0.0005965683496849
  0.7771098203651232  0.1115020954919475 -0.0006645406887282
  0.4459053409764676  0.1132120605703881  0.0003931170092656
 -0.0001802281867101  0.6670131743532903  0.1672266844639806
  0.3327898309718809  0.6687363409497854  0.1662301673258104
  0.6693723786764150  0.6662559473858045  0.1668269308110611
  0.1090923661886492  0.1115953252376508  0.2494785571046892
  0.0007249112389287  0.6676689862694798  0.4165626951348412
  0.6653776750367784  0.3351567802078808  0.4171059049076575
  0.3317574001496332  0.3359676425843768  0.4169817525311282
 -0.0014833207472717  0.3360753983149510  0.4172364121362486
  0.6677782102143249 -0.0001188579985470  0.4167243873493195
  0.3309784758667950  0.0014449895147867  0.4171208769452250
 -0.0018955861123721  0.0021743604037579  0.4164440368262020
  0.5567475856197759  0.8880786922839951  0.3337318284936469
  0.2233972629079987  0.8885880757230116  0.3327559284395026
  0.8926319907399733  0.8865240959716850  0.3337240871150194
  0.5566542506800953  0.5529429136641507  0.3333593508051939
  0.3294560858029922  0.8360459588684386  0.9165845423979676
  0.2210210542200955  0.5530549249324150  0.3333098633280317
  0.5560918030013852  0.2211895278442815  0.3334759272307138
  0.2235322230429731  0.2239062513235401  0.3333298860583570
  0.8893199817691019  0.2213347040988850  0.3334729640485112
  0.7805986609241810  0.7772642963074462  0.2507684180695138
  0.4434006418746576  0.7772335303307103  0.2495207435482736
  0.1110094083670792  0.7749381304291054  0.2502644457464406
  0.7783268176488255  0.4467247680257375  0.2505097665183939
  0.4479764816430171  0.4414774451815576  0.2506376937039909
  0.1073642151770502  0.4470978711629789  0.2498313345319412
  0.7789875140470087  0.1131628993025303  0.2494800849211007
  0.4445618723854393  0.1101814982398261  0.2505377291874911
  0.8896443968047214  0.5567334545112674  0.3335419133121459
  0.6689536494253138  0.8303773453529987  0.9171120204847306
