Cu
 1.0000000000000000
     7.6685730419681093    0.0000000000000000    0.0000000000000000
     3.8342865209840546    6.6411790651208911    0.0000000000000000
     0.0000000000000000    0.0000000000000000   25.0454546774459672
 Cu 
 108
Direct
  0.1099567458915669  0.1117185751942848 -0.0003228828594961
 -0.0033272218408355  0.7686559903886877  0.6666882899950942
  0.6673102624573942  0.4346957919150356  0.6672675799696228
  0.3308182340919925  0.4348578136583626  0.6673837564069494
  0.0002783711646754  0.4330595822565423  0.6665496652340154
  0.6667896573064912  0.0994661809077371  0.6664679058493642
  0.3328193748460952  0.1009630843434937  0.6659715544877929
 -0.0010081200674929  0.0998305891382628  0.6661089171993733
  0.5577545167231277  0.9863560735592066  0.5833728911517240
  0.2204591076052421  0.9903522497722729  0.5831957596201643
  0.8916320267287903  0.9881408066444995  0.5829144357420469
  0.5548763612931435  0.6526114409597623  0.5840697730445393
  0.2218284177670660  0.6527865991379327  0.5840022511466280
  0.8866383549536967  0.6569260868927352  0.5835328358802102
  0.5570577943167427  0.3219565087354752  0.5841080701270739
  0.2260455141685341  0.3192114120563050  0.5832107310899052
  0.8897447167267539  0.3192434601682600  0.5831680788882768
  0.7782731844417961  0.8807373116329497  0.5007248951864899
  0.4405249044359210  0.8806488953994749  0.4997733828765005
  0.1092612529535748  0.8783044830029813  0.4994199058331774
  0.7770350537392025  0.5458212141229931  0.5004294799143972
  0.4442351248514510  0.5420403088064563  0.4992530277930353
  0.1104210233177063  0.5418587772602426  0.4995916816261757
  0.7810159352713933  0.2085164151812724  0.4993813413631988
  0.3341395917618987  0.7664600657779433  0.6668564006238502
  0.4452741344766527  0.2089017290644412  0.4997106153370533
  0.6649221491564667  0.7660057474519713  0.6667653118865658
  0.4444929096290956  0.2081821154950587  0.7507044742882900
  0.0006976608606927  0.7649387487387319  0.9172425037460848
  0.6661793281914621  0.4303421736382546  0.9163109372152585
  0.3362021288691656  0.4321891065506711  0.9169356261168647
 -0.0001019274859836  0.4314880388390667  0.9168425181393629
  0.6653886493092696  0.1027212636778471  0.9173421516904305
  0.3318785217707266  0.0996279501495696  0.9171038259497394
 -0.0002149766187868  0.0997324982255922  0.9162066974214320
  0.5571983331243919  0.9897944523837181  0.8335867907729468
  0.2210158183930933  0.9875406221719901  0.8338493069117012
  0.8883865463093199  0.9912508355543312  0.8336634663982468
  0.5583429532564624  0.6536306608457153  0.8332446880323731
  0.2217967396223075  0.6567566286918225  0.8339051681777310
  0.8861095571236954  0.6582638013474699  0.8332663270737778
  0.5541708610912681  0.3236755389701605  0.8340016113588379
  0.2221947081502807  0.3222645301524240  0.8338245442122537
  0.8912226875144583  0.3200959586278783  0.8328474530923546
  0.7768745336886579  0.8764859382479989  0.7506137013092031
  0.4430976840021713  0.8773615964876371  0.7496960683444460
  0.1092741340106388  0.8774232791153177  0.7502424644776560
  0.7779743425547851  0.5457452255434350  0.7498883135277828
  0.4434833631633387  0.5418635228234223  0.7498260053770062
  0.1084785164957732  0.5462668364148534  0.7499469368326511
  0.7805233031272587  0.2107889372182714  0.7505822221698452
  0.1131601365349454  0.2109373936573389  0.7499337826268442
  0.1122804836102588  0.2128873663139914  0.4992363655810871
  0.6698314807940967  0.6648713814330580  0.4159108294877236
  0.3330460610439990  0.6675793905661239  0.4164444788965590
  0.6694624509440172  0.3312765421600267  0.1664846125646173
  0.3345403935320335  0.3315054023749325  0.1661970671533515
 -0.0001470193863371  0.3312702687230656  0.1670027468344398
  0.6697226659513662 -0.0009668716249875  0.1673321444380910
  0.3356929964003543 -0.0027400404709160  0.1661476243430060
  0.0017546140300934  0.0006906674166309  0.1672326442780848
  0.5544166228361700  0.8889658958349285  0.0829045984758659
  0.2231993709871547  0.8899558995882658  0.0835489081598190
  0.8883018827854208  0.8877918772405906  0.0831593003654598
  0.5568092968439237  0.5557935377530093  0.0831707479675518
  0.2206561137871533  0.5548397010356909  0.0825696160775714
  0.8886390583888270  0.5540642606419313  0.0828671501452814
  0.5565476110516056  0.2203034736156059  0.0832990453225453
  0.2198701022263949  0.2237170339830858  0.0835638630747595
  0.8884191731301655  0.2197323981419678  0.0840371704561688
  0.7785091505975241  0.7763202020487932 -0.0006634348968330
  0.4448422172939471  0.7800107701143594 -0.0000060121099054
  0.1099581364381691  0.7806149276087355 -0.0005747769441508
  0.7755784779376813  0.4438352244049700  0.0006185606343508
  0.4423748074977608  0.4442336976032467  0.0004710457295984
  0.1099605378195322  0.4466302697470618  0.0004341953607907
  0.7777186287646278  0.1102464193663385  0.0002792585656334
  0.4421728366234156  0.1129166330115225 -0.0002634487525646
 -0.0022702816286498  0.6679027296694681  0.1665856163734719
  0.3341329069837031  0.6649578931161531  0.1671725435122949
  0.6630331889603525  0.6688416392771915  0.1671709743982696
  0.1090473428436573  0.1107189519934867  0.2498468347796263
  0.0033177739638384  0.6646807785614208  0.4168388251600362
  0.6680499474311813  0.3341642807318296  0.4168967774756935
  0.3307813860416969  0.3350258582197825  0.4159684356826464
 -0.0022494474170231  0.3337169312178640  0.4170369945971854
  0.6676528450675895 -0.0024010601512486  0.4159090142342456
  0.3312260706800751  0.0027715584402521  0.4166826170008239
 -0.0029527666048979  0.0025681051996436  0.4168342178597379
  0.5556082062772008  0.8898016653817168  0.3340453582321190
  0.2216419081284403  0.8901671898911040  0.3330486405580352
  0.8864619066397516  0.8905003360513662  0.3336391882941115
  0.5563619895199744  0.5541986806637536  0.3330420211108144
  0.3369126639326734  0.7637108602787711  0.9169635248129239
  0.2256545727003693  0.5536933015742768  0.3333106160531027
  0.5549369155719343  0.2223630858867383  0.3333911895983132
  0.2195578933301761  0.2250126346542918  0.3335959442656842
  0.8899263007210216  0.2198728307767362  0.3338703962184338
  0.7784449396288622  0.7790753460952848  0.2493143398255437
  0.4432832511583135  0.7782557163869396  0.2493944914345072
  0.1104629497978440  0.7764973269057832  0.2494932986406266
  0.7782631092489212  0.4430003241202062  0.2507979032158799
  0.4430247230086097  0.4426728158812534  0.2506610868235821
  0.1117216547954889  0.4440274816474449  0.2501750482168099
  0.7798415401351804  0.1106742605857094  0.2503010073860693
  0.4453701283172645  0.1084090391116548  0.2497892977226798
  0.8899619512796432  0.5544195831968233  0.3328094998793308
  0.6648511947900969  0.7672458884073813  0.9171515620170361
