Cu
 1.0000000000000000
     7.6685730419681093    0.0000000000000000    0.0000000000000000
     3.8342865209840546    6.6411790651208911    0.0000000000000000
     0.0000000000000000    0.0000000000000000   25.0454546774459672
 Cu 
 108
Direct
  0.1102151078269077  0.1096457436671947 -0.0000084976262235
 -0.0004082079750905  0.7141606068290691  0.6667802643924686
  0.6668940259248887  0.3847961263898107  0.6662524773552104
  0.3341769472136479  0.3828003664585564  0.6658923035099548
 -0.0013300789733749  0.3845166955083239  0.6658753767221491
  0.6665031329665063  0.0498920928560745  0.6663823710883748
  0.3321670911578638  0.0476080162935040  0.6673288845454661
  0.0008332141389631  0.0509577118091755  0.6666758976525933
  0.5586741241945984  0.9378050992413841  0.5827448327668309
  0.2216913886980464  0.9407542607174497  0.5831076476052218
  0.8879428686804328  0.9413651450694143  0.5835969863971451
  0.5575407878404575  0.6050651629588594  0.5828053341542275
  0.2243803489628836  0.6029220099759638  0.5838127240951435
  0.8906695041058699  0.6045319315699622  0.5833486435447072
  0.5578596893531527  0.2696537717602999  0.5835836872455676
  0.2200488332275058  0.2723918227545472  0.5832494574782620
  0.8891509410682161  0.2696613075443650  0.5832990202844718
  0.7777675503024085  0.8254595010383132  0.5000674506127663
  0.4421333976724787  0.8287241859592797  0.4997473153159341
  0.1126951239115275  0.8267497601559950  0.5004935180567144
  0.7783531972579211  0.4961724122880491  0.4998156359576854
  0.4439287381784249  0.4918064562738872  0.5005684428653584
  0.1128350600468893  0.4945359671330492  0.4998892249007955
  0.7755858451914195  0.1610597688339231  0.5002426787177525
  0.3327204355952283  0.7183314948762469  0.6662381403590957
  0.4451062675818603  0.1639844171926477  0.4994920139298779
  0.6653768810826225  0.7141570762919749  0.6673517841925394
  0.4466951208266249  0.1616688204975917  0.7498506937544183
  0.0029033827557351  0.7155373129730092  0.9166122321045276
  0.6687109657055127  0.3813921686061593  0.9173938671606496
  0.3350786498259634  0.3831696086680674  0.9169846381618764
 -0.0003878932913941  0.3812095018192543  0.9164251619301522
  0.6637193896544099  0.0512977750539651  0.9160785755576901
  0.3318015678138257  0.0485724154620042  0.9172553535568823
  0.0031291593345010  0.0487170801132635  0.9169266398571801
  0.5524435274381944  0.9409917257373814  0.8329550880889861
  0.2214639270536983  0.9415362117236538  0.8338671192646372
  0.8908525145800579  0.9375143127070520  0.8334062105710737
  0.5536115319086580  0.6045712278283171  0.8328938628690503
  0.2211565846129538  0.6038550153814114  0.8333777490926783
  0.8876137649960900  0.6046038087425156  0.8337299084782910
  0.5567605118636794  0.2728838766573822  0.8333282683189510
  0.2211765427087555  0.2749442454467005  0.8330444777453747
  0.8924316654229750  0.2702929606359001  0.8334875228132760
  0.7760501482271905  0.8285397972644298  0.7506524673959141
  0.4459341482696625  0.8250698941369429  0.7493603891201847
  0.1096882084683813  0.8290349927026873  0.7503695829807694
  0.7780574852850146  0.4923703859489676  0.7507772828387451
  0.4447964609309440  0.4928005714743285  0.7499618538980555
  0.1116808227322778  0.4915742755938822  0.7500071159772760
  0.7753921069915661  0.1612391227083025  0.7497262918003106
  0.1107840812219457  0.1600014382887958  0.7506975913072660
  0.1128078915079947  0.1586839332497790  0.5000189209845071
  0.6683856695852785  0.6661118859374991  0.4163461199387297
  0.3318879773263732  0.6694395958351301  0.4165842152999757
  0.6666371499310713  0.3323037038955426  0.1664150056715620
  0.3327932295865594  0.3352913330353810  0.1661016262601511
  0.0012574437480060  0.3312833662875155  0.1664115181314818
  0.6656809872520467  0.0009722785902673  0.1666769314386627
  0.3294637915601764  0.0028450303478694  0.1664267614040257
  0.0037873870218548 -0.0027375089332000  0.1674394084296823
  0.5551210000908836  0.8872064572517978  0.0835883762245313
  0.2221961843690766  0.8915923964344706  0.0840294038841445
  0.8915405721496809  0.8886014200497604  0.0826109843998684
  0.5543905640904037  0.5561080417299736  0.0828359043561896
  0.2235153632423385  0.5544012779529777  0.0830251947336514
  0.8903220427466686  0.5536575949149922  0.0836603465733249
  0.5545994977525797  0.2248193308081321  0.0827679180115470
  0.2214060168163798  0.2223355734554719  0.0831330932297951
  0.8857815003838573  0.2246296762612857  0.0827888127891353
  0.7770081624847796  0.7790813626018522  0.0000105851194678
  0.4467967826380546  0.7752781516990683  0.0005390351712102
  0.1140078499896005  0.7754250481499262  0.0007508164898336
  0.7756611725923493  0.4446587645237463  0.0000447509980130
  0.4444323556827854  0.4466301453123879 -0.0001764380529902
  0.1130414530930762  0.4427401370510753 -0.0005738361634592
  0.7766517383733629  0.1116986006971723  0.0007515569089442
  0.4445239070972533  0.1126295936528643  0.0003563087530458
 -0.0027381598813737  0.6673044062802441  0.1664286182669258
  0.3321337002421510  0.6645676098500314  0.1663689020664862
  0.6656204749041484  0.6684042416029412  0.1670188131189768
  0.1102506485642777  0.1081020686034430  0.2506252484334259
  0.0033989296224441  0.6639245299143585  0.4168678711250183
  0.6674233806871954  0.3343592142239715  0.4167992996120646
  0.3341703682116569  0.3313444021812660  0.4165725453151203
  0.0008797822111684  0.3303407057448744  0.4164685311022023
  0.6656748424323640 -0.0017405859675103  0.4162066453131421
  0.3339161567134794  0.0020737608496373  0.4170598870870422
 -0.0008387487247368 -0.0012816979761010  0.4166005547865759
  0.5584554869104938  0.8873076802425763  0.3340350488495454
  0.2224862480692122  0.8873591492747007  0.3332844172089873
  0.8891771063684391  0.8870178602605745  0.3329597992376537
  0.5556356253342213  0.5538431412459720  0.3329550229834246
  0.3317125062036201  0.7193762073698841  0.9173889409802767
  0.2235800910554528  0.5566191353053277  0.3329507899756780
  0.5536324856552488  0.2216747398222210  0.3329288621036693
  0.2185053601688958  0.2248872809915549  0.3339312598315584
  0.8868994854560915  0.2245732376648688  0.3333836938182445
  0.7750906817072352  0.7787895792793276  0.2501477164827586
  0.4449371556999541  0.7801410223672819  0.2499866910482326
  0.1115242302247724  0.7806732110260168  0.2497333002993760
  0.7771774727959367  0.4431417235386031  0.2499387588885871
  0.4451591962398437  0.4470332213586649  0.2494095864531526
  0.1113286642898456  0.4458523951647350  0.2505265005064203
  0.7800571295047621  0.1092957726955316  0.2500434887038817
  0.4419269711766550  0.1127021563095728  0.2501098229811222
  0.8883054319515172  0.5548913847073481  0.3327438403758761
  0.6682227583888567  0.7162371846732108  0.9160855631273583
