Cu
 1.0000000000000000
     7.6685730419681093    0.0000000000000000    0.0000000000000000
     3.8342865209840546    6.6411790651208911    0.0000000000000000
     0.0000000000000000    0.0000000000000000   25.0454546774459672
 Cu 
 108
Direct
  0.1105167045805145  0.1116272983993022  0.0006355880731419
 -0.0005657270411022  0.8986165479874533  0.6659659325989274
  0.6694960903233340  0.5657675525024503  0.6670580650241320
  0.3327952473435207  0.5684541298201681  0.6667844831178653
  0.0008576358466082  0.5665956206020125  0.6667616645789248
  0.6686798977662600  0.2315626558008000  0.6670960029235828
  0.3350841612505385  0.2303949861790377  0.6667202159151050
 -0.0029002190449339  0.2350914372705031  0.6666301880302273
  0.5581153053244853  0.1221725546532301  0.5839204750932677
  0.2238833099904250  0.1192641738439443  0.5833887806606193
  0.8871853143011428  0.1225723415488572  0.5836167345728225
  0.5567568818857914  0.7868030554000525  0.5839030634308648
  0.2214583094188662  0.7867975935547374  0.5832429716201992
  0.8911655997945557  0.7875865724334327  0.5827605485193570
  0.5544197256020281  0.4547248569218709  0.5838357686843648
  0.2220623220828283  0.4551262027623820  0.5835461097283261
  0.8868203500457168  0.4556147724155059  0.5841198684537103
  0.7763164003928451  0.0119089157483606  0.4992762922684361
  0.4412310957743427  0.0124781124337391  0.5007350942604702
  0.1107758039939142  0.0138628009367012  0.4999132058402495
  0.7763325935665257  0.6759505443267946  0.4994653522559344
  0.4453910663776788  0.6760136435671029  0.4995461267298046
  0.1125644474443236  0.6766501056135742  0.4993435644291804
  0.7803359434358584  0.3425218618904986  0.4994447498256104
  0.3314423110809682  0.9005392597621893  0.6672518759236273
  0.4451397364970230  0.3429059883850921  0.4992265186831244
  0.6645544828235730  0.8998817747613300  0.6663983876325114
  0.4427502788372074  0.3434094436508130  0.7504025620391390
  0.0026923826095469  0.8990916114097867  0.9168330420886019
  0.6643713554013574  0.5685260615996828  0.9158778852036997
  0.3349597580026541  0.5681078811859797  0.9160127202939741
  0.0002419897031249  0.5682718153873604  0.9161936223613744
  0.6694372665637398  0.2325997245902370  0.9165599207805130
  0.3301819578750349  0.2362520821505440  0.9165614400705546
 -0.0008427448546640  0.2313653705380572  0.9166140741777871
  0.5559021193857523  0.1246481982685206  0.8334027351872115
  0.2222005963895253  0.1237888599135243  0.8327876257441729
  0.8908042387413173  0.1233929291285508  0.8333537967241001
  0.5536430587643792  0.7906394592196203  0.8330526872903732
  0.2234894025982756  0.7870804163833645  0.8330623105475706
  0.8903197906533621  0.7895057064223657  0.8337658734200282
  0.5545286867651456  0.4572063401944153  0.8339904686515782
  0.2197654991703596  0.4564928897035168  0.8326347395773874
  0.8871290370699175  0.4568607478824798  0.8339331873454635
  0.7774487685703102  0.0129573500818660  0.7504921815604334
  0.4471769454929747  0.0108325167209599  0.7497219491511626
  0.1087709449944280  0.0132674571468485  0.7506717704675617
  0.7772929880905718  0.6770494966725457  0.7499644537396302
  0.4444240641902612  0.6749652429186309  0.7504248711895605
  0.1114672537908276  0.6760413512567293  0.7493407534775675
  0.7770830211071678  0.3417823461415482  0.7500380946422532
  0.1117734509485036  0.3467050428513500  0.7504186154754847
  0.1105595451186803  0.3459805418789496  0.5006662778118312
  0.6680294409385238  0.6659381151218959  0.4160165153564727
  0.3323219776857042  0.6688139115060580  0.4163731784691092
  0.6673344384775500  0.3331563506011497  0.1669938920382088
  0.3315791144610954  0.3322336694552260  0.1668985086756672
 -0.0013201231305252  0.3309025462930724  0.1663608499991007
  0.6692022644705279 -0.0007978494400026  0.1661774493999820
  0.3314154711212798  0.0011977237421970  0.1662772782830264
  0.0012678543344610  0.0012944457753645  0.1662146392230397
  0.5529918219757077  0.8901691583428449  0.0840032562330860
  0.2238648311687494  0.8903669227250022  0.0830251145760324
  0.8919659308011251  0.8867316076880817  0.0833442559817422
  0.5567104442287484  0.5538484682333037  0.0836474632128701
  0.2221180421529799  0.5554405804451190  0.0840906219054268
  0.8902247916886326  0.5577571824983752  0.0836248503380934
  0.5528916687019506  0.2235073791180150  0.0830199403376281
  0.2215910187132184  0.2228866782163283  0.0832464534600974
  0.8882486945118691  0.2204156315218073  0.0829683940948731
  0.7798398146535247  0.7785060554559496 -0.0007881858248204
  0.4427335077051358  0.7790461542477167 -0.0002999166219596
  0.1114212192609168  0.7774000647943992  0.0007940150778294
  0.7760292600706524  0.4446434293102512  0.0007192572917883
  0.4435253599028897  0.4445984664969338  0.0001579806259845
  0.1106801063344244  0.4460005419861583 -0.0000558106313926
  0.7791244732690165  0.1119993769568116  0.0001347958535333
  0.4469794791535631  0.1111797358172845 -0.0004264831205965
 -0.0000884131305686  0.6693442809933990  0.1661008385693340
  0.3348905035900778  0.6663960408904904  0.1671141663004193
  0.6680501049597986  0.6646368110877741  0.1673674831225184
  0.1134793352301481  0.1090977957515831  0.2493173099710787
 -0.0026912457377755  0.6689855485192115  0.4173576294167216
  0.6703539426276399  0.3305014289011007  0.4163697259718751
  0.3298935718270414  0.3361766721601255  0.4167841246023010
 -0.0023380779816541  0.3349191102117238  0.4162010014706951
  0.6668128844061829  0.0004615409468406  0.4160743490899115
  0.3349688070080409 -0.0005784841365324  0.4159297275785862
 -0.0006074667258073  0.0008971358234872  0.4173511928365210
  0.5544964216342629  0.8872172114713498  0.3334679547894385
  0.2234576146294897  0.8869013780814401  0.3332584224778830
  0.8889889772259362  0.8910496729267673  0.3335027706444013
  0.5567515309751792  0.5533127910595562  0.3327744114004521
  0.3355286524053339  0.8988292849432948  0.9162519449515344
  0.2197894371764609  0.5583229660303646  0.3326851655227575
  0.5570739906485757  0.2232634729704574  0.3332429023514424
  0.2225326501203753  0.2214536391914829  0.3335609905503910
  0.8868553144391134  0.2240782933537098  0.3328952707249027
  0.7794053033065628  0.7748722977352355  0.2503985156120224
  0.4442192753796256  0.7752412968747201  0.2493260761913879
  0.1138420713787115  0.7750250727737458  0.2503704627903304
  0.7749922255626063  0.4454440863072476  0.2495560347794386
  0.4435923541162572  0.4464995385190665  0.2507959777443116
  0.1133345112008747  0.4415271252408186  0.2496976131268027
  0.7778441348932300  0.1095304424019471  0.2505786110210409
  0.4456050309778207  0.1100383279738179  0.2507166018750068
  0.8919417866051580  0.5527688654008825  0.3330919341146923
  0.6697646456777829  0.8970153230511413  0.9163092951410561
