Cu
 1.0000000000000000
     7.6685730419681093    0.0000000000000000    0.0000000000000000
     3.8342865209840546    6.6411790651208911    0.0000000000000000
     0.0000000000000000    0.0000000000000000   25.0454546774459672
 Cu 
 108
Direct
  0.1114237305728285  0.1136201679170633 -0.0004371059462886
  0.1344789624473449  0.9348936032019295  0.6667726591188744
  0.7972340902280164  0.6003167547311350  0.6674441312669590
  0.4655957867255597  0.6021279651564311  0.6671487771191413
  0.1317788533991342  0.5995783483737711  0.6670876735422534
  0.7969926368529447  0.2694740124801551  0.6669072970815894
  0.4665749639576493  0.2652209246401372  0.6660043843730976
  0.1351758028520639  0.2665456152106213  0.6665882918328709
  0.6895075160235019  0.1576458103981331  0.5830805249560940
  0.3561319140124716  0.1581567887034551  0.5837174780238454
  0.0249638986146164  0.1534909336067648  0.5832891477006396
  0.6897683693339051  0.8214992061376840  0.5837675270889796
  0.3544472729156026  0.8226986367166338  0.5838566775656706
  0.0220577567465973  0.8232481104528413  0.5833047817777774
  0.6872871769125107  0.4882984425428651  0.5840931138096043
  0.3521962030839738  0.4909364831518599  0.5831803367402816
  0.0194421271934682  0.4893356134644211  0.5827897262061104
  0.9104421602136142  0.0418328797468024  0.5001168123121275
  0.5797727022955523  0.0423422454878528  0.5006358953158890
  0.2459886051211547  0.0442184649246296  0.5002668534038521
  0.9089515567567921  0.7120971555960099  0.4997859689112324
  0.5789661279339959  0.7113271881393487  0.5001693078321204
  0.2452873137446915  0.7133810991407481  0.5003150842704723
  0.9119282478371358  0.3757416844026890  0.5001942406821478
  0.4637264534635462  0.9350516246285862  0.6666130984855906
  0.5778143891742287  0.3777068413732287  0.4993747036056318
  0.8027120832889098  0.9327110303209096  0.6660506383876601
  0.5805573441608232  0.3764366143434681  0.7495547086014488
  0.1347116981216252  0.9334035978185039  0.9162041796413692
  0.7990319067148276  0.5977248589452192  0.9169899964721243
  0.4686178188956826  0.6006779940581524  0.9172625611863796
  0.1319467717996742  0.6014737473727876  0.9163061897745077
  0.8011522328967667  0.2666307173951301  0.9170145837374014
  0.4675784409969229  0.2680127762139711  0.9161802163698238
  0.1317165276737039  0.2689161516753720  0.9158955920641469
  0.6913414286068702  0.1554063666651093  0.8327912857715312
  0.3575836998935260  0.1562263707904197  0.8327952761520241
  0.0227713739634987  0.1561997846709176  0.8333397668048427
  0.6901215924864549  0.8213803944376887  0.8326812824485099
  0.3552031988032860  0.8193842806539525  0.8328567530808988
  0.0223911104348232  0.8197899683019992  0.8325496729599402
  0.6859877553940377  0.4917248845598987  0.8326492787052253
  0.3554008443477304  0.4903690153657197  0.8333443775289479
  0.0221996338354638  0.4918766349638910  0.8330183393387194
  0.9111554491837757  0.0440020671335969  0.7503168740353801
  0.5768676805070579  0.0468466061006529  0.7493179812545308
  0.2452427960455788  0.0457834163406950  0.7504562681945015
  0.9093913666356014  0.7097436696666806  0.7507037527541423
  0.5775179333214756  0.7108224996700995  0.7492239126403430
  0.2462433717452236  0.7113495917006156  0.7504245151542096
  0.9127857139209334  0.3754069055072958  0.7500124870050281
  0.2408482540639405  0.3803836052383909  0.7504017494535774
  0.2431161935536744  0.3756840589855312  0.5006699390941096
  0.6678902487107234  0.6681079641390175  0.4163800853320274
  0.3337414994985251  0.6680360073772701  0.4171146691087884
  0.6691405950322314  0.3313925897515186  0.1666730926934596
  0.3331294609680246  0.3314295640544770  0.1663220674320135
  0.0013351974967099  0.3305665172506841  0.1663617296570439
  0.6678318612148446 -0.0021423214771353  0.1660353217783717
  0.3357382859237165 -0.0024934697797395  0.1659372450620083
  0.0001431088518276 -0.0020420241738903  0.1666977897036014
  0.5578910501116757  0.8858830888140704  0.0836573790153375
  0.2225540315885199  0.8907911248905205  0.0829284516696943
  0.8887386341058128  0.8875379775175462  0.0840472624201822
  0.5558665397963642  0.5552214678921538  0.0836812885929831
  0.2197498548337779  0.5554947213935593  0.0830654987215154
  0.8886452454814470  0.5529829166807060  0.0836019014133569
  0.5538053505503790  0.2226465106363957  0.0836220139589025
  0.2237754873823891  0.2210161530897459  0.0828796687601081
  0.8874166997587345  0.2240781339681125  0.0837260927393550
  0.7777408020331351  0.7752743319850439  0.0003737854354019
  0.4437687094461207  0.7754756192268748  0.0002032462039312
  0.1102056081757467  0.7807452869956082 -0.0001856543638061
  0.7766080456687606  0.4473300318691906  0.0004641880629756
  0.4467467594059506  0.4429027941318415 -0.0000748526157625
  0.1119965180857347  0.4431064513962965 -0.0005262718485515
  0.7763378114548251  0.1110671743544765 -0.0001468530772737
  0.4449511633344750  0.1107333735752686 -0.0002473519769068
  0.0007136822851068  0.6649758491573750  0.1672164628847754
  0.3350012847996447  0.6657229372424658  0.1660398286850403
  0.6680810384483737  0.6676217095364050  0.1667887766821588
  0.1144250632147734  0.1088024530877115  0.2494158917345032
 -0.0029495063489042  0.6681897427370324  0.4160421763209404
  0.6652765922692515  0.3349399694524040  0.4161124759212322
  0.3347277542369598  0.3325476660562223  0.4164397268167294
  0.0012276917312406  0.3338779400121186  0.4169409118355999
  0.6683722198591870 -0.0017948418906446  0.4162575319987927
  0.3343819120569625 -0.0002556237133138  0.4165873797868571
 -0.0018204733237426  0.0022167556690391  0.4171374780613266
  0.5529885879482946  0.8902923898601236  0.3332777754166917
  0.2210444473350965  0.8901864968084332  0.3331968415167366
  0.8868955530549333  0.8909895786170844  0.3326810261384335
  0.5549379356253857  0.5562397373573653  0.3328308477888420
  0.4669659577277738  0.9354976529130768  0.9168313568558957
  0.2202781179110390  0.5545442537819465  0.3326267757345358
  0.5543853979348733  0.2219732203227862  0.3334546500994168
  0.2219697190581931  0.2226947276340826  0.3339115864078577
  0.8887281520613062  0.2219134807947311  0.3326890107021567
  0.7765555887325520  0.7762873088410410  0.2499757381882801
  0.4437207746730266  0.7771871194375265  0.2503288469896187
  0.1113921724312550  0.7791430620173633  0.2501003272492385
  0.7773924616124847  0.4424166910844428  0.2506345721765879
  0.4472265489586198  0.4417140530595956  0.2496888692750241
  0.1111006840436977  0.4427058098540556  0.2506699088201287
  0.7766161102114890  0.1105646536721166  0.2500991654756527
  0.4419103816811026  0.1125783518068129  0.2497178159360722
  0.8898239000944557  0.5556171264718717  0.3329389054060602
  0.8004955798420029  0.9341931838573224  0.9168005582491718
