Cu
 1.0000000000000000
     7.6685730419681093    0.0000000000000000    0.0000000000000000
     3.8342865209840546    6.6411790651208911    0.0000000000000000
     0.0000000000000000    0.0000000000000000   25.0454546774459672
 Cu 
 108
Direct
  0.1088207658159174  0.1127332324330464  0.0002071861554407
  0.3325754842603711  0.8684291695345095  0.6669002528437232
  0.0013111348637604  0.5304822290407518  0.6667261194425200
  0.6650707339878796  0.5361741697427624  0.6661496944659979
  0.3352206747693353  0.5309353393070501  0.6672495525358775
 -0.0026095245253653  0.2018681780925191  0.6666791510118152
  0.6659803579382313  0.2023302817571248  0.6660441056255328
  0.3358229215943127  0.1976501387915515  0.6665491656156973
  0.8883632150320985  0.0908619894631134  0.5826485258573527
  0.5531884331451373  0.0884922205015152  0.5830480813431612
  0.2238810427121882  0.0874954539356362  0.5829033506475561
  0.8878899724580274  0.7560988656165130  0.5828862006625822
  0.5557877074906092  0.7573916583124216  0.5834486277862591
  0.2236846131739167  0.7564235640772802  0.5838288473021527
  0.8897641667474381  0.4211428976820172  0.5835081929560543
  0.5539498087379233  0.4205273355109859  0.5837016820316882
  0.2206621925356145  0.4207008749900421  0.5829266885088887
  0.1100575121083461  0.9803739069743558  0.4998091617772119
  0.7772771858244184  0.9805776448551931  0.5001716474731051
  0.4446098209462516  0.9749803809776144  0.5007422674802725
  0.1103617270549673  0.6472383598500253  0.5006868687170889
  0.7792045517445433  0.6464581132094189  0.4997515854762253
  0.4458406605869698  0.6424056452577650  0.4992759291840720
  0.1116810245115746  0.3087655841647655  0.5004508320803881
  0.6638353004083700  0.8676926355163189  0.6666215810081233
  0.7756723661762668  0.3132735041286805  0.5007764705826935
  0.0008086567106555  0.8650247602825539  0.6662816078371866
  0.7779916142616852  0.3104322817114931  0.7495496847811155
  0.3360467526568467  0.8645518763105748  0.9173359717195372
 -0.0033673316984009  0.5358800012338023  0.9163073044497249
  0.6698443625060453  0.5320543353758266  0.9163668949924303
  0.3331929313507657  0.5357964541505753  0.9167844475577349
  0.0010941399410922  0.1972594467410872  0.9159478048763120
  0.6640484516015280  0.2015721466589529  0.9161332854322383
  0.3315909063942555  0.2006178551616832  0.9172134637225898
  0.8868531427019782  0.0903607335604503  0.8334326504841253
  0.5581347736425671  0.0888826278676373  0.8333045458160651
  0.2204868421221684  0.0876912698949205  0.8341284237297031
  0.8874586793494921  0.7547818860949472  0.8327079719571719
  0.5575468640842729  0.7528878370915275  0.8331178799232801
  0.2239685239836643  0.7551775306554360  0.8326109492724363
  0.8874235180457377  0.4200590661062772  0.8335593566190095
  0.5589517598089554  0.4194007815812551  0.8336997343360155
  0.2204282814575484  0.4217715017111227  0.8331543671101449
  0.1126552889759665  0.9787049186159420  0.7496058669900164
  0.7778187408231526  0.9794350236188093  0.7504160092552753
  0.4441721383326366  0.9791738385481150  0.7493012631854304
  0.1114629870966693  0.6450978309010628  0.7493084783516759
  0.7797839684363033  0.6445588662261847  0.7500769745907948
  0.4414606520714952  0.6469978061310901  0.7502984291902521
  0.1107564690569178  0.3137332656260675  0.7496655776677704
  0.4447595630438596  0.3113886088819461  0.7496817233414321
  0.4419790350531664  0.3131001942367900  0.5002524119012891
  0.6646836918603842  0.6689362957488251  0.4160056942256198
  0.3338824931453100  0.6644972657258164  0.4168183941973732
  0.6645148188230755  0.3346768618285934  0.1670890166045916
  0.3330830832120185  0.3310950342363457  0.1660331405337747
  0.0007803160598408  0.3334947023341580  0.1671399961630391
  0.6668164288571099 -0.0008155548721375  0.1671034151843023
  0.3357211609976388 -0.0007824498660853  0.1667064635647086
 -0.0013323389808760  0.0019428577521821  0.1661891995606486
  0.5555111857904887  0.8916338134937548  0.0837312850901238
  0.2213983927508650  0.8913166719307819  0.0836559103645985
  0.8875362689696865  0.8877428279522042  0.0833749445461849
  0.5545861511362570  0.5540107580307952  0.0827054661749589
  0.2225508026690551  0.5555149262020317  0.0829411284970390
  0.8912223006252665  0.5545518059960707  0.0835827784874100
  0.5541102543368031  0.2247696610523644  0.0833009491663645
  0.2198072503001665  0.2231140609686130  0.0840801842361554
  0.8878048184233340  0.2213885743720939  0.0834527736988317
  0.7771626258076358  0.7760616343682257  0.0000452944600564
  0.4456503827108439  0.7764145564105411  0.0004145697657586
  0.1082316594662779  0.7799057967483761  0.0007255895209611
  0.7762826164102682  0.4422730154158480 -0.0001600186188020
  0.4409819867702892  0.4468586325544540 -0.0005493957638225
  0.1096595994349440  0.4450980417361776 -0.0001612224870283
  0.7765770871317793  0.1091216018361272  0.0001308268266912
  0.4413934684114824  0.1136005529761905  0.0004845728029373
 -0.0015053741228205  0.6678760012045623  0.1668912676032556
  0.3329006053709422  0.6662320008241094  0.1662774530915700
  0.6654192868605744  0.6696247056927910  0.1674076990626383
  0.1120171676169290  0.1141155491627475  0.2506156901077690
  0.0027837915751419  0.6660625727441327  0.4174267403687329
  0.6691402679171101  0.3312888293671616  0.4159774862879172
  0.3332081404990684  0.3359275351160735  0.4165081164356116
  0.0019917935026281  0.3337616816226515  0.4161161348674705
  0.6655807755154415  0.0008450897554943  0.4164452454256642
  0.3332907886271318  0.0020454469545105  0.4160646831803284
  0.0014230731379620 -0.0019002676631571  0.4172583273046966
  0.5558969006068553  0.8885976122812413  0.3329556243270635
  0.2221550538033966  0.8879451083761930  0.3341141860250881
  0.8880061358813639  0.8881145412810973  0.3331617634093014
  0.5542868208508962  0.5565394654617267  0.3332060667624565
  0.6650314161475187  0.8648105233007408  0.9160352075468907
  0.2211160803023549  0.5525600950526539  0.3336699459240585
  0.5540918762790608  0.2205420209744891  0.3326117851752912
  0.2227210583636285  0.2208738320741364  0.3327278919957934
  0.8915328365012267  0.2196087338824970  0.3334861539741995
  0.7773933834030969  0.7786207778105479  0.2500580694900627
  0.4419528455626032  0.7807764327212081  0.2501939811586308
  0.1123692982586384  0.7804293798779082  0.2494071043013495
  0.7764477198042190  0.4441965822154151  0.2506648611619350
  0.4434376508927045  0.4415260862929280  0.2500292898268084
  0.1124291475055028  0.4455215378807115  0.2506636010843170
  0.7743534310059640  0.1134625557121089  0.2507825755929671
  0.4452504214862051  0.1137638026321481  0.2493635993713941
  0.8897780096131513  0.5526765026713100  0.3338142373839670
  0.0018452052157376  0.8638520475399630  0.9170643538180330
