Cu
 1.0000000000000000
     7.6685730419681093    0.0000000000000000    0.0000000000000000
     3.8342865209840546    6.6411790651208911    0.0000000000000000
     0.0000000000000000    0.0000000000000000   25.0454546774459672
 Cu 
 108
Direct
  0.1110319544213727  0.1120532607370076 -0.0007553662764792
 -0.0024161060948544  0.6679530590080677  0.6660124266044208
  0.6640806110311372  0.3361284727952144  0.6665461352797426
  0.3298686376413423  0.3354016249701237  0.6668148862643215
 -0.0028319983481379  0.3358684796685320  0.6669784276387977
  0.6651693527642027 -0.0003793574121430  0.6667361828600861
  0.3364435432992596 -0.0010676349584704  0.6661240455335405
 -0.0022809419201142  0.0014207943312301  0.6660352717439482
  0.5560186863727598  0.8908193921307811  0.5831016610073394
  0.2207371347545487  0.8878537416444047  0.5838360618649067
  0.8900716592896387  0.8892321747360993  0.5828651512036992
  0.5549643751331075  0.5545891784558311  0.5834804310192009
  0.2229845392611338  0.5567323248677984  0.5833312091657136
  0.8904402639429571  0.5554178679313474  0.5840453171882021
  0.5563524502759184  0.2205060049913899  0.5836217262309273
  0.2217855821058946  0.2229860023896108  0.5827429338829315
  0.8903734671888169  0.2211475195208562  0.5826136136620992
  0.7789189948226094  0.7794589253722930  0.5001532008675326
  0.4427142313018719  0.7762761984032137  0.4997309134731089
  0.1100823307849076  0.7761726394674165  0.5005079804304307
  0.7782952093246264  0.4426716762068702  0.5006143035842404
  0.4476909100512597  0.4417854618174817  0.4994573379934149
  0.1125451324243617  0.4435493275185762  0.4999073737891575
  0.7779173510426609  0.1086581863098213  0.4997135263826418
  0.3329356409074536  0.6694643979954448  0.6666299703663034
  0.4455409491090757  0.1114371965124936  0.4995440969011942
  0.6652661719851214  0.6657722193327367  0.6669030481454099
  0.4447468211604945  0.1123211069881181  0.7497277524223291
 -0.0014759574713674  0.6666912859310661  0.9159057337311990
  0.6664839754051183  0.3312851605672752  0.9173687559439991
  0.3343952584558637  0.3333386532334275  0.9167917263417569
  0.0023729623479901  0.3333255460821317  0.9171242740256060
  0.6689525018848920  0.0000995476345832  0.9171512084390202
  0.3321677724957232  0.0005288320366797  0.9163575907732704
 -0.0014367761170879 -0.0006205893541830  0.9167505170376329
  0.5564524388284376  0.8873686406525455  0.8331012612940455
  0.2202915064055551  0.8884742437541243  0.8330273757324965
  0.8865972193491981  0.8885699155329404  0.8332000565671160
  0.5547918602945052  0.5565942102518537  0.8334890325102337
  0.2185501822350074  0.5582286310557256  0.8329086603030841
  0.8865434186906995  0.5583094342159727  0.8331239292821773
  0.5542521962122201  0.2251176153165053  0.8334910066064890
  0.2204226345902493  0.2229482911823407  0.8335016037936436
  0.8897981367277491  0.2248266712653514  0.8339896282385391
  0.7776428880878881  0.7778697709088863  0.7498360676498791
  0.4406554446220193  0.7805629979405087  0.7501330636137482
  0.1129002389684262  0.7774967476290371  0.7506683126744046
  0.7778397232462656  0.4445614556736719  0.7503458036892502
  0.4421275611826016  0.4450320637908163  0.7507151436750109
  0.1116450246474179  0.4450906670627690  0.7500475443910605
  0.7781670749976023  0.1140042812913067  0.7499704265939747
  0.1130374712979277  0.1112737981853984  0.7492041194091743
  0.1098130488773537  0.1113018656892237  0.4997583461897318
  0.6705242071592442  0.6638381995411070  0.4167948787074785
  0.3309342623578553  0.6666671567665620  0.4168019293200985
  0.6652853473402461  0.3345806990923070  0.1659621842379082
  0.3300470730476409  0.3351123579442019  0.1660550548580486
 -0.0003133675697219  0.3340947251696027  0.1663983309289138
  0.6644377199779941  0.0002867431689439  0.1664277905052417
  0.3346493368770620  0.0006936074614785  0.1662122736155476
  0.0015179934965669 -0.0009092206195832  0.1666613193041934
  0.5579255722079310  0.8883786869766854  0.0829490002958911
  0.2186176166179164  0.8912657522961968  0.0832559960954648
  0.8882060213920453  0.8904398503366754  0.0837140216029776
  0.5544545360647448  0.5551650469711119  0.0833700712654493
  0.2226202507846635  0.5583170113233973  0.0840105893533136
  0.8883547615078774  0.5530650814667513  0.0837821690307407
  0.5537806517306865  0.2231825458004683  0.0827928898560974
  0.2232744210162229  0.2212093648225730  0.0831715134092477
  0.8899044202372983  0.2201213605021140  0.0834467668314431
  0.7782814177033794  0.7775112167234156 -0.0003177810291909
  0.4421209473126494  0.7799943744249200  0.0003120184809723
  0.1082797089605215  0.7794510995991397 -0.0000116330504560
  0.7774859279334357  0.4436432408351830 -0.0006968145962889
  0.4423774400412290  0.4459039140733561 -0.0007949486994311
  0.1100150010708436  0.4420676580603273  0.0000689844101268
  0.7804554784895968  0.1105697279428696  0.0000563215802434
  0.4440354477246811  0.1119975107960538 -0.0003688484318935
 -0.0015050377664836  0.6691230982157129  0.1670967068248900
  0.3345318669636874  0.6638669223336896  0.1672399528184051
  0.6671697774926003  0.6679481780404143  0.1670557241414321
  0.1095721637325579  0.1115199066541307  0.2502296963562440
 -0.0000380687920310  0.6686854786229164  0.4172185802616665
  0.6646595412657508  0.3344078418472604  0.4162644877547996
  0.3340861931248391  0.3331066897298492  0.4163487325863776
  0.0007428967789654  0.3336710157948703  0.4174402391076829
  0.6668092996492037  0.0018774778699052  0.4159066104663291
  0.3328913705435531  0.0018382100103450  0.4158820722673911
 -0.0000887063963928  0.0019472548732306  0.4160057135298834
  0.5536964699739164  0.8879136980495759  0.3331783351402573
  0.2191655142292629  0.8900032873365300  0.3331761823000158
  0.8876674947347669  0.8866171495781366  0.3325436518635969
  0.5572744670907896  0.5553857355834900  0.3336686531706916
  0.3320491549618530  0.6643098764355780  0.9171355993552748
  0.2232923771051994  0.5560532474782144  0.3329723149343041
  0.5552209786031282  0.2201797641453518  0.3331884837585309
  0.2239767846375940  0.2214022097377625  0.3339464380123580
  0.8899952892544736  0.2227132226280026  0.3338658959981038
  0.7789132433630803  0.7752932498777813  0.2501241490761201
  0.4440324331535206  0.7772614830233157  0.2504986437761241
  0.1133411726474838  0.7763731716183051  0.2503457068926211
  0.7807197961970459  0.4431852468716856  0.2502942929025762
  0.4446074312349046  0.4454380154353805  0.2501140183105503
  0.1081131608535693  0.4471981048283716  0.2498429526543990
  0.7765318126487710  0.1084875941537462  0.2507129975871996
  0.4463660873745113  0.1089616148052401  0.2502154174777272
  0.8893883235957508  0.5569367012241312  0.3333251690775372
  0.6676732388209282  0.6688963250525637  0.9170479447547464
