Cu
 1.0000000000000000
     7.6685730419681093    0.0000000000000000    0.0000000000000000
     3.8342865209840546    6.6411790651208911    0.0000000000000000
     0.0000000000000000    0.0000000000000000   25.0454546774459672
 Cu 
 108
Direct
  0.1101561813195904  0.1082279095572249  0.0005368501655182
  0.3346443470259838  0.0009280529277693  0.6668663351144383
  0.0028718420396423  0.6647003465730779  0.6669040492536675
  0.6648792750629021  0.6693448311486860  0.6668358814301857
  0.3330038481107900  0.6670432983399842  0.6660521492502793
 -0.0034548986963114  0.3359830339399102  0.6672241304837058
  0.6689103386245469  0.3339459170704410  0.6667034908918499
  0.3346173716924136  0.3319590018877417  0.6669987697896453
  0.8886542769510868  0.2230536533847422  0.5825838716095951
  0.5569399584656670  0.2228987489302413  0.5830861944014679
  0.2228443719258337  0.2251378670970993  0.5828793412360095
  0.8864350233816666  0.8890688641642822  0.5835716468791194
  0.5528427760372890  0.8904665111283897  0.5839240553963634
  0.2188917746291245  0.8913613404684761  0.5841040751339119
  0.8901188367429315  0.5555629920527483  0.5829068815760862
  0.5563414219695334  0.5539525310055031  0.5829004396276622
  0.2196347615534994  0.5581284223667817  0.5832760110760659
  0.1116941469630704  0.1098542237203736  0.5006991904303890
  0.7780345446413727  0.1123749378630708  0.5006312519660145
  0.4442833186547178  0.1128212346242785  0.5003162893946375
  0.1111350456366625  0.7802050863933481  0.5006208329179864
  0.7774629909878064  0.7784356664349965  0.5000134856481346
  0.4450938987653298  0.7784296052703356  0.5003484853056832
  0.1097156875078345  0.4467267846541203  0.4996619355671623
  0.6653589916644527  0.0010494049946674  0.6662380255481515
  0.7777865194388781  0.4460770814760430  0.5001266767490486
  0.0007181922128886 -0.0018301045529237  0.6663456550883899
  0.7786051568419370  0.4433253517334108  0.7493643536170649
  0.3294078111616666  0.0027743845396231  0.9161017362861305
 -0.0020694108463795  0.6693996905878385  0.9163046686390057
  0.6659496493154455  0.6652559359378417  0.9161947364582014
  0.3331231953260661  0.6693294897386267  0.9163788413107259
  0.0006058794304434  0.3321962002615394  0.9164275749101684
  0.6700519493534001  0.3305218806458337  0.9172624908672794
  0.3340503098916867  0.3314429541243835  0.9163986544978910
  0.8868447705091747  0.2211792697053087  0.8336391853825152
  0.5530340801439874  0.2251311799650809  0.8328936333132576
  0.2211116693915104  0.2210592842201114  0.8330012285479702
  0.8900411518369827  0.8883133374870145  0.8333162442220793
  0.5540005600738085  0.8915985760929146  0.8339807485628808
  0.2202972503340564  0.8901089469713165  0.8338550730628167
  0.8898117001336702  0.5552487168536905  0.8333757140162388
  0.5544511334321481  0.5579585693018545  0.8341035271606538
  0.2203613164960391  0.5578308504995155  0.8330785156479935
  0.1122273498044557  0.1100347068097682  0.7494140040317419
  0.7800634619051072  0.1114300475404954  0.7494739483699133
  0.4460051308531073  0.1092633935326620  0.7500754081054414
  0.1087579981492088  0.7774270624075441  0.7502548527954587
  0.7755271348862440  0.7794209095996826  0.7502419440411565
  0.4453109618603798  0.7805747476112009  0.7504451332940524
  0.1088024456829257  0.4451965395013779  0.7492964702748643
  0.4457505321690345  0.4416239386567289  0.7503806163341084
  0.4453937919418091  0.4423719404050077  0.4994000000439841
  0.6642865828667567  0.6672076013130064  0.4167225998948940
  0.3349663817668620  0.6657893405674150  0.4160443804274759
  0.6644236907314141  0.3347410169062958  0.1674030357124494
  0.3357144488888542  0.3316200005161444  0.1660638327199488
  0.0024157578407463  0.3310768607507688  0.1661562744313132
  0.6633294690232213  0.0024997368826880  0.1672474804808885
  0.3351209042848005  0.0010568669968621  0.1669268972528150
  0.0004373662407579 -0.0025393215146788  0.1672049938985563
  0.5541567944156447  0.8909806371514756  0.0834977301410815
  0.2203952487584797  0.8889073849746837  0.0835139257855422
  0.8859355935780303  0.8906101843257855  0.0828750396588078
  0.5563613601063809  0.5539385519149399  0.0836410818273508
  0.2186616594556792  0.5579504182516085  0.0831892471317117
  0.8865817864258405  0.5553414562186655  0.0831344095007589
  0.5563092665006807  0.2246210106110182  0.0833050617794171
  0.2226613927813181  0.2222365221212521  0.0838762472108773
  0.8867965911731076  0.2226965169103726  0.0837642978088764
  0.7745367540714746  0.7794836982984492 -0.0007432983699098
  0.4436394786082536  0.7804743370084106  0.0002536415048268
  0.1128424397164243  0.7789019945071124  0.0006725424030238
  0.7760712690323346  0.4443794650339208 -0.0005257086584320
  0.4457421444566549  0.4459004424215944 -0.0005567086703887
  0.1083160952100357  0.4461982192914123  0.0006016891315373
  0.7769279142046016  0.1110662910872711  0.0005150907882926
  0.4462856902396545  0.1097758158226205 -0.0002982030234159
 -0.0006294772490901  0.6653745148930721  0.1674637563006150
  0.3358578458781435  0.6637967082621542  0.1659537941770859
  0.6655845650837180  0.6648850154454302  0.1661529815325123
  0.1103129344135761  0.1099927776905298  0.2505440168705798
  0.0012998715171349  0.6683703813936726  0.4163667303820973
  0.6659259202290227  0.3348562411668488  0.4167208576790382
  0.3327295671341465  0.3337621598975773  0.4174056792796901
  0.0021877668552544  0.3306372663775639  0.4170001407300772
  0.6642803502568799  0.0020387638159959  0.4166136565668820
  0.3306350434329606  0.0005436610508263  0.4172730586789341
 -0.0007657196340286  0.0023440979101668  0.4169631261687350
  0.5549755332583487  0.8875447519201815  0.3326440286887202
  0.2197683191015262  0.8909168173888345  0.3329532107120063
  0.8897078454248922  0.8877577606779544  0.3333535880548325
  0.5528649023875318  0.5567909509651028  0.3329050473150412
  0.6630224584551521  0.0028495397435908  0.9160020814222024
  0.2223071681431261  0.5548086887370342  0.3329825176853102
  0.5552467028901802  0.2199188612176640  0.3331834680395260
  0.2203565435864707  0.2233911119418089  0.3330732809381839
  0.8913699483042217  0.2210898048727359  0.3328962119084475
  0.7750364559131983  0.7802067240605746  0.2506688372561074
  0.4464386251319190  0.7767962001656774  0.2493521778359433
  0.1100119556338626  0.7796960229581118  0.2500288561788978
  0.7779978323834453  0.4455283057682506  0.2505307933856932
  0.4471098351009769  0.4433691122562891  0.2495172030240978
  0.1078572967738508  0.4457619517782795  0.2503984730442275
  0.7812958192953955  0.1088030167875346  0.2506900548564702
  0.4451497117806663  0.1117512089141362  0.2501021923425122
  0.8870044521110338  0.5576095704939491  0.3336996928768040
  0.0022103218737161 -0.0015342971419055  0.9169320043111385
