Cu
 1.0000000000000000
     7.6685730419681093    0.0000000000000000    0.0000000000000000
     3.8342865209840546    6.6411790651208911    0.0000000000000000
     0.0000000000000000    0.0000000000000000   25.0454546774459672
 Cu 
 108
Direct
  0.1092011116863020  0.1108434718547456  0.0007523066182204
  0.0649287817376530  0.7331739984121379  0.6674626149197026
  0.7327083893789930  0.4027389121483678  0.6671566253369055
  0.3998935749948844  0.3995058751214183  0.6667071810222944
  0.0668111033017389  0.4019867937859116  0.6668440110773207
  0.7341382498917282  0.0667851810465027  0.6664069571733531
  0.3986243977275445  0.0644442862116208  0.6673017505498826
  0.0652831030564668  0.0644055843309807  0.6660908582970934
  0.6253237083323098  0.9542717304686587  0.5840419284113070
  0.2883499066949430  0.9549956056548552  0.5828138986424896
  0.9543911518950771  0.9556306233857033  0.5834752822337670
  0.6233255629520505  0.6249705995006872  0.5827819785997700
  0.2894031356622351  0.6229782937859060  0.5839457467405904
  0.9569316536709589  0.6200107820030873  0.5830831338749185
  0.6235793314981273  0.2904705848696767  0.5838087636559752
  0.2863994539122339  0.2894897267289286  0.5832082097589367
  0.9560291555751050  0.2870070883302991  0.5834850655510302
  0.8427481453929867  0.8437042978218492  0.5006796478638000
  0.5086926736956691  0.8473667646174443  0.5007572562265157
  0.1739499704235536  0.8471577743737515  0.4993381072044997
  0.8450460460516737  0.5102636095842596  0.4999992511976809
  0.5119204167616450  0.5113939585870940  0.4993392253705377
  0.1756647896449906  0.5138482284249597  0.4996435171777267
  0.8473063451579479  0.1767503733982626  0.4995291224154081
  0.4006295767631086  0.7339727323405448  0.6667226237377730
  0.5116667063272150  0.1804168193247303  0.5006186654992479
  0.7329808375669942  0.7313582417081301  0.6670861007393559
  0.5117015592342208  0.1788518644945155  0.7493236349799394
  0.0691788247360188  0.7329336762935895  0.9169324250071377
  0.7322437591682716  0.3980541260283563  0.9160414350120036
  0.4014306599567554  0.4010528639332036  0.9173826641498296
  0.0659891075089175  0.4005788761122221  0.9173670691865106
  0.7342194326942323  0.0671666805289040  0.9166494865971847
  0.4022947031374994  0.0642280684551688  0.9162401348031602
  0.0667656177208645  0.0642960199045615  0.9159131146689702
  0.6239524560292280  0.9534218064726953  0.8325807646991892
  0.2899188566778562  0.9541299661575604  0.8326608990007032
  0.9563141135560997  0.9582048477669936  0.8338246783928787
  0.6229358831746841  0.6214211449003419  0.8336625623388745
  0.2884750923349232  0.6208447523591201  0.8335145450409392
  0.9555315416122625  0.6226876454982919  0.8329183416534154
  0.6195129527014467  0.2913195081240509  0.8335905984708916
  0.2868393600970484  0.2898490892199272  0.8329825102408935
  0.9520277251598868  0.2912876809927786  0.8335097219698481
  0.8424680032030778  0.8471961537935397  0.7507697757912843
  0.5098861280192534  0.8442069155677069  0.7495297765494463
  0.1770279597416536  0.8456324116129891  0.7507071042835133
  0.8428908187147384  0.5092138335218978  0.7506762661808397
  0.5101134075275181  0.5087880514998050  0.7493027429848073
  0.1754729677463370  0.5120740043091268  0.7499737263305019
  0.8466710294498058  0.1781616857078086  0.7493952902872514
  0.1765287781667288  0.1803877457303055  0.7502910647633504
  0.1796435785128259  0.1791713869242031  0.5004990838568927
  0.6645719047513086  0.6660759866131724  0.4165333942525470
  0.3341425398959497  0.6659926884053355  0.4164236149093054
  0.6650562011193175  0.3358693890852135  0.1666854120699593
  0.3338775893599641  0.3324279968144869  0.1667880205743551
  0.0000904049753543  0.3346543577319609  0.1669443697978203
  0.6678173738549018  0.0018948759079563  0.1667170831641740
  0.3342639947276312 -0.0003133953578667  0.1659015637286646
 -0.0001475502972637  0.0006548239424955  0.1658852650381987
  0.5523915189166577  0.8912639279712332  0.0832220813026316
  0.2207454220282366  0.8884940120374299  0.0838471720360160
  0.8900662013670706  0.8864073675022320  0.0826245780202065
  0.5577971046795150  0.5561817020194181  0.0833108351777347
  0.2208004582820702  0.5537810315361036  0.0829100020051338
  0.8885942379108552  0.5543889999434377  0.0827729521156451
  0.5534206323659872  0.2224389210655995  0.0840969679176095
  0.2220671616339154  0.2235485713082078  0.0830708871366838
  0.8867103327994807  0.2247107999530328  0.0835886971799731
  0.7765617549726933  0.7784884421964576 -0.0001753839383392
  0.4448361105796116  0.7780909631128469 -0.0001954497851667
  0.1090851443516059  0.7783324367853537  0.0003088263259495
  0.7808963182559403  0.4423544148936511 -0.0006342167790498
  0.4464739759711375  0.4437576447660375 -0.0005595585255284
  0.1105424166725147  0.4448821924523776 -0.0006653194712386
  0.7758326940214096  0.1111929917539614  0.0004648479089391
  0.4448970200019525  0.1101055586034276  0.0000710998772568
 -0.0013176758406387  0.6651544123857919  0.1660626280617609
  0.3322132614874088  0.6692111624851533  0.1671393441084122
  0.6640533123616527  0.6683570235707854  0.1670857542634391
  0.1092951597197358  0.1140808555397481  0.2496771595143450
  0.0015078474975534  0.6673610691440293  0.4161778414927527
  0.6654395626424812  0.3356433892403293  0.4172780577550894
  0.3311192812397545  0.3338345089934227  0.4164102319198541
 -0.0001726289258134  0.3355007381965069  0.4171957217097174
  0.6659616276401046  0.0002666636955956  0.4173712457161556
  0.3321548920194962 -0.0004648299832277  0.4166918251721494
 -0.0015180771809787  0.0011329421762314  0.4160787801627103
  0.5526982355450371  0.8903060570028480  0.3331030238487258
  0.2213814123356291  0.8916884465101995  0.3329953314269777
  0.8898361696531604  0.8891488553795359  0.3329895034939505
  0.5588538940730708  0.5538448040007313  0.3325532679226129
  0.3976050590374727  0.7340517162753725  0.9170722553426907
  0.2243298247660341  0.5532723742960701  0.3325532477568450
  0.5579313039561881  0.2226462350027663  0.3338844417336077
  0.2238558741871544  0.2211183905282607  0.3332080422488670
  0.8902732479310002  0.2234074211013027  0.3330714325322217
  0.7764293425941418  0.7799977322661633  0.2499206248324562
  0.4413772866485806  0.7797453459453300  0.2493419862745838
  0.1109991880652363  0.7768388383398965  0.2504668587746552
  0.7763570428669231  0.4467954973048499  0.2492737054502338
  0.4460635508368466  0.4457393922562283  0.2492335945386638
  0.1101151356891876  0.4463673140040991  0.2497272344934816
  0.7810004061419421  0.1085533974506357  0.2493454903291632
  0.4434279556920826  0.1137425030674723  0.2503138220511001
  0.8887664637139364  0.5535604946374043  0.3335554921053231
  0.7317960090747413  0.7322510896923677  0.9160698857300502
