Cu
 1.0000000000000000
     7.6685730419681093    0.0000000000000000    0.0000000000000000
     3.8342865209840546    6.6411790651208911    0.0000000000000000
     0.0000000000000000    0.0000000000000000   54.2651518011329301
 Cu 
 234
Direct
  0.0000000000000000  0.0000000000000000  0.0000000000000000
  0.4444444444444444  0.4444444444444444  0.6153846153846154
  0.7777777777777778  0.4444444444444444  0.6153846153846154
  0.1111111111111111  0.7777777777777777  0.6153846153846154
  0.4444444444444444  0.7777777777777777  0.6153846153846154
  0.7777777777777778  0.7777777777777777  0.6153846153846154
  0.2222222222222222  0.2222222222222222  0.6538461538461539
  0.5555555555555556  0.2222222222222222  0.6538461538461539
  0.8888888888888886  0.2222222222222222  0.6538461538461539
  0.2222222222222222  0.5555555555555556  0.6538461538461539
  0.5555555555555555  0.5555555555555556  0.6538461538461539
  0.8888888888888887  0.5555555555555556  0.6538461538461539
  0.2222222222222223  0.8888888888888887  0.6538461538461539
  0.5555555555555556  0.8888888888888887  0.6538461538461539
  0.8888888888888888  0.8888888888888887  0.6538461538461539
  0.0000000000000000  0.0000000000000000  0.6923076923076922
  0.3333333333333333  0.0000000000000000  0.6923076923076922
  0.6666666666666666  0.0000000000000000  0.6923076923076922
  0.0000000000000000  0.3333333333333333  0.6923076923076922
  0.3333333333333333  0.3333333333333333  0.6923076923076922
  0.6666666666666666  0.3333333333333333  0.6923076923076922
  0.0000000000000000  0.6666666666666666  0.6923076923076922
  0.3333333333333333  0.6666666666666666  0.6923076923076922
  0.6666666666666666  0.6666666666666666  0.6923076923076922
  0.1111111111111111  0.1111111111111111  0.7307692307692306
  0.4444444444444443  0.1111111111111111  0.7307692307692306
  0.1111111111111111  0.4444444444444444  0.6153846153846154
  0.7777777777777778  0.1111111111111111  0.7307692307692306
  0.7777777777777778  0.1111111111111111  0.6153846153846154
  0.1111111111111111  0.1111111111111111  0.6153846153846154
  0.8888888888888886  0.2222222222222222  0.4999999999999999
  0.2222222222222222  0.5555555555555556  0.4999999999999999
  0.5555555555555555  0.5555555555555556  0.4999999999999999
  0.8888888888888887  0.5555555555555556  0.4999999999999999
  0.2222222222222223  0.8888888888888887  0.4999999999999999
  0.5555555555555556  0.8888888888888887  0.4999999999999999
  0.8888888888888888  0.8888888888888887  0.4999999999999999
  0.1111111111111111  0.1111111111111111  0.5384615384615383
  0.4444444444444443  0.1111111111111111  0.5384615384615383
  0.7777777777777778  0.1111111111111111  0.5384615384615383
  0.1111111111111111  0.4444444444444444  0.5384615384615383
  0.4444444444444444  0.4444444444444444  0.5384615384615383
  0.7777777777777778  0.4444444444444444  0.5384615384615383
  0.1111111111111111  0.7777777777777777  0.5384615384615383
  0.4444444444444444  0.7777777777777777  0.5384615384615383
  0.7777777777777778  0.7777777777777777  0.5384615384615383
  0.0000000000000000  0.0000000000000000  0.5769230769230769
  0.3333333333333333  0.0000000000000000  0.5769230769230769
  0.6666666666666666  0.0000000000000000  0.5769230769230769
  0.0000000000000000  0.3333333333333333  0.5769230769230769
  0.3333333333333333  0.3333333333333333  0.5769230769230769
  0.6666666666666666  0.3333333333333333  0.5769230769230769
  0.0000000000000000  0.6666666666666666  0.5769230769230769
  0.3333333333333333  0.6666666666666666  0.5769230769230769
  0.6666666666666666  0.6666666666666666  0.5769230769230769
  0.4444444444444443  0.1111111111111111  0.6153846153846154
  0.1111111111111111  0.4444444444444444  0.7307692307692306
  0.4444444444444444  0.4444444444444444  0.7307692307692306
  0.7777777777777778  0.4444444444444444  0.7307692307692306
  0.2222222222222222  0.2222222222222222  0.8846153846153847
  0.5555555555555556  0.2222222222222222  0.8846153846153847
  0.8888888888888886  0.2222222222222222  0.8846153846153847
  0.2222222222222222  0.5555555555555556  0.8846153846153847
  0.5555555555555555  0.5555555555555556  0.8846153846153847
  0.8888888888888887  0.5555555555555556  0.8846153846153847
  0.2222222222222223  0.8888888888888887  0.8846153846153847
  0.5555555555555556  0.8888888888888887  0.8846153846153847
  0.8888888888888888  0.8888888888888887  0.8846153846153847
  0.0000000000000000  0.0000000000000000  0.9230769230769230
  0.3333333333333333  0.0000000000000000  0.9230769230769230
  0.6666666666666666  0.0000000000000000  0.9230769230769230
  0.0000000000000000  0.3333333333333333  0.9230769230769230
  0.3333333333333333  0.3333333333333333  0.9230769230769230
  0.6666666666666666  0.3333333333333333  0.9230769230769230
  0.0000000000000000  0.6666666666666666  0.9230769230769230
  0.3333333333333333  0.6666666666666666  0.9230769230769230
  0.6666666666666666  0.6666666666666666  0.9230769230769230
  0.1111111111111111  0.1111111111111111  0.9615384615384613
  0.4444444444444443  0.1111111111111111  0.9615384615384613
  0.7777777777777778  0.1111111111111111  0.9615384615384613
  0.1111111111111111  0.4444444444444444  0.9615384615384613
  0.4444444444444444  0.4444444444444444  0.9615384615384613
  0.7777777777777778  0.4444444444444444  0.9615384615384613
  0.1111111111111111  0.7777777777777777  0.9615384615384613
  0.7777777777777778  0.7777777777777777  0.8461538461538460
  0.4444444444444444  0.7777777777777777  0.8461538461538460
  0.1111111111111111  0.7777777777777777  0.8461538461538460
  0.7777777777777778  0.4444444444444444  0.8461538461538460
  0.1111111111111111  0.7777777777777777  0.7307692307692306
  0.4444444444444444  0.7777777777777777  0.7307692307692306
  0.7777777777777778  0.7777777777777777  0.7307692307692306
  0.2222222222222222  0.2222222222222222  0.7692307692307693
  0.5555555555555556  0.2222222222222222  0.7692307692307693
  0.8888888888888886  0.2222222222222222  0.7692307692307693
  0.2222222222222222  0.5555555555555556  0.7692307692307693
  0.5555555555555555  0.5555555555555556  0.7692307692307693
  0.8888888888888887  0.5555555555555556  0.7692307692307693
  0.2222222222222223  0.8888888888888887  0.7692307692307693
  0.5555555555555556  0.8888888888888887  0.7692307692307693
  0.8888888888888888  0.8888888888888887  0.7692307692307693
  0.5555555555555556  0.2222222222222222  0.4999999999999999
  0.0000000000000000  0.0000000000000000  0.8076923076923077
  0.6666666666666666  0.0000000000000000  0.8076923076923077
  0.0000000000000000  0.3333333333333333  0.8076923076923077
  0.3333333333333333  0.3333333333333333  0.8076923076923077
  0.6666666666666666  0.3333333333333333  0.8076923076923077
  0.0000000000000000  0.6666666666666666  0.8076923076923077
  0.3333333333333333  0.6666666666666666  0.8076923076923077
  0.6666666666666666  0.6666666666666666  0.8076923076923077
  0.1111111111111111  0.1111111111111111  0.8461538461538460
  0.4444444444444443  0.1111111111111111  0.8461538461538460
  0.7777777777777778  0.1111111111111111  0.8461538461538460
  0.1111111111111111  0.4444444444444444  0.8461538461538460
  0.4444444444444444  0.4444444444444444  0.8461538461538460
  0.3333333333333333  0.0000000000000000  0.8076923076923077
  0.2222222222222222  0.2222222222222222  0.4999999999999999
  0.6666666666666666  0.6666666666666666  0.4615384615384615
  0.3333333333333333  0.6666666666666666  0.4615384615384615
  0.3333333333333333  0.3333333333333333  0.1153846153846154
  0.6666666666666666  0.3333333333333333  0.1153846153846154
  0.0000000000000000  0.6666666666666666  0.1153846153846154
  0.3333333333333333  0.6666666666666666  0.1153846153846154
  0.6666666666666666  0.6666666666666666  0.1153846153846154
  0.1111111111111111  0.1111111111111111  0.1538461538461539
  0.4444444444444443  0.1111111111111111  0.1538461538461539
  0.7777777777777778  0.1111111111111111  0.1538461538461539
  0.1111111111111111  0.4444444444444444  0.1538461538461539
  0.4444444444444444  0.4444444444444444  0.1538461538461539
  0.7777777777777778  0.4444444444444444  0.1538461538461539
  0.1111111111111111  0.7777777777777777  0.1538461538461539
  0.4444444444444444  0.7777777777777777  0.1538461538461539
  0.7777777777777778  0.7777777777777777  0.1538461538461539
  0.2222222222222222  0.2222222222222222  0.1923076923076923
  0.5555555555555556  0.2222222222222222  0.1923076923076923
  0.8888888888888886  0.2222222222222222  0.1923076923076923
  0.2222222222222222  0.5555555555555556  0.1923076923076923
  0.5555555555555555  0.5555555555555556  0.1923076923076923
  0.8888888888888887  0.5555555555555556  0.1923076923076923
  0.2222222222222223  0.8888888888888887  0.1923076923076923
  0.5555555555555556  0.8888888888888887  0.1923076923076923
  0.8888888888888888  0.8888888888888887  0.1923076923076923
  0.0000000000000000  0.0000000000000000  0.2307692307692308
  0.3333333333333333  0.0000000000000000  0.2307692307692308
  0.0000000000000000  0.3333333333333333  0.1153846153846154
  0.6666666666666666  0.0000000000000000  0.1153846153846154
  0.3333333333333333  0.0000000000000000  0.1153846153846154
  0.0000000000000000  0.0000000000000000  0.1153846153846154
  0.3333333333333333  0.0000000000000000  0.0000000000000000
  0.6666666666666666  0.0000000000000000  0.0000000000000000
  0.0000000000000000  0.3333333333333333  0.0000000000000000
  0.3333333333333333  0.3333333333333333  0.0000000000000000
  0.6666666666666666  0.3333333333333333  0.0000000000000000
  0.0000000000000000  0.6666666666666666  0.0000000000000000
  0.3333333333333333  0.6666666666666666  0.0000000000000000
  0.6666666666666666  0.6666666666666666  0.0000000000000000
  0.1111111111111111  0.1111111111111111  0.0384615384615385
  0.4444444444444443  0.1111111111111111  0.0384615384615385
  0.7777777777777778  0.1111111111111111  0.0384615384615385
  0.1111111111111111  0.4444444444444444  0.0384615384615385
  0.6666666666666666  0.0000000000000000  0.2307692307692308
  0.4444444444444444  0.4444444444444444  0.0384615384615385
  0.1111111111111111  0.7777777777777777  0.0384615384615385
  0.4444444444444444  0.7777777777777777  0.0384615384615385
  0.7777777777777778  0.7777777777777777  0.0384615384615385
  0.2222222222222222  0.2222222222222222  0.0769230769230769
  0.5555555555555556  0.2222222222222222  0.0769230769230769
  0.8888888888888886  0.2222222222222222  0.0769230769230769
  0.2222222222222222  0.5555555555555556  0.0769230769230769
  0.5555555555555555  0.5555555555555556  0.0769230769230769
  0.8888888888888887  0.5555555555555556  0.0769230769230769
  0.2222222222222223  0.8888888888888887  0.0769230769230769
  0.5555555555555556  0.8888888888888887  0.0769230769230769
  0.8888888888888888  0.8888888888888887  0.0769230769230769
  0.7777777777777778  0.4444444444444444  0.0384615384615385
  0.4444444444444444  0.7777777777777777  0.9615384615384613
  0.0000000000000000  0.3333333333333333  0.2307692307692308
  0.6666666666666666  0.3333333333333333  0.2307692307692308
  0.2222222222222222  0.2222222222222222  0.3846153846153846
  0.5555555555555556  0.2222222222222222  0.3846153846153846
  0.8888888888888886  0.2222222222222222  0.3846153846153846
  0.2222222222222222  0.5555555555555556  0.3846153846153846
  0.5555555555555555  0.5555555555555556  0.3846153846153846
  0.8888888888888887  0.5555555555555556  0.3846153846153846
  0.2222222222222223  0.8888888888888887  0.3846153846153846
  0.5555555555555556  0.8888888888888887  0.3846153846153846
  0.8888888888888888  0.8888888888888887  0.3846153846153846
  0.1111111111111111  0.1111111111111111  0.4230769230769230
  0.4444444444444443  0.1111111111111111  0.4230769230769230
  0.7777777777777778  0.1111111111111111  0.4230769230769230
  0.1111111111111111  0.4444444444444444  0.4230769230769230
  0.4444444444444444  0.4444444444444444  0.4230769230769230
  0.7777777777777778  0.4444444444444444  0.4230769230769230
  0.1111111111111111  0.7777777777777777  0.4230769230769230
  0.4444444444444444  0.7777777777777777  0.4230769230769230
  0.7777777777777778  0.7777777777777777  0.4230769230769230
  0.0000000000000000  0.0000000000000000  0.4615384615384615
  0.3333333333333333  0.0000000000000000  0.4615384615384615
  0.6666666666666666  0.0000000000000000  0.4615384615384615
  0.0000000000000000  0.3333333333333333  0.4615384615384615
  0.3333333333333333  0.3333333333333333  0.4615384615384615
  0.6666666666666666  0.3333333333333333  0.4615384615384615
  0.0000000000000000  0.6666666666666666  0.4615384615384615
  0.6666666666666666  0.6666666666666666  0.3461538461538461
  0.3333333333333333  0.6666666666666666  0.3461538461538461
  0.0000000000000000  0.6666666666666666  0.3461538461538461
  0.6666666666666666  0.3333333333333333  0.3461538461538461
  0.0000000000000000  0.6666666666666666  0.2307692307692308
  0.3333333333333333  0.6666666666666666  0.2307692307692308
  0.6666666666666666  0.6666666666666666  0.2307692307692308
  0.1111111111111111  0.1111111111111111  0.2692307692307692
  0.4444444444444443  0.1111111111111111  0.2692307692307692
  0.7777777777777778  0.1111111111111111  0.2692307692307692
  0.1111111111111111  0.4444444444444444  0.2692307692307692
  0.4444444444444444  0.4444444444444444  0.2692307692307692
  0.7777777777777778  0.4444444444444444  0.2692307692307692
  0.1111111111111111  0.7777777777777777  0.2692307692307692
  0.4444444444444444  0.7777777777777777  0.2692307692307692
  0.7777777777777778  0.7777777777777777  0.2692307692307692
  0.3333333333333333  0.3333333333333333  0.2307692307692308
  0.2222222222222222  0.2222222222222222  0.3076923076923077
  0.8888888888888886  0.2222222222222222  0.3076923076923077
  0.2222222222222222  0.5555555555555556  0.3076923076923077
  0.5555555555555555  0.5555555555555556  0.3076923076923077
  0.8888888888888887  0.5555555555555556  0.3076923076923077
  0.2222222222222223  0.8888888888888887  0.3076923076923077
  0.5555555555555556  0.8888888888888887  0.3076923076923077
  0.8888888888888888  0.8888888888888887  0.3076923076923077
  0.0000000000000000  0.0000000000000000  0.3461538461538461
  0.3333333333333333  0.0000000000000000  0.3461538461538461
  0.6666666666666666  0.0000000000000000  0.3461538461538461
  0.0000000000000000  0.3333333333333333  0.3461538461538461
  0.3333333333333333  0.3333333333333333  0.3461538461538461
  0.5555555555555556  0.2222222222222222  0.3076923076923077
  0.7777777777777778  0.7777777777777777  0.9615384615384613
