Generated generic
1.0
    7.66857304    0.00000000    0.00000000
    3.83428652    6.64117907    0.00000000
    0.00000000    0.00000000  400.72727484
 Cu
 1728
Selective dynamics
Direct
    0.27786620    0.16659789    0.00000000 F F F
    0.61119953    0.16659789    0.00000000 F F F
    0.94453286    0.16659789    0.00000000 F F F
    0.27786620    0.49993122    0.00000000 F F F
    0.61119953    0.49993122    0.00000000 F F F
    0.94453286    0.49993122    0.00000000 F F F
    0.27786620    0.83326455    0.00000000 F F F
    0.61119953    0.83326455    0.00000000 F F F
    0.94453286    0.83326455    0.00000000 F F F
    0.05564397    0.27770900    0.00520833 T T T
    0.38897731    0.27770900    0.00520833 T T T
    0.72231064    0.27770900    0.00520833 T T T
    0.05564397    0.61104233    0.00520833 T T T
    0.38897731    0.61104233    0.00520833 T T T
    0.72231064    0.61104233    0.00520833 T T T
    0.05564397    0.94437567    0.00520833 T T T
    0.38897731    0.94437567    0.00520833 T T T
    0.72231064    0.94437567    0.00520833 T T T
    0.16675509    0.05548678    0.01041667 T T T
    0.50008842    0.05548678    0.01041667 T T T
    0.83342175    0.05548678    0.01041667 T T T
    0.16675509    0.38882011    0.01041667 T T T
    0.50008842    0.38882011    0.01041667 T T T
    0.83342175    0.38882011    0.01041667 T T T
    0.16675509    0.72215344    0.01041667 T T T
    0.50008842    0.72215344    0.01041667 T T T
    0.83342175    0.72215344    0.01041667 T T T
    0.27786620    0.16659789    0.01562500 T T T
    0.61119953    0.16659789    0.01562500 T T T
    0.94453286    0.16659789    0.01562500 T T T
    0.27786620    0.49993122    0.01562500 T T T
    0.61119953    0.49993122    0.01562500 T T T
    0.94453286    0.49993122    0.01562500 T T T
    0.27786620    0.83326455    0.01562500 T T T
    0.61119953    0.83326455    0.01562500 T T T
    0.94453286    0.83326455    0.01562500 T T T
    0.05564397    0.27770900    0.02083333 T T T
    0.38897731    0.27770900    0.02083333 T T T
    0.72231064    0.27770900    0.02083333 T T T
    0.05564397    0.61104233    0.02083333 T T T
    0.38897731    0.61104233    0.02083333 T T T
    0.72231064    0.61104233    0.02083333 T T T
    0.05564397    0.94437567    0.02083333 T T T
    0.38897731    0.94437567    0.02083333 T T T
    0.72231064    0.94437567    0.02083333 T T T
    0.16675509    0.05548678    0.02604167 T T T
    0.50008842    0.05548678    0.02604167 T T T
    0.83342175    0.05548678    0.02604167 T T T
    0.16675509    0.38882011    0.02604167 T T T
    0.50008842    0.38882011    0.02604167 T T T
    0.83342175    0.38882011    0.02604167 T T T
    0.16675509    0.72215344    0.02604167 T T T
    0.50008842    0.72215344    0.02604167 T T T
    0.83342175    0.72215344    0.02604167 T T T
    0.27786620    0.16659789    0.03125000 T T T
    0.61119953    0.16659789    0.03125000 T T T
    0.94453286    0.16659789    0.03125000 T T T
    0.27786620    0.49993122    0.03125000 T T T
    0.61119953    0.49993122    0.03125000 T T T
    0.94453286    0.49993122    0.03125000 T T T
    0.27786620    0.83326455    0.03125000 T T T
    0.61119953    0.83326455    0.03125000 T T T
    0.94453286    0.83326455    0.03125000 T T T
    0.05564397    0.27770900    0.03645833 T T T
    0.38897731    0.27770900    0.03645833 T T T
    0.72231064    0.27770900    0.03645833 T T T
    0.05564397    0.61104233    0.03645833 T T T
    0.38897731    0.61104233    0.03645833 T T T
    0.72231064    0.61104233    0.03645833 T T T
    0.05564397    0.94437567    0.03645833 T T T
    0.38897731    0.94437567    0.03645833 T T T
    0.72231064    0.94437567    0.03645833 T T T
    0.16675509    0.05548678    0.04166667 T T T
    0.50008842    0.05548678    0.04166667 T T T
    0.83342175    0.05548678    0.04166667 T T T
    0.16675509    0.38882011    0.04166667 T T T
    0.50008842    0.38882011    0.04166667 T T T
    0.83342175    0.38882011    0.04166667 T T T
    0.16675509    0.72215344    0.04166667 T T T
    0.50008842    0.72215344    0.04166667 T T T
    0.83342175    0.72215344    0.04166667 T T T
    0.27786620    0.16659789    0.04687500 T T T
    0.61119953    0.16659789    0.04687500 T T T
    0.94453286    0.16659789    0.04687500 T T T
    0.27786620    0.49993122    0.04687500 T T T
    0.61119953    0.49993122    0.04687500 T T T
    0.94453286    0.49993122    0.04687500 T T T
    0.27786620    0.83326455    0.04687500 T T T
    0.61119953    0.83326455    0.04687500 T T T
    0.94453286    0.83326455    0.04687500 T T T
    0.05564397    0.27770900    0.05208333 T T T
    0.38897731    0.27770900    0.05208333 T T T
    0.72231064    0.27770900    0.05208333 T T T
    0.05564397    0.61104233    0.05208333 T T T
    0.38897731    0.61104233    0.05208333 T T T
    0.72231064    0.61104233    0.05208333 T T T
    0.05564397    0.94437567    0.05208333 T T T
    0.38897731    0.94437567    0.05208333 T T T
    0.72231064    0.94437567    0.05208333 T T T
    0.16675509    0.05548678    0.05729167 T T T
    0.50008842    0.05548678    0.05729167 T T T
    0.83342175    0.05548678    0.05729167 T T T
    0.16675509    0.38882011    0.05729167 T T T
    0.50008842    0.38882011    0.05729167 T T T
    0.83342175    0.38882011    0.05729167 T T T
    0.16675509    0.72215344    0.05729167 T T T
    0.50008842    0.72215344    0.05729167 T T T
    0.83342175    0.72215344    0.05729167 T T T
    0.27786620    0.16659789    0.06250000 T T T
    0.61119953    0.16659789    0.06250000 T T T
    0.94453286    0.16659789    0.06250000 T T T
    0.27786620    0.49993122    0.06250000 T T T
    0.61119953    0.49993122    0.06250000 T T T
    0.94453286    0.49993122    0.06250000 T T T
    0.27786620    0.83326455    0.06250000 T T T
    0.61119953    0.83326455    0.06250000 T T T
    0.94453286    0.83326455    0.06250000 T T T
    0.05564397    0.27770900    0.06770833 T T T
    0.38897731    0.27770900    0.06770833 T T T
    0.72231064    0.27770900    0.06770833 T T T
    0.05564397    0.61104233    0.06770833 T T T
    0.38897731    0.61104233    0.06770833 T T T
    0.72231064    0.61104233    0.06770833 T T T
    0.05564397    0.94437567    0.06770833 T T T
    0.38897731    0.94437567    0.06770833 T T T
    0.72231064    0.94437567    0.06770833 T T T
    0.16675509    0.05548678    0.07291667 T T T
    0.50008842    0.05548678    0.07291667 T T T
    0.83342175    0.05548678    0.07291667 T T T
    0.16675509    0.38882011    0.07291667 T T T
    0.50008842    0.38882011    0.07291667 T T T
    0.83342175    0.38882011    0.07291667 T T T
    0.16675509    0.72215344    0.07291667 T T T
    0.50008842    0.72215344    0.07291667 T T T
    0.83342175    0.72215344    0.07291667 T T T
    0.27786620    0.16659789    0.07812500 T T T
    0.61119953    0.16659789    0.07812500 T T T
    0.94453286    0.16659789    0.07812500 T T T
    0.27786620    0.49993122    0.07812500 T T T
    0.61119953    0.49993122    0.07812500 T T T
    0.94453286    0.49993122    0.07812500 T T T
    0.27786620    0.83326455    0.07812500 T T T
    0.61119953    0.83326455    0.07812500 T T T
    0.94453286    0.83326455    0.07812500 T T T
    0.05564397    0.27770900    0.08333333 T T T
    0.38897731    0.27770900    0.08333333 T T T
    0.72231064    0.27770900    0.08333333 T T T
    0.05564397    0.61104233    0.08333333 T T T
    0.38897731    0.61104233    0.08333333 T T T
    0.72231064    0.61104233    0.08333333 T T T
    0.05564397    0.94437567    0.08333333 T T T
    0.38897731    0.94437567    0.08333333 T T T
    0.72231064    0.94437567    0.08333333 T T T
    0.16675509    0.05548678    0.08854167 T T T
    0.50008842    0.05548678    0.08854167 T T T
    0.83342175    0.05548678    0.08854167 T T T
    0.16675509    0.38882011    0.08854167 T T T
    0.50008842    0.38882011    0.08854167 T T T
    0.83342175    0.38882011    0.08854167 T T T
    0.16675509    0.72215344    0.08854167 T T T
    0.50008842    0.72215344    0.08854167 T T T
    0.83342175    0.72215344    0.08854167 T T T
    0.27786620    0.16659789    0.09375000 T T T
    0.61119953    0.16659789    0.09375000 T T T
    0.94453286    0.16659789    0.09375000 T T T
    0.27786620    0.49993122    0.09375000 T T T
    0.61119953    0.49993122    0.09375000 T T T
    0.94453286    0.49993122    0.09375000 T T T
    0.27786620    0.83326455    0.09375000 T T T
    0.61119953    0.83326455    0.09375000 T T T
    0.94453286    0.83326455    0.09375000 T T T
    0.05564397    0.27770900    0.09895833 T T T
    0.38897731    0.27770900    0.09895833 T T T
    0.72231064    0.27770900    0.09895833 T T T
    0.05564397    0.61104233    0.09895833 T T T
    0.38897731    0.61104233    0.09895833 T T T
    0.72231064    0.61104233    0.09895833 T T T
    0.05564397    0.94437567    0.09895833 T T T
    0.38897731    0.94437567    0.09895833 T T T
    0.72231064    0.94437567    0.09895833 T T T
    0.16675509    0.05548678    0.10416667 T T T
    0.50008842    0.05548678    0.10416667 T T T
    0.83342175    0.05548678    0.10416667 T T T
    0.16675509    0.38882011    0.10416667 T T T
    0.50008842    0.38882011    0.10416667 T T T
    0.83342175    0.38882011    0.10416667 T T T
    0.16675509    0.72215344    0.10416667 T T T
    0.50008842    0.72215344    0.10416667 T T T
    0.83342175    0.72215344    0.10416667 T T T
    0.27786620    0.16659789    0.10937500 T T T
    0.61119953    0.16659789    0.10937500 T T T
    0.94453286    0.16659789    0.10937500 T T T
    0.27786620    0.49993122    0.10937500 T T T
    0.61119953    0.49993122    0.10937500 T T T
    0.94453286    0.49993122    0.10937500 T T T
    0.27786620    0.83326455    0.10937500 T T T
    0.61119953    0.83326455    0.10937500 T T T
    0.94453286    0.83326455    0.10937500 T T T
    0.05564397    0.27770900    0.11458333 T T T
    0.38897731    0.27770900    0.11458333 T T T
    0.72231064    0.27770900    0.11458333 T T T
    0.05564397    0.61104233    0.11458333 T T T
    0.38897731    0.61104233    0.11458333 T T T
    0.72231064    0.61104233    0.11458333 T T T
    0.05564397    0.94437567    0.11458333 T T T
    0.38897731    0.94437567    0.11458333 T T T
    0.72231064    0.94437567    0.11458333 T T T
    0.16675509    0.05548678    0.11979167 T T T
    0.50008842    0.05548678    0.11979167 T T T
    0.83342175    0.05548678    0.11979167 T T T
    0.16675509    0.38882011    0.11979167 T T T
    0.50008842    0.38882011    0.11979167 T T T
    0.83342175    0.38882011    0.11979167 T T T
    0.16675509    0.72215344    0.11979167 T T T
    0.50008842    0.72215344    0.11979167 T T T
    0.83342175    0.72215344    0.11979167 T T T
    0.27786620    0.16659789    0.12500000 T T T
    0.61119953    0.16659789    0.12500000 T T T
    0.94453286    0.16659789    0.12500000 T T T
    0.27786620    0.49993122    0.12500000 T T T
    0.61119953    0.49993122    0.12500000 T T T
    0.94453286    0.49993122    0.12500000 T T T
    0.27786620    0.83326455    0.12500000 T T T
    0.61119953    0.83326455    0.12500000 T T T
    0.94453286    0.83326455    0.12500000 T T T
    0.05564397    0.27770900    0.13020833 T T T
    0.38897731    0.27770900    0.13020833 T T T
    0.72231064    0.27770900    0.13020833 T T T
    0.05564397    0.61104233    0.13020833 T T T
    0.38897731    0.61104233    0.13020833 T T T
    0.72231064    0.61104233    0.13020833 T T T
    0.05564397    0.94437567    0.13020833 T T T
    0.38897731    0.94437567    0.13020833 T T T
    0.72231064    0.94437567    0.13020833 T T T
    0.16675509    0.05548678    0.13541667 T T T
    0.50008842    0.05548678    0.13541667 T T T
    0.83342175    0.05548678    0.13541667 T T T
    0.16675509    0.38882011    0.13541667 T T T
    0.50008842    0.38882011    0.13541667 T T T
    0.83342175    0.38882011    0.13541667 T T T
    0.16675509    0.72215344    0.13541667 T T T
    0.50008842    0.72215344    0.13541667 T T T
    0.83342175    0.72215344    0.13541667 T T T
    0.27786620    0.16659789    0.14062500 T T T
    0.61119953    0.16659789    0.14062500 T T T
    0.94453286    0.16659789    0.14062500 T T T
    0.27786620    0.49993122    0.14062500 T T T
    0.61119953    0.49993122    0.14062500 T T T
    0.94453286    0.49993122    0.14062500 T T T
    0.27786620    0.83326455    0.14062500 T T T
    0.61119953    0.83326455    0.14062500 T T T
    0.94453286    0.83326455    0.14062500 T T T
    0.05564397    0.27770900    0.14583333 T T T
    0.38897731    0.27770900    0.14583333 T T T
    0.72231064    0.27770900    0.14583333 T T T
    0.05564397    0.61104233    0.14583333 T T T
    0.38897731    0.61104233    0.14583333 T T T
    0.72231064    0.61104233    0.14583333 T T T
    0.05564397    0.94437567    0.14583333 T T T
    0.38897731    0.94437567    0.14583333 T T T
    0.72231064    0.94437567    0.14583333 T T T
    0.16675509    0.05548678    0.15104167 T T T
    0.50008842    0.05548678    0.15104167 T T T
    0.83342175    0.05548678    0.15104167 T T T
    0.16675509    0.38882011    0.15104167 T T T
    0.50008842    0.38882011    0.15104167 T T T
    0.83342175    0.38882011    0.15104167 T T T
    0.16675509    0.72215344    0.15104167 T T T
    0.50008842    0.72215344    0.15104167 T T T
    0.83342175    0.72215344    0.15104167 T T T
    0.27786620    0.16659789    0.15625000 T T T
    0.61119953    0.16659789    0.15625000 T T T
    0.94453286    0.16659789    0.15625000 T T T
    0.27786620    0.49993122    0.15625000 T T T
    0.61119953    0.49993122    0.15625000 T T T
    0.94453286    0.49993122    0.15625000 T T T
    0.27786620    0.83326455    0.15625000 T T T
    0.61119953    0.83326455    0.15625000 T T T
    0.94453286    0.83326455    0.15625000 T T T
    0.05564397    0.27770900    0.16145833 T T T
    0.38897731    0.27770900    0.16145833 T T T
    0.72231064    0.27770900    0.16145833 T T T
    0.05564397    0.61104233    0.16145833 T T T
    0.38897731    0.61104233    0.16145833 T T T
    0.72231064    0.61104233    0.16145833 T T T
    0.05564397    0.94437567    0.16145833 T T T
    0.38897731    0.94437567    0.16145833 T T T
    0.72231064    0.94437567    0.16145833 T T T
    0.16675509    0.05548678    0.16666667 T T T
    0.50008842    0.05548678    0.16666667 T T T
    0.83342175    0.05548678    0.16666667 T T T
    0.16675509    0.38882011    0.16666667 T T T
    0.50008842    0.38882011    0.16666667 T T T
    0.83342175    0.38882011    0.16666667 T T T
    0.16675509    0.72215344    0.16666667 T T T
    0.50008842    0.72215344    0.16666667 T T T
    0.83342175    0.72215344    0.16666667 T T T
    0.27786620    0.16659789    0.17187500 T T T
    0.61119953    0.16659789    0.17187500 T T T
    0.94453286    0.16659789    0.17187500 T T T
    0.27786620    0.49993122    0.17187500 T T T
    0.61119953    0.49993122    0.17187500 T T T
    0.94453286    0.49993122    0.17187500 T T T
    0.27786620    0.83326455    0.17187500 T T T
    0.61119953    0.83326455    0.17187500 T T T
    0.94453286    0.83326455    0.17187500 T T T
    0.05564397    0.27770900    0.17708333 T T T
    0.38897731    0.27770900    0.17708333 T T T
    0.72231064    0.27770900    0.17708333 T T T
    0.05564397    0.61104233    0.17708333 T T T
    0.38897731    0.61104233    0.17708333 T T T
    0.72231064    0.61104233    0.17708333 T T T
    0.05564397    0.94437567    0.17708333 T T T
    0.38897731    0.94437567    0.17708333 T T T
    0.72231064    0.94437567    0.17708333 T T T
    0.16675509    0.05548678    0.18229167 T T T
    0.50008842    0.05548678    0.18229167 T T T
    0.83342175    0.05548678    0.18229167 T T T
    0.16675509    0.38882011    0.18229167 T T T
    0.50008842    0.38882011    0.18229167 T T T
    0.83342175    0.38882011    0.18229167 T T T
    0.16675509    0.72215344    0.18229167 T T T
    0.50008842    0.72215344    0.18229167 T T T
    0.83342175    0.72215344    0.18229167 T T T
    0.27786620    0.16659789    0.18750000 T T T
    0.61119953    0.16659789    0.18750000 T T T
    0.94453286    0.16659789    0.18750000 T T T
    0.27786620    0.49993122    0.18750000 T T T
    0.61119953    0.49993122    0.18750000 T T T
    0.94453286    0.49993122    0.18750000 T T T
    0.27786620    0.83326455    0.18750000 T T T
    0.61119953    0.83326455    0.18750000 T T T
    0.94453286    0.83326455    0.18750000 T T T
    0.05564397    0.27770900    0.19270833 T T T
    0.38897731    0.27770900    0.19270833 T T T
    0.72231064    0.27770900    0.19270833 T T T
    0.05564397    0.61104233    0.19270833 T T T
    0.38897731    0.61104233    0.19270833 T T T
    0.72231064    0.61104233    0.19270833 T T T
    0.05564397    0.94437567    0.19270833 T T T
    0.38897731    0.94437567    0.19270833 T T T
    0.72231064    0.94437567    0.19270833 T T T
    0.16675509    0.05548678    0.19791667 T T T
    0.50008842    0.05548678    0.19791667 T T T
    0.83342175    0.05548678    0.19791667 T T T
    0.16675509    0.38882011    0.19791667 T T T
    0.50008842    0.38882011    0.19791667 T T T
    0.83342175    0.38882011    0.19791667 T T T
    0.16675509    0.72215344    0.19791667 T T T
    0.50008842    0.72215344    0.19791667 T T T
    0.83342175    0.72215344    0.19791667 T T T
    0.27786620    0.16659789    0.20312500 T T T
    0.61119953    0.16659789    0.20312500 T T T
    0.94453286    0.16659789    0.20312500 T T T
    0.27786620    0.49993122    0.20312500 T T T
    0.61119953    0.49993122    0.20312500 T T T
    0.94453286    0.49993122    0.20312500 T T T
    0.27786620    0.83326455    0.20312500 T T T
    0.61119953    0.83326455    0.20312500 T T T
    0.94453286    0.83326455    0.20312500 T T T
    0.05564397    0.27770900    0.20833333 T T T
    0.38897731    0.27770900    0.20833333 T T T
    0.72231064    0.27770900    0.20833333 T T T
    0.05564397    0.61104233    0.20833333 T T T
    0.38897731    0.61104233    0.20833333 T T T
    0.72231064    0.61104233    0.20833333 T T T
    0.05564397    0.94437567    0.20833333 T T T
    0.38897731    0.94437567    0.20833333 T T T
    0.72231064    0.94437567    0.20833333 T T T
    0.16675509    0.05548678    0.21354167 T T T
    0.50008842    0.05548678    0.21354167 T T T
    0.83342175    0.05548678    0.21354167 T T T
    0.16675509    0.38882011    0.21354167 T T T
    0.50008842    0.38882011    0.21354167 T T T
    0.83342175    0.38882011    0.21354167 T T T
    0.16675509    0.72215344    0.21354167 T T T
    0.50008842    0.72215344    0.21354167 T T T
    0.83342175    0.72215344    0.21354167 T T T
    0.27786620    0.16659789    0.21875000 T T T
    0.61119953    0.16659789    0.21875000 T T T
    0.94453286    0.16659789    0.21875000 T T T
    0.27786620    0.49993122    0.21875000 T T T
    0.61119953    0.49993122    0.21875000 T T T
    0.94453286    0.49993122    0.21875000 T T T
    0.27786620    0.83326455    0.21875000 T T T
    0.61119953    0.83326455    0.21875000 T T T
    0.94453286    0.83326455    0.21875000 T T T
    0.05564397    0.27770900    0.22395833 T T T
    0.38897731    0.27770900    0.22395833 T T T
    0.72231064    0.27770900    0.22395833 T T T
    0.05564397    0.61104233    0.22395833 T T T
    0.38897731    0.61104233    0.22395833 T T T
    0.72231064    0.61104233    0.22395833 T T T
    0.05564397    0.94437567    0.22395833 T T T
    0.38897731    0.94437567    0.22395833 T T T
    0.72231064    0.94437567    0.22395833 T T T
    0.16675509    0.05548678    0.22916667 T T T
    0.50008842    0.05548678    0.22916667 T T T
    0.83342175    0.05548678    0.22916667 T T T
    0.16675509    0.38882011    0.22916667 T T T
    0.50008842    0.38882011    0.22916667 T T T
    0.83342175    0.38882011    0.22916667 T T T
    0.16675509    0.72215344    0.22916667 T T T
    0.50008842    0.72215344    0.22916667 T T T
    0.83342175    0.72215344    0.22916667 T T T
    0.27786620    0.16659789    0.23437500 T T T
    0.61119953    0.16659789    0.23437500 T T T
    0.94453286    0.16659789    0.23437500 T T T
    0.27786620    0.49993122    0.23437500 T T T
    0.61119953    0.49993122    0.23437500 T T T
    0.94453286    0.49993122    0.23437500 T T T
    0.27786620    0.83326455    0.23437500 T T T
    0.61119953    0.83326455    0.23437500 T T T
    0.94453286    0.83326455    0.23437500 T T T
    0.05564397    0.27770900    0.23958333 T T T
    0.38897731    0.27770900    0.23958333 T T T
    0.72231064    0.27770900    0.23958333 T T T
    0.05564397    0.61104233    0.23958333 T T T
    0.38897731    0.61104233    0.23958333 T T T
    0.72231064    0.61104233    0.23958333 T T T
    0.05564397    0.94437567    0.23958333 T T T
    0.38897731    0.94437567    0.23958333 T T T
    0.72231064    0.94437567    0.23958333 T T T
    0.16675509    0.05548678    0.24479167 T T T
    0.50008842    0.05548678    0.24479167 T T T
    0.83342175    0.05548678    0.24479167 T T T
    0.16675509    0.38882011    0.24479167 T T T
    0.50008842    0.38882011    0.24479167 T T T
    0.83342175    0.38882011    0.24479167 T T T
    0.16675509    0.72215344    0.24479167 T T T
    0.50008842    0.72215344    0.24479167 T T T
    0.83342175    0.72215344    0.24479167 T T T
    0.94447430    0.94460001    0.25000000 T T T
    0.61114096    0.94460001    0.25000000 T T T
    0.27780763    0.94460001    0.25000000 T T T
    0.94447430    0.61126668    0.25000000 T T T
    0.61114096    0.61126668    0.25000000 T T T
    0.27780763    0.61126668    0.25000000 T T T
    0.94447430    0.27793334    0.25000000 T T T
    0.61114096    0.27793334    0.25000000 T T T
    0.27780763    0.27793334    0.25000000 T T T
    0.16669652    0.83348890    0.25520833 T T T
    0.83336318    0.83348890    0.25520833 T T T
    0.50002985    0.83348890    0.25520833 T T T
    0.16669652    0.50015557    0.25520833 T T T
    0.83336318    0.50015557    0.25520833 T T T
    0.50002985    0.50015557    0.25520833 T T T
    0.16669652    0.16682223    0.25520833 T T T
    0.83336318    0.16682223    0.25520833 T T T
    0.50002985    0.16682223    0.25520833 T T T
    0.05558541    0.05571112    0.26041667 T T T
    0.72225207    0.05571112    0.26041667 T T T
    0.38891874    0.05571112    0.26041667 T T T
    0.05558541    0.72237779    0.26041667 T T T
    0.72225207    0.72237779    0.26041667 T T T
    0.38891874    0.72237779    0.26041667 T T T
    0.05558541    0.38904445    0.26041667 T T T
    0.72225207    0.38904445    0.26041667 T T T
    0.38891874    0.38904445    0.26041667 T T T
    0.94447430    0.94460001    0.26562500 T T T
    0.61114096    0.94460001    0.26562500 T T T
    0.27780763    0.94460001    0.26562500 T T T
    0.94447430    0.61126668    0.26562500 T T T
    0.61114096    0.61126668    0.26562500 T T T
    0.27780763    0.61126668    0.26562500 T T T
    0.94447430    0.27793334    0.26562500 T T T
    0.61114096    0.27793334    0.26562500 T T T
    0.27780763    0.27793334    0.26562500 T T T
    0.16669652    0.83348890    0.27083333 T T T
    0.83336318    0.83348890    0.27083333 T T T
    0.50002985    0.83348890    0.27083333 T T T
    0.16669652    0.50015557    0.27083333 T T T
    0.83336318    0.50015557    0.27083333 T T T
    0.50002985    0.50015557    0.27083333 T T T
    0.16669652    0.16682223    0.27083333 T T T
    0.83336318    0.16682223    0.27083333 T T T
    0.50002985    0.16682223    0.27083333 T T T
    0.05558541    0.05571112    0.27604167 T T T
    0.72225207    0.05571112    0.27604167 T T T
    0.38891874    0.05571112    0.27604167 T T T
    0.05558541    0.72237779    0.27604167 T T T
    0.72225207    0.72237779    0.27604167 T T T
    0.38891874    0.72237779    0.27604167 T T T
    0.05558541    0.38904445    0.27604167 T T T
    0.72225207    0.38904445    0.27604167 T T T
    0.38891874    0.38904445    0.27604167 T T T
    0.94447430    0.94460001    0.28125000 T T T
    0.61114096    0.94460001    0.28125000 T T T
    0.27780763    0.94460001    0.28125000 T T T
    0.94447430    0.61126668    0.28125000 T T T
    0.61114096    0.61126668    0.28125000 T T T
    0.27780763    0.61126668    0.28125000 T T T
    0.94447430    0.27793334    0.28125000 T T T
    0.61114096    0.27793334    0.28125000 T T T
    0.27780763    0.27793334    0.28125000 T T T
    0.16669652    0.83348890    0.28645833 T T T
    0.83336318    0.83348890    0.28645833 T T T
    0.50002985    0.83348890    0.28645833 T T T
    0.16669652    0.50015557    0.28645833 T T T
    0.83336318    0.50015557    0.28645833 T T T
    0.50002985    0.50015557    0.28645833 T T T
    0.16669652    0.16682223    0.28645833 T T T
    0.83336318    0.16682223    0.28645833 T T T
    0.50002985    0.16682223    0.28645833 T T T
    0.05558541    0.05571112    0.29166667 T T T
    0.72225207    0.05571112    0.29166667 T T T
    0.38891874    0.05571112    0.29166667 T T T
    0.05558541    0.72237779    0.29166667 T T T
    0.72225207    0.72237779    0.29166667 T T T
    0.38891874    0.72237779    0.29166667 T T T
    0.05558541    0.38904445    0.29166667 T T T
    0.72225207    0.38904445    0.29166667 T T T
    0.38891874    0.38904445    0.29166667 T T T
    0.94447430    0.94460001    0.29687500 T T T
    0.61114096    0.94460001    0.29687500 T T T
    0.27780763    0.94460001    0.29687500 T T T
    0.94447430    0.61126668    0.29687500 T T T
    0.61114096    0.61126668    0.29687500 T T T
    0.27780763    0.61126668    0.29687500 T T T
    0.94447430    0.27793334    0.29687500 T T T
    0.61114096    0.27793334    0.29687500 T T T
    0.27780763    0.27793334    0.29687500 T T T
    0.16669652    0.83348890    0.30208333 T T T
    0.83336318    0.83348890    0.30208333 T T T
    0.50002985    0.83348890    0.30208333 T T T
    0.16669652    0.50015557    0.30208333 T T T
    0.83336318    0.50015557    0.30208333 T T T
    0.50002985    0.50015557    0.30208333 T T T
    0.16669652    0.16682223    0.30208333 T T T
    0.83336318    0.16682223    0.30208333 T T T
    0.50002985    0.16682223    0.30208333 T T T
    0.05558541    0.05571112    0.30729167 T T T
    0.72225207    0.05571112    0.30729167 T T T
    0.38891874    0.05571112    0.30729167 T T T
    0.05558541    0.72237779    0.30729167 T T T
    0.72225207    0.72237779    0.30729167 T T T
    0.38891874    0.72237779    0.30729167 T T T
    0.05558541    0.38904445    0.30729167 T T T
    0.72225207    0.38904445    0.30729167 T T T
    0.38891874    0.38904445    0.30729167 T T T
    0.94447430    0.94460001    0.31250000 T T T
    0.61114096    0.94460001    0.31250000 T T T
    0.27780763    0.94460001    0.31250000 T T T
    0.94447430    0.61126668    0.31250000 T T T
    0.61114096    0.61126668    0.31250000 T T T
    0.27780763    0.61126668    0.31250000 T T T
    0.94447430    0.27793334    0.31250000 T T T
    0.61114096    0.27793334    0.31250000 T T T
    0.27780763    0.27793334    0.31250000 T T T
    0.16669652    0.83348890    0.31770833 T T T
    0.83336318    0.83348890    0.31770833 T T T
    0.50002985    0.83348890    0.31770833 T T T
    0.16669652    0.50015557    0.31770833 T T T
    0.83336318    0.50015557    0.31770833 T T T
    0.50002985    0.50015557    0.31770833 T T T
    0.16669652    0.16682223    0.31770833 T T T
    0.83336318    0.16682223    0.31770833 T T T
    0.50002985    0.16682223    0.31770833 T T T
    0.05558541    0.05571112    0.32291667 T T T
    0.72225207    0.05571112    0.32291667 T T T
    0.38891874    0.05571112    0.32291667 T T T
    0.05558541    0.72237779    0.32291667 T T T
    0.72225207    0.72237779    0.32291667 T T T
    0.38891874    0.72237779    0.32291667 T T T
    0.05558541    0.38904445    0.32291667 T T T
    0.72225207    0.38904445    0.32291667 T T T
    0.38891874    0.38904445    0.32291667 T T T
    0.94447430    0.94460001    0.32812500 T T T
    0.61114096    0.94460001    0.32812500 T T T
    0.27780763    0.94460001    0.32812500 T T T
    0.94447430    0.61126668    0.32812500 T T T
    0.61114096    0.61126668    0.32812500 T T T
    0.27780763    0.61126668    0.32812500 T T T
    0.94447430    0.27793334    0.32812500 T T T
    0.61114096    0.27793334    0.32812500 T T T
    0.27780763    0.27793334    0.32812500 T T T
    0.16669652    0.83348890    0.33333333 T T T
    0.83336318    0.83348890    0.33333333 T T T
    0.50002985    0.83348890    0.33333333 T T T
    0.16669652    0.50015557    0.33333333 T T T
    0.83336318    0.50015557    0.33333333 T T T
    0.50002985    0.50015557    0.33333333 T T T
    0.16669652    0.16682223    0.33333333 T T T
    0.83336318    0.16682223    0.33333333 T T T
    0.50002985    0.16682223    0.33333333 T T T
    0.05558541    0.05571112    0.33854167 T T T
    0.72225207    0.05571112    0.33854167 T T T
    0.38891874    0.05571112    0.33854167 T T T
    0.05558541    0.72237779    0.33854167 T T T
    0.72225207    0.72237779    0.33854167 T T T
    0.38891874    0.72237779    0.33854167 T T T
    0.05558541    0.38904445    0.33854167 T T T
    0.72225207    0.38904445    0.33854167 T T T
    0.38891874    0.38904445    0.33854167 T T T
    0.94447430    0.94460001    0.34375000 T T T
    0.61114096    0.94460001    0.34375000 T T T
    0.27780763    0.94460001    0.34375000 T T T
    0.94447430    0.61126668    0.34375000 T T T
    0.61114096    0.61126668    0.34375000 T T T
    0.27780763    0.61126668    0.34375000 T T T
    0.94447430    0.27793334    0.34375000 T T T
    0.61114096    0.27793334    0.34375000 T T T
    0.27780763    0.27793334    0.34375000 T T T
    0.16669652    0.83348890    0.34895833 T T T
    0.83336318    0.83348890    0.34895833 T T T
    0.50002985    0.83348890    0.34895833 T T T
    0.16669652    0.50015557    0.34895833 T T T
    0.83336318    0.50015557    0.34895833 T T T
    0.50002985    0.50015557    0.34895833 T T T
    0.16669652    0.16682223    0.34895833 T T T
    0.83336318    0.16682223    0.34895833 T T T
    0.50002985    0.16682223    0.34895833 T T T
    0.05558541    0.05571112    0.35416667 T T T
    0.72225207    0.05571112    0.35416667 T T T
    0.38891874    0.05571112    0.35416667 T T T
    0.05558541    0.72237779    0.35416667 T T T
    0.72225207    0.72237779    0.35416667 T T T
    0.38891874    0.72237779    0.35416667 T T T
    0.05558541    0.38904445    0.35416667 T T T
    0.72225207    0.38904445    0.35416667 T T T
    0.38891874    0.38904445    0.35416667 T T T
    0.94447430    0.94460001    0.35937500 T T T
    0.61114096    0.94460001    0.35937500 T T T
    0.27780763    0.94460001    0.35937500 T T T
    0.94447430    0.61126668    0.35937500 T T T
    0.61114096    0.61126668    0.35937500 T T T
    0.27780763    0.61126668    0.35937500 T T T
    0.94447430    0.27793334    0.35937500 T T T
    0.61114096    0.27793334    0.35937500 T T T
    0.27780763    0.27793334    0.35937500 T T T
    0.16669652    0.83348890    0.36458333 T T T
    0.83336318    0.83348890    0.36458333 T T T
    0.50002985    0.83348890    0.36458333 T T T
    0.16669652    0.50015557    0.36458333 T T T
    0.83336318    0.50015557    0.36458333 T T T
    0.50002985    0.50015557    0.36458333 T T T
    0.16669652    0.16682223    0.36458333 T T T
    0.83336318    0.16682223    0.36458333 T T T
    0.50002985    0.16682223    0.36458333 T T T
    0.05558541    0.05571112    0.36979167 T T T
    0.72225207    0.05571112    0.36979167 T T T
    0.38891874    0.05571112    0.36979167 T T T
    0.05558541    0.72237779    0.36979167 T T T
    0.72225207    0.72237779    0.36979167 T T T
    0.38891874    0.72237779    0.36979167 T T T
    0.05558541    0.38904445    0.36979167 T T T
    0.72225207    0.38904445    0.36979167 T T T
    0.38891874    0.38904445    0.36979167 T T T
    0.94447430    0.94460001    0.37500000 T T T
    0.61114096    0.94460001    0.37500000 T T T
    0.27780763    0.94460001    0.37500000 T T T
    0.94447430    0.61126668    0.37500000 T T T
    0.61114096    0.61126668    0.37500000 T T T
    0.27780763    0.61126668    0.37500000 T T T
    0.94447430    0.27793334    0.37500000 T T T
    0.61114096    0.27793334    0.37500000 T T T
    0.27780763    0.27793334    0.37500000 T T T
    0.16669652    0.83348890    0.38020833 T T T
    0.83336318    0.83348890    0.38020833 T T T
    0.50002985    0.83348890    0.38020833 T T T
    0.16669652    0.50015557    0.38020833 T T T
    0.83336318    0.50015557    0.38020833 T T T
    0.50002985    0.50015557    0.38020833 T T T
    0.16669652    0.16682223    0.38020833 T T T
    0.83336318    0.16682223    0.38020833 T T T
    0.50002985    0.16682223    0.38020833 T T T
    0.05558541    0.05571112    0.38541667 T T T
    0.72225207    0.05571112    0.38541667 T T T
    0.38891874    0.05571112    0.38541667 T T T
    0.05558541    0.72237779    0.38541667 T T T
    0.72225207    0.72237779    0.38541667 T T T
    0.38891874    0.72237779    0.38541667 T T T
    0.05558541    0.38904445    0.38541667 T T T
    0.72225207    0.38904445    0.38541667 T T T
    0.38891874    0.38904445    0.38541667 T T T
    0.94447430    0.94460001    0.39062500 T T T
    0.61114096    0.94460001    0.39062500 T T T
    0.27780763    0.94460001    0.39062500 T T T
    0.94447430    0.61126668    0.39062500 T T T
    0.61114096    0.61126668    0.39062500 T T T
    0.27780763    0.61126668    0.39062500 T T T
    0.94447430    0.27793334    0.39062500 T T T
    0.61114096    0.27793334    0.39062500 T T T
    0.27780763    0.27793334    0.39062500 T T T
    0.16669652    0.83348890    0.39583333 T T T
    0.83336318    0.83348890    0.39583333 T T T
    0.50002985    0.83348890    0.39583333 T T T
    0.16669652    0.50015557    0.39583333 T T T
    0.83336318    0.50015557    0.39583333 T T T
    0.50002985    0.50015557    0.39583333 T T T
    0.16669652    0.16682223    0.39583333 T T T
    0.83336318    0.16682223    0.39583333 T T T
    0.50002985    0.16682223    0.39583333 T T T
    0.05558541    0.05571112    0.40104167 T T T
    0.72225207    0.05571112    0.40104167 T T T
    0.38891874    0.05571112    0.40104167 T T T
    0.05558541    0.72237779    0.40104167 T T T
    0.72225207    0.72237779    0.40104167 T T T
    0.38891874    0.72237779    0.40104167 T T T
    0.05558541    0.38904445    0.40104167 T T T
    0.72225207    0.38904445    0.40104167 T T T
    0.38891874    0.38904445    0.40104167 T T T
    0.94447430    0.94460001    0.40625000 T T T
    0.61114096    0.94460001    0.40625000 T T T
    0.27780763    0.94460001    0.40625000 T T T
    0.94447430    0.61126668    0.40625000 T T T
    0.61114096    0.61126668    0.40625000 T T T
    0.27780763    0.61126668    0.40625000 T T T
    0.94447430    0.27793334    0.40625000 T T T
    0.61114096    0.27793334    0.40625000 T T T
    0.27780763    0.27793334    0.40625000 T T T
    0.16669652    0.83348890    0.41145833 T T T
    0.83336318    0.83348890    0.41145833 T T T
    0.50002985    0.83348890    0.41145833 T T T
    0.16669652    0.50015557    0.41145833 T T T
    0.83336318    0.50015557    0.41145833 T T T
    0.50002985    0.50015557    0.41145833 T T T
    0.16669652    0.16682223    0.41145833 T T T
    0.83336318    0.16682223    0.41145833 T T T
    0.50002985    0.16682223    0.41145833 T T T
    0.05558541    0.05571112    0.41666667 T T T
    0.72225207    0.05571112    0.41666667 T T T
    0.38891874    0.05571112    0.41666667 T T T
    0.05558541    0.72237779    0.41666667 T T T
    0.72225207    0.72237779    0.41666667 T T T
    0.38891874    0.72237779    0.41666667 T T T
    0.05558541    0.38904445    0.41666667 T T T
    0.72225207    0.38904445    0.41666667 T T T
    0.38891874    0.38904445    0.41666667 T T T
    0.94447430    0.94460001    0.42187500 T T T
    0.61114096    0.94460001    0.42187500 T T T
    0.27780763    0.94460001    0.42187500 T T T
    0.94447430    0.61126668    0.42187500 T T T
    0.61114096    0.61126668    0.42187500 T T T
    0.27780763    0.61126668    0.42187500 T T T
    0.94447430    0.27793334    0.42187500 T T T
    0.61114096    0.27793334    0.42187500 T T T
    0.27780763    0.27793334    0.42187500 T T T
    0.16669652    0.83348890    0.42708333 T T T
    0.83336318    0.83348890    0.42708333 T T T
    0.50002985    0.83348890    0.42708333 T T T
    0.16669652    0.50015557    0.42708333 T T T
    0.83336318    0.50015557    0.42708333 T T T
    0.50002985    0.50015557    0.42708333 T T T
    0.16669652    0.16682223    0.42708333 T T T
    0.83336318    0.16682223    0.42708333 T T T
    0.50002985    0.16682223    0.42708333 T T T
    0.05558541    0.05571112    0.43229167 T T T
    0.72225207    0.05571112    0.43229167 T T T
    0.38891874    0.05571112    0.43229167 T T T
    0.05558541    0.72237779    0.43229167 T T T
    0.72225207    0.72237779    0.43229167 T T T
    0.38891874    0.72237779    0.43229167 T T T
    0.05558541    0.38904445    0.43229167 T T T
    0.72225207    0.38904445    0.43229167 T T T
    0.38891874    0.38904445    0.43229167 T T T
    0.94447430    0.94460001    0.43750000 T T T
    0.61114096    0.94460001    0.43750000 T T T
    0.27780763    0.94460001    0.43750000 T T T
    0.94447430    0.61126668    0.43750000 T T T
    0.61114096    0.61126668    0.43750000 T T T
    0.27780763    0.61126668    0.43750000 T T T
    0.94447430    0.27793334    0.43750000 T T T
    0.61114096    0.27793334    0.43750000 T T T
    0.27780763    0.27793334    0.43750000 T T T
    0.16669652    0.83348890    0.44270833 T T T
    0.83336318    0.83348890    0.44270833 T T T
    0.50002985    0.83348890    0.44270833 T T T
    0.16669652    0.50015557    0.44270833 T T T
    0.83336318    0.50015557    0.44270833 T T T
    0.50002985    0.50015557    0.44270833 T T T
    0.16669652    0.16682223    0.44270833 T T T
    0.83336318    0.16682223    0.44270833 T T T
    0.50002985    0.16682223    0.44270833 T T T
    0.05558541    0.05571112    0.44791667 T T T
    0.72225207    0.05571112    0.44791667 T T T
    0.38891874    0.05571112    0.44791667 T T T
    0.05558541    0.72237779    0.44791667 T T T
    0.72225207    0.72237779    0.44791667 T T T
    0.38891874    0.72237779    0.44791667 T T T
    0.05558541    0.38904445    0.44791667 T T T
    0.72225207    0.38904445    0.44791667 T T T
    0.38891874    0.38904445    0.44791667 T T T
    0.94447430    0.94460001    0.45312500 T T T
    0.61114096    0.94460001    0.45312500 T T T
    0.27780763    0.94460001    0.45312500 T T T
    0.94447430    0.61126668    0.45312500 T T T
    0.61114096    0.61126668    0.45312500 T T T
    0.27780763    0.61126668    0.45312500 T T T
    0.94447430    0.27793334    0.45312500 T T T
    0.61114096    0.27793334    0.45312500 T T T
    0.27780763    0.27793334    0.45312500 T T T
    0.16669652    0.83348890    0.45833333 T T T
    0.83336318    0.83348890    0.45833333 T T T
    0.50002985    0.83348890    0.45833333 T T T
    0.16669652    0.50015557    0.45833333 T T T
    0.83336318    0.50015557    0.45833333 T T T
    0.50002985    0.50015557    0.45833333 T T T
    0.16669652    0.16682223    0.45833333 T T T
    0.83336318    0.16682223    0.45833333 T T T
    0.50002985    0.16682223    0.45833333 T T T
    0.05558541    0.05571112    0.46354167 T T T
    0.72225207    0.05571112    0.46354167 T T T
    0.38891874    0.05571112    0.46354167 T T T
    0.05558541    0.72237779    0.46354167 T T T
    0.72225207    0.72237779    0.46354167 T T T
    0.38891874    0.72237779    0.46354167 T T T
    0.05558541    0.38904445    0.46354167 T T T
    0.72225207    0.38904445    0.46354167 T T T
    0.38891874    0.38904445    0.46354167 T T T
    0.94447430    0.94460001    0.46875000 T T T
    0.61114096    0.94460001    0.46875000 T T T
    0.27780763    0.94460001    0.46875000 T T T
    0.94447430    0.61126668    0.46875000 T T T
    0.61114096    0.61126668    0.46875000 T T T
    0.27780763    0.61126668    0.46875000 T T T
    0.94447430    0.27793334    0.46875000 T T T
    0.61114096    0.27793334    0.46875000 T T T
    0.27780763    0.27793334    0.46875000 T T T
    0.16669652    0.83348890    0.47395833 T T T
    0.83336318    0.83348890    0.47395833 T T T
    0.50002985    0.83348890    0.47395833 T T T
    0.16669652    0.50015557    0.47395833 T T T
    0.83336318    0.50015557    0.47395833 T T T
    0.50002985    0.50015557    0.47395833 T T T
    0.16669652    0.16682223    0.47395833 T T T
    0.83336318    0.16682223    0.47395833 T T T
    0.50002985    0.16682223    0.47395833 T T T
    0.05558541    0.05571112    0.47916667 T T T
    0.72225207    0.05571112    0.47916667 T T T
    0.38891874    0.05571112    0.47916667 T T T
    0.05558541    0.72237779    0.47916667 T T T
    0.72225207    0.72237779    0.47916667 T T T
    0.38891874    0.72237779    0.47916667 T T T
    0.05558541    0.38904445    0.47916667 T T T
    0.72225207    0.38904445    0.47916667 T T T
    0.38891874    0.38904445    0.47916667 T T T
    0.94447430    0.94460001    0.48437500 T T T
    0.61114096    0.94460001    0.48437500 T T T
    0.27780763    0.94460001    0.48437500 T T T
    0.94447430    0.61126668    0.48437500 T T T
    0.61114096    0.61126668    0.48437500 T T T
    0.27780763    0.61126668    0.48437500 T T T
    0.94447430    0.27793334    0.48437500 T T T
    0.61114096    0.27793334    0.48437500 T T T
    0.27780763    0.27793334    0.48437500 T T T
    0.16669652    0.83348890    0.48958333 T T T
    0.83336318    0.83348890    0.48958333 T T T
    0.50002985    0.83348890    0.48958333 T T T
    0.16669652    0.50015557    0.48958333 T T T
    0.83336318    0.50015557    0.48958333 T T T
    0.50002985    0.50015557    0.48958333 T T T
    0.16669652    0.16682223    0.48958333 T T T
    0.83336318    0.16682223    0.48958333 T T T
    0.50002985    0.16682223    0.48958333 T T T
    0.05558541    0.05571112    0.49479167 T T T
    0.72225207    0.05571112    0.49479167 T T T
    0.38891874    0.05571112    0.49479167 T T T
    0.05558541    0.72237779    0.49479167 T T T
    0.72225207    0.72237779    0.49479167 T T T
    0.38891874    0.72237779    0.49479167 T T T
    0.05558541    0.38904445    0.49479167 T T T
    0.72225207    0.38904445    0.49479167 T T T
    0.38891874    0.38904445    0.49479167 T T T
    0.27757512    0.16686603    0.50000000 T T T
    0.61090845    0.16686603    0.50000000 T T T
    0.94424178    0.16686603    0.50000000 T T T
    0.27757512    0.50019936    0.50000000 T T T
    0.61090845    0.50019936    0.50000000 T T T
    0.94424178    0.50019936    0.50000000 T T T
    0.27757512    0.83353269    0.50000000 T T T
    0.61090845    0.83353269    0.50000000 T T T
    0.94424178    0.83353269    0.50000000 T T T
    0.05535290    0.27797714    0.50520833 T T T
    0.38868623    0.27797714    0.50520833 T T T
    0.72201956    0.27797714    0.50520833 T T T
    0.05535290    0.61131047    0.50520833 T T T
    0.38868623    0.61131047    0.50520833 T T T
    0.72201956    0.61131047    0.50520833 T T T
    0.05535290    0.94464380    0.50520833 T T T
    0.38868623    0.94464380    0.50520833 T T T
    0.72201956    0.94464380    0.50520833 T T T
    0.16646401    0.05575492    0.51041667 T T T
    0.49979734    0.05575492    0.51041667 T T T
    0.83313067    0.05575492    0.51041667 T T T
    0.16646401    0.38908825    0.51041667 T T T
    0.49979734    0.38908825    0.51041667 T T T
    0.83313067    0.38908825    0.51041667 T T T
    0.16646401    0.72242158    0.51041667 T T T
    0.49979734    0.72242158    0.51041667 T T T
    0.83313067    0.72242158    0.51041667 T T T
    0.27757512    0.16686603    0.51562500 T T T
    0.61090845    0.16686603    0.51562500 T T T
    0.94424178    0.16686603    0.51562500 T T T
    0.27757512    0.50019936    0.51562500 T T T
    0.61090845    0.50019936    0.51562500 T T T
    0.94424178    0.50019936    0.51562500 T T T
    0.27757512    0.83353269    0.51562500 T T T
    0.61090845    0.83353269    0.51562500 T T T
    0.94424178    0.83353269    0.51562500 T T T
    0.05535290    0.27797714    0.52083333 T T T
    0.38868623    0.27797714    0.52083333 T T T
    0.72201956    0.27797714    0.52083333 T T T
    0.05535290    0.61131047    0.52083333 T T T
    0.38868623    0.61131047    0.52083333 T T T
    0.72201956    0.61131047    0.52083333 T T T
    0.05535290    0.94464380    0.52083333 T T T
    0.38868623    0.94464380    0.52083333 T T T
    0.72201956    0.94464380    0.52083333 T T T
    0.16646401    0.05575492    0.52604167 T T T
    0.49979734    0.05575492    0.52604167 T T T
    0.83313067    0.05575492    0.52604167 T T T
    0.16646401    0.38908825    0.52604167 T T T
    0.49979734    0.38908825    0.52604167 T T T
    0.83313067    0.38908825    0.52604167 T T T
    0.16646401    0.72242158    0.52604167 T T T
    0.49979734    0.72242158    0.52604167 T T T
    0.83313067    0.72242158    0.52604167 T T T
    0.27757512    0.16686603    0.53125000 T T T
    0.61090845    0.16686603    0.53125000 T T T
    0.94424178    0.16686603    0.53125000 T T T
    0.27757512    0.50019936    0.53125000 T T T
    0.61090845    0.50019936    0.53125000 T T T
    0.94424178    0.50019936    0.53125000 T T T
    0.27757512    0.83353269    0.53125000 T T T
    0.61090845    0.83353269    0.53125000 T T T
    0.94424178    0.83353269    0.53125000 T T T
    0.05535290    0.27797714    0.53645833 T T T
    0.38868623    0.27797714    0.53645833 T T T
    0.72201956    0.27797714    0.53645833 T T T
    0.05535290    0.61131047    0.53645833 T T T
    0.38868623    0.61131047    0.53645833 T T T
    0.72201956    0.61131047    0.53645833 T T T
    0.05535290    0.94464380    0.53645833 T T T
    0.38868623    0.94464380    0.53645833 T T T
    0.72201956    0.94464380    0.53645833 T T T
    0.16646401    0.05575492    0.54166667 T T T
    0.49979734    0.05575492    0.54166667 T T T
    0.83313067    0.05575492    0.54166667 T T T
    0.16646401    0.38908825    0.54166667 T T T
    0.49979734    0.38908825    0.54166667 T T T
    0.83313067    0.38908825    0.54166667 T T T
    0.16646401    0.72242158    0.54166667 T T T
    0.49979734    0.72242158    0.54166667 T T T
    0.83313067    0.72242158    0.54166667 T T T
    0.27757512    0.16686603    0.54687500 T T T
    0.61090845    0.16686603    0.54687500 T T T
    0.94424178    0.16686603    0.54687500 T T T
    0.27757512    0.50019936    0.54687500 T T T
    0.61090845    0.50019936    0.54687500 T T T
    0.94424178    0.50019936    0.54687500 T T T
    0.27757512    0.83353269    0.54687500 T T T
    0.61090845    0.83353269    0.54687500 T T T
    0.94424178    0.83353269    0.54687500 T T T
    0.05535290    0.27797714    0.55208333 T T T
    0.38868623    0.27797714    0.55208333 T T T
    0.72201956    0.27797714    0.55208333 T T T
    0.05535290    0.61131047    0.55208333 T T T
    0.38868623    0.61131047    0.55208333 T T T
    0.72201956    0.61131047    0.55208333 T T T
    0.05535290    0.94464380    0.55208333 T T T
    0.38868623    0.94464380    0.55208333 T T T
    0.72201956    0.94464380    0.55208333 T T T
    0.16646401    0.05575492    0.55729167 T T T
    0.49979734    0.05575492    0.55729167 T T T
    0.83313067    0.05575492    0.55729167 T T T
    0.16646401    0.38908825    0.55729167 T T T
    0.49979734    0.38908825    0.55729167 T T T
    0.83313067    0.38908825    0.55729167 T T T
    0.16646401    0.72242158    0.55729167 T T T
    0.49979734    0.72242158    0.55729167 T T T
    0.83313067    0.72242158    0.55729167 T T T
    0.27757512    0.16686603    0.56250000 T T T
    0.61090845    0.16686603    0.56250000 T T T
    0.94424178    0.16686603    0.56250000 T T T
    0.27757512    0.50019936    0.56250000 T T T
    0.61090845    0.50019936    0.56250000 T T T
    0.94424178    0.50019936    0.56250000 T T T
    0.27757512    0.83353269    0.56250000 T T T
    0.61090845    0.83353269    0.56250000 T T T
    0.94424178    0.83353269    0.56250000 T T T
    0.05535290    0.27797714    0.56770833 T T T
    0.38868623    0.27797714    0.56770833 T T T
    0.72201956    0.27797714    0.56770833 T T T
    0.05535290    0.61131047    0.56770833 T T T
    0.38868623    0.61131047    0.56770833 T T T
    0.72201956    0.61131047    0.56770833 T T T
    0.05535290    0.94464380    0.56770833 T T T
    0.38868623    0.94464380    0.56770833 T T T
    0.72201956    0.94464380    0.56770833 T T T
    0.16646401    0.05575492    0.57291667 T T T
    0.49979734    0.05575492    0.57291667 T T T
    0.83313067    0.05575492    0.57291667 T T T
    0.16646401    0.38908825    0.57291667 T T T
    0.49979734    0.38908825    0.57291667 T T T
    0.83313067    0.38908825    0.57291667 T T T
    0.16646401    0.72242158    0.57291667 T T T
    0.49979734    0.72242158    0.57291667 T T T
    0.83313067    0.72242158    0.57291667 T T T
    0.27757512    0.16686603    0.57812500 T T T
    0.61090845    0.16686603    0.57812500 T T T
    0.94424178    0.16686603    0.57812500 T T T
    0.27757512    0.50019936    0.57812500 T T T
    0.61090845    0.50019936    0.57812500 T T T
    0.94424178    0.50019936    0.57812500 T T T
    0.27757512    0.83353269    0.57812500 T T T
    0.61090845    0.83353269    0.57812500 T T T
    0.94424178    0.83353269    0.57812500 T T T
    0.05535290    0.27797714    0.58333333 T T T
    0.38868623    0.27797714    0.58333333 T T T
    0.72201956    0.27797714    0.58333333 T T T
    0.05535290    0.61131047    0.58333333 T T T
    0.38868623    0.61131047    0.58333333 T T T
    0.72201956    0.61131047    0.58333333 T T T
    0.05535290    0.94464380    0.58333333 T T T
    0.38868623    0.94464380    0.58333333 T T T
    0.72201956    0.94464380    0.58333333 T T T
    0.16646401    0.05575492    0.58854167 T T T
    0.49979734    0.05575492    0.58854167 T T T
    0.83313067    0.05575492    0.58854167 T T T
    0.16646401    0.38908825    0.58854167 T T T
    0.49979734    0.38908825    0.58854167 T T T
    0.83313067    0.38908825    0.58854167 T T T
    0.16646401    0.72242158    0.58854167 T T T
    0.49979734    0.72242158    0.58854167 T T T
    0.83313067    0.72242158    0.58854167 T T T
    0.27757512    0.16686603    0.59375000 T T T
    0.61090845    0.16686603    0.59375000 T T T
    0.94424178    0.16686603    0.59375000 T T T
    0.27757512    0.50019936    0.59375000 T T T
    0.61090845    0.50019936    0.59375000 T T T
    0.94424178    0.50019936    0.59375000 T T T
    0.27757512    0.83353269    0.59375000 T T T
    0.61090845    0.83353269    0.59375000 T T T
    0.94424178    0.83353269    0.59375000 T T T
    0.05535290    0.27797714    0.59895833 T T T
    0.38868623    0.27797714    0.59895833 T T T
    0.72201956    0.27797714    0.59895833 T T T
    0.05535290    0.61131047    0.59895833 T T T
    0.38868623    0.61131047    0.59895833 T T T
    0.72201956    0.61131047    0.59895833 T T T
    0.05535290    0.94464380    0.59895833 T T T
    0.38868623    0.94464380    0.59895833 T T T
    0.72201956    0.94464380    0.59895833 T T T
    0.16646401    0.05575492    0.60416667 T T T
    0.49979734    0.05575492    0.60416667 T T T
    0.83313067    0.05575492    0.60416667 T T T
    0.16646401    0.38908825    0.60416667 T T T
    0.49979734    0.38908825    0.60416667 T T T
    0.83313067    0.38908825    0.60416667 T T T
    0.16646401    0.72242158    0.60416667 T T T
    0.49979734    0.72242158    0.60416667 T T T
    0.83313067    0.72242158    0.60416667 T T T
    0.27757512    0.16686603    0.60937500 T T T
    0.61090845    0.16686603    0.60937500 T T T
    0.94424178    0.16686603    0.60937500 T T T
    0.27757512    0.50019936    0.60937500 T T T
    0.61090845    0.50019936    0.60937500 T T T
    0.94424178    0.50019936    0.60937500 T T T
    0.27757512    0.83353269    0.60937500 T T T
    0.61090845    0.83353269    0.60937500 T T T
    0.94424178    0.83353269    0.60937500 T T T
    0.05535290    0.27797714    0.61458333 T T T
    0.38868623    0.27797714    0.61458333 T T T
    0.72201956    0.27797714    0.61458333 T T T
    0.05535290    0.61131047    0.61458333 T T T
    0.38868623    0.61131047    0.61458333 T T T
    0.72201956    0.61131047    0.61458333 T T T
    0.05535290    0.94464380    0.61458333 T T T
    0.38868623    0.94464380    0.61458333 T T T
    0.72201956    0.94464380    0.61458333 T T T
    0.16646401    0.05575492    0.61979167 T T T
    0.49979734    0.05575492    0.61979167 T T T
    0.83313067    0.05575492    0.61979167 T T T
    0.16646401    0.38908825    0.61979167 T T T
    0.49979734    0.38908825    0.61979167 T T T
    0.83313067    0.38908825    0.61979167 T T T
    0.16646401    0.72242158    0.61979167 T T T
    0.49979734    0.72242158    0.61979167 T T T
    0.83313067    0.72242158    0.61979167 T T T
    0.27757512    0.16686603    0.62500000 T T T
    0.61090845    0.16686603    0.62500000 T T T
    0.94424178    0.16686603    0.62500000 T T T
    0.27757512    0.50019936    0.62500000 T T T
    0.61090845    0.50019936    0.62500000 T T T
    0.94424178    0.50019936    0.62500000 T T T
    0.27757512    0.83353269    0.62500000 T T T
    0.61090845    0.83353269    0.62500000 T T T
    0.94424178    0.83353269    0.62500000 T T T
    0.05535290    0.27797714    0.63020833 T T T
    0.38868623    0.27797714    0.63020833 T T T
    0.72201956    0.27797714    0.63020833 T T T
    0.05535290    0.61131047    0.63020833 T T T
    0.38868623    0.61131047    0.63020833 T T T
    0.72201956    0.61131047    0.63020833 T T T
    0.05535290    0.94464380    0.63020833 T T T
    0.38868623    0.94464380    0.63020833 T T T
    0.72201956    0.94464380    0.63020833 T T T
    0.16646401    0.05575492    0.63541667 T T T
    0.49979734    0.05575492    0.63541667 T T T
    0.83313067    0.05575492    0.63541667 T T T
    0.16646401    0.38908825    0.63541667 T T T
    0.49979734    0.38908825    0.63541667 T T T
    0.83313067    0.38908825    0.63541667 T T T
    0.16646401    0.72242158    0.63541667 T T T
    0.49979734    0.72242158    0.63541667 T T T
    0.83313067    0.72242158    0.63541667 T T T
    0.27757512    0.16686603    0.64062500 T T T
    0.61090845    0.16686603    0.64062500 T T T
    0.94424178    0.16686603    0.64062500 T T T
    0.27757512    0.50019936    0.64062500 T T T
    0.61090845    0.50019936    0.64062500 T T T
    0.94424178    0.50019936    0.64062500 T T T
    0.27757512    0.83353269    0.64062500 T T T
    0.61090845    0.83353269    0.64062500 T T T
    0.94424178    0.83353269    0.64062500 T T T
    0.05535290    0.27797714    0.64583333 T T T
    0.38868623    0.27797714    0.64583333 T T T
    0.72201956    0.27797714    0.64583333 T T T
    0.05535290    0.61131047    0.64583333 T T T
    0.38868623    0.61131047    0.64583333 T T T
    0.72201956    0.61131047    0.64583333 T T T
    0.05535290    0.94464380    0.64583333 T T T
    0.38868623    0.94464380    0.64583333 T T T
    0.72201956    0.94464380    0.64583333 T T T
    0.16646401    0.05575492    0.65104167 T T T
    0.49979734    0.05575492    0.65104167 T T T
    0.83313067    0.05575492    0.65104167 T T T
    0.16646401    0.38908825    0.65104167 T T T
    0.49979734    0.38908825    0.65104167 T T T
    0.83313067    0.38908825    0.65104167 T T T
    0.16646401    0.72242158    0.65104167 T T T
    0.49979734    0.72242158    0.65104167 T T T
    0.83313067    0.72242158    0.65104167 T T T
    0.27757512    0.16686603    0.65625000 T T T
    0.61090845    0.16686603    0.65625000 T T T
    0.94424178    0.16686603    0.65625000 T T T
    0.27757512    0.50019936    0.65625000 T T T
    0.61090845    0.50019936    0.65625000 T T T
    0.94424178    0.50019936    0.65625000 T T T
    0.27757512    0.83353269    0.65625000 T T T
    0.61090845    0.83353269    0.65625000 T T T
    0.94424178    0.83353269    0.65625000 T T T
    0.05535290    0.27797714    0.66145833 T T T
    0.38868623    0.27797714    0.66145833 T T T
    0.72201956    0.27797714    0.66145833 T T T
    0.05535290    0.61131047    0.66145833 T T T
    0.38868623    0.61131047    0.66145833 T T T
    0.72201956    0.61131047    0.66145833 T T T
    0.05535290    0.94464380    0.66145833 T T T
    0.38868623    0.94464380    0.66145833 T T T
    0.72201956    0.94464380    0.66145833 T T T
    0.16646401    0.05575492    0.66666667 T T T
    0.49979734    0.05575492    0.66666667 T T T
    0.83313067    0.05575492    0.66666667 T T T
    0.16646401    0.38908825    0.66666667 T T T
    0.49979734    0.38908825    0.66666667 T T T
    0.83313067    0.38908825    0.66666667 T T T
    0.16646401    0.72242158    0.66666667 T T T
    0.49979734    0.72242158    0.66666667 T T T
    0.83313067    0.72242158    0.66666667 T T T
    0.27757512    0.16686603    0.67187500 T T T
    0.61090845    0.16686603    0.67187500 T T T
    0.94424178    0.16686603    0.67187500 T T T
    0.27757512    0.50019936    0.67187500 T T T
    0.61090845    0.50019936    0.67187500 T T T
    0.94424178    0.50019936    0.67187500 T T T
    0.27757512    0.83353269    0.67187500 T T T
    0.61090845    0.83353269    0.67187500 T T T
    0.94424178    0.83353269    0.67187500 T T T
    0.05535290    0.27797714    0.67708333 T T T
    0.38868623    0.27797714    0.67708333 T T T
    0.72201956    0.27797714    0.67708333 T T T
    0.05535290    0.61131047    0.67708333 T T T
    0.38868623    0.61131047    0.67708333 T T T
    0.72201956    0.61131047    0.67708333 T T T
    0.05535290    0.94464380    0.67708333 T T T
    0.38868623    0.94464380    0.67708333 T T T
    0.72201956    0.94464380    0.67708333 T T T
    0.16646401    0.05575492    0.68229167 T T T
    0.49979734    0.05575492    0.68229167 T T T
    0.83313067    0.05575492    0.68229167 T T T
    0.16646401    0.38908825    0.68229167 T T T
    0.49979734    0.38908825    0.68229167 T T T
    0.83313067    0.38908825    0.68229167 T T T
    0.16646401    0.72242158    0.68229167 T T T
    0.49979734    0.72242158    0.68229167 T T T
    0.83313067    0.72242158    0.68229167 T T T
    0.27757512    0.16686603    0.68750000 T T T
    0.61090845    0.16686603    0.68750000 T T T
    0.94424178    0.16686603    0.68750000 T T T
    0.27757512    0.50019936    0.68750000 T T T
    0.61090845    0.50019936    0.68750000 T T T
    0.94424178    0.50019936    0.68750000 T T T
    0.27757512    0.83353269    0.68750000 T T T
    0.61090845    0.83353269    0.68750000 T T T
    0.94424178    0.83353269    0.68750000 T T T
    0.05535290    0.27797714    0.69270833 T T T
    0.38868623    0.27797714    0.69270833 T T T
    0.72201956    0.27797714    0.69270833 T T T
    0.05535290    0.61131047    0.69270833 T T T
    0.38868623    0.61131047    0.69270833 T T T
    0.72201956    0.61131047    0.69270833 T T T
    0.05535290    0.94464380    0.69270833 T T T
    0.38868623    0.94464380    0.69270833 T T T
    0.72201956    0.94464380    0.69270833 T T T
    0.16646401    0.05575492    0.69791667 T T T
    0.49979734    0.05575492    0.69791667 T T T
    0.83313067    0.05575492    0.69791667 T T T
    0.16646401    0.38908825    0.69791667 T T T
    0.49979734    0.38908825    0.69791667 T T T
    0.83313067    0.38908825    0.69791667 T T T
    0.16646401    0.72242158    0.69791667 T T T
    0.49979734    0.72242158    0.69791667 T T T
    0.83313067    0.72242158    0.69791667 T T T
    0.27757512    0.16686603    0.70312500 T T T
    0.61090845    0.16686603    0.70312500 T T T
    0.94424178    0.16686603    0.70312500 T T T
    0.27757512    0.50019936    0.70312500 T T T
    0.61090845    0.50019936    0.70312500 T T T
    0.94424178    0.50019936    0.70312500 T T T
    0.27757512    0.83353269    0.70312500 T T T
    0.61090845    0.83353269    0.70312500 T T T
    0.94424178    0.83353269    0.70312500 T T T
    0.05535290    0.27797714    0.70833333 T T T
    0.38868623    0.27797714    0.70833333 T T T
    0.72201956    0.27797714    0.70833333 T T T
    0.05535290    0.61131047    0.70833333 T T T
    0.38868623    0.61131047    0.70833333 T T T
    0.72201956    0.61131047    0.70833333 T T T
    0.05535290    0.94464380    0.70833333 T T T
    0.38868623    0.94464380    0.70833333 T T T
    0.72201956    0.94464380    0.70833333 T T T
    0.16646401    0.05575492    0.71354167 T T T
    0.49979734    0.05575492    0.71354167 T T T
    0.83313067    0.05575492    0.71354167 T T T
    0.16646401    0.38908825    0.71354167 T T T
    0.49979734    0.38908825    0.71354167 T T T
    0.83313067    0.38908825    0.71354167 T T T
    0.16646401    0.72242158    0.71354167 T T T
    0.49979734    0.72242158    0.71354167 T T T
    0.83313067    0.72242158    0.71354167 T T T
    0.27757512    0.16686603    0.71875000 T T T
    0.61090845    0.16686603    0.71875000 T T T
    0.94424178    0.16686603    0.71875000 T T T
    0.27757512    0.50019936    0.71875000 T T T
    0.61090845    0.50019936    0.71875000 T T T
    0.94424178    0.50019936    0.71875000 T T T
    0.27757512    0.83353269    0.71875000 T T T
    0.61090845    0.83353269    0.71875000 T T T
    0.94424178    0.83353269    0.71875000 T T T
    0.05535290    0.27797714    0.72395833 T T T
    0.38868623    0.27797714    0.72395833 T T T
    0.72201956    0.27797714    0.72395833 T T T
    0.05535290    0.61131047    0.72395833 T T T
    0.38868623    0.61131047    0.72395833 T T T
    0.72201956    0.61131047    0.72395833 T T T
    0.05535290    0.94464380    0.72395833 T T T
    0.38868623    0.94464380    0.72395833 T T T
    0.72201956    0.94464380    0.72395833 T T T
    0.16646401    0.05575492    0.72916667 T T T
    0.49979734    0.05575492    0.72916667 T T T
    0.83313067    0.05575492    0.72916667 T T T
    0.16646401    0.38908825    0.72916667 T T T
    0.49979734    0.38908825    0.72916667 T T T
    0.83313067    0.38908825    0.72916667 T T T
    0.16646401    0.72242158    0.72916667 T T T
    0.49979734    0.72242158    0.72916667 T T T
    0.83313067    0.72242158    0.72916667 T T T
    0.27757512    0.16686603    0.73437500 T T T
    0.61090845    0.16686603    0.73437500 T T T
    0.94424178    0.16686603    0.73437500 T T T
    0.27757512    0.50019936    0.73437500 T T T
    0.61090845    0.50019936    0.73437500 T T T
    0.94424178    0.50019936    0.73437500 T T T
    0.27757512    0.83353269    0.73437500 T T T
    0.61090845    0.83353269    0.73437500 T T T
    0.94424178    0.83353269    0.73437500 T T T
    0.05535290    0.27797714    0.73958333 T T T
    0.38868623    0.27797714    0.73958333 T T T
    0.72201956    0.27797714    0.73958333 T T T
    0.05535290    0.61131047    0.73958333 T T T
    0.38868623    0.61131047    0.73958333 T T T
    0.72201956    0.61131047    0.73958333 T T T
    0.05535290    0.94464380    0.73958333 T T T
    0.38868623    0.94464380    0.73958333 T T T
    0.72201956    0.94464380    0.73958333 T T T
    0.16646401    0.05575492    0.74479167 T T T
    0.49979734    0.05575492    0.74479167 T T T
    0.83313067    0.05575492    0.74479167 T T T
    0.16646401    0.38908825    0.74479167 T T T
    0.49979734    0.38908825    0.74479167 T T T
    0.83313067    0.38908825    0.74479167 T T T
    0.16646401    0.72242158    0.74479167 T T T
    0.49979734    0.72242158    0.74479167 T T T
    0.83313067    0.72242158    0.74479167 T T T
    0.94437220    0.94439577    0.75000000 T T T
    0.61103887    0.94439577    0.75000000 T T T
    0.27770554    0.94439577    0.75000000 T T T
    0.94437220    0.61106244    0.75000000 T T T
    0.61103887    0.61106244    0.75000000 T T T
    0.27770554    0.61106244    0.75000000 T T T
    0.94437220    0.27772910    0.75000000 T T T
    0.61103887    0.27772910    0.75000000 T T T
    0.27770554    0.27772910    0.75000000 T T T
    0.16659443    0.83328466    0.75520833 T T T
    0.83326109    0.83328466    0.75520833 T T T
    0.49992776    0.83328466    0.75520833 T T T
    0.16659443    0.49995133    0.75520833 T T T
    0.83326109    0.49995133    0.75520833 T T T
    0.49992776    0.49995133    0.75520833 T T T
    0.16659443    0.16661799    0.75520833 T T T
    0.83326109    0.16661799    0.75520833 T T T
    0.49992776    0.16661799    0.75520833 T T T
    0.05548331    0.05550688    0.76041667 T T T
    0.72214998    0.05550688    0.76041667 T T T
    0.38881665    0.05550688    0.76041667 T T T
    0.05548331    0.72217355    0.76041667 T T T
    0.72214998    0.72217355    0.76041667 T T T
    0.38881665    0.72217355    0.76041667 T T T
    0.05548331    0.38884022    0.76041667 T T T
    0.72214998    0.38884022    0.76041667 T T T
    0.38881665    0.38884022    0.76041667 T T T
    0.94437220    0.94439577    0.76562500 T T T
    0.61103887    0.94439577    0.76562500 T T T
    0.27770554    0.94439577    0.76562500 T T T
    0.94437220    0.61106244    0.76562500 T T T
    0.61103887    0.61106244    0.76562500 T T T
    0.27770554    0.61106244    0.76562500 T T T
    0.94437220    0.27772910    0.76562500 T T T
    0.61103887    0.27772910    0.76562500 T T T
    0.27770554    0.27772910    0.76562500 T T T
    0.16659443    0.83328466    0.77083333 T T T
    0.83326109    0.83328466    0.77083333 T T T
    0.49992776    0.83328466    0.77083333 T T T
    0.16659443    0.49995133    0.77083333 T T T
    0.83326109    0.49995133    0.77083333 T T T
    0.49992776    0.49995133    0.77083333 T T T
    0.16659443    0.16661799    0.77083333 T T T
    0.83326109    0.16661799    0.77083333 T T T
    0.49992776    0.16661799    0.77083333 T T T
    0.05548331    0.05550688    0.77604167 T T T
    0.72214998    0.05550688    0.77604167 T T T
    0.38881665    0.05550688    0.77604167 T T T
    0.05548331    0.72217355    0.77604167 T T T
    0.72214998    0.72217355    0.77604167 T T T
    0.38881665    0.72217355    0.77604167 T T T
    0.05548331    0.38884022    0.77604167 T T T
    0.72214998    0.38884022    0.77604167 T T T
    0.38881665    0.38884022    0.77604167 T T T
    0.94437220    0.94439577    0.78125000 T T T
    0.61103887    0.94439577    0.78125000 T T T
    0.27770554    0.94439577    0.78125000 T T T
    0.94437220    0.61106244    0.78125000 T T T
    0.61103887    0.61106244    0.78125000 T T T
    0.27770554    0.61106244    0.78125000 T T T
    0.94437220    0.27772910    0.78125000 T T T
    0.61103887    0.27772910    0.78125000 T T T
    0.27770554    0.27772910    0.78125000 T T T
    0.16659443    0.83328466    0.78645833 T T T
    0.83326109    0.83328466    0.78645833 T T T
    0.49992776    0.83328466    0.78645833 T T T
    0.16659443    0.49995133    0.78645833 T T T
    0.83326109    0.49995133    0.78645833 T T T
    0.49992776    0.49995133    0.78645833 T T T
    0.16659443    0.16661799    0.78645833 T T T
    0.83326109    0.16661799    0.78645833 T T T
    0.49992776    0.16661799    0.78645833 T T T
    0.05548331    0.05550688    0.79166667 T T T
    0.72214998    0.05550688    0.79166667 T T T
    0.38881665    0.05550688    0.79166667 T T T
    0.05548331    0.72217355    0.79166667 T T T
    0.72214998    0.72217355    0.79166667 T T T
    0.38881665    0.72217355    0.79166667 T T T
    0.05548331    0.38884022    0.79166667 T T T
    0.72214998    0.38884022    0.79166667 T T T
    0.38881665    0.38884022    0.79166667 T T T
    0.94437220    0.94439577    0.79687500 T T T
    0.61103887    0.94439577    0.79687500 T T T
    0.27770554    0.94439577    0.79687500 T T T
    0.94437220    0.61106244    0.79687500 T T T
    0.61103887    0.61106244    0.79687500 T T T
    0.27770554    0.61106244    0.79687500 T T T
    0.94437220    0.27772910    0.79687500 T T T
    0.61103887    0.27772910    0.79687500 T T T
    0.27770554    0.27772910    0.79687500 T T T
    0.16659443    0.83328466    0.80208333 T T T
    0.83326109    0.83328466    0.80208333 T T T
    0.49992776    0.83328466    0.80208333 T T T
    0.16659443    0.49995133    0.80208333 T T T
    0.83326109    0.49995133    0.80208333 T T T
    0.49992776    0.49995133    0.80208333 T T T
    0.16659443    0.16661799    0.80208333 T T T
    0.83326109    0.16661799    0.80208333 T T T
    0.49992776    0.16661799    0.80208333 T T T
    0.05548331    0.05550688    0.80729167 T T T
    0.72214998    0.05550688    0.80729167 T T T
    0.38881665    0.05550688    0.80729167 T T T
    0.05548331    0.72217355    0.80729167 T T T
    0.72214998    0.72217355    0.80729167 T T T
    0.38881665    0.72217355    0.80729167 T T T
    0.05548331    0.38884022    0.80729167 T T T
    0.72214998    0.38884022    0.80729167 T T T
    0.38881665    0.38884022    0.80729167 T T T
    0.94437220    0.94439577    0.81250000 T T T
    0.61103887    0.94439577    0.81250000 T T T
    0.27770554    0.94439577    0.81250000 T T T
    0.94437220    0.61106244    0.81250000 T T T
    0.61103887    0.61106244    0.81250000 T T T
    0.27770554    0.61106244    0.81250000 T T T
    0.94437220    0.27772910    0.81250000 T T T
    0.61103887    0.27772910    0.81250000 T T T
    0.27770554    0.27772910    0.81250000 T T T
    0.16659443    0.83328466    0.81770833 T T T
    0.83326109    0.83328466    0.81770833 T T T
    0.49992776    0.83328466    0.81770833 T T T
    0.16659443    0.49995133    0.81770833 T T T
    0.83326109    0.49995133    0.81770833 T T T
    0.49992776    0.49995133    0.81770833 T T T
    0.16659443    0.16661799    0.81770833 T T T
    0.83326109    0.16661799    0.81770833 T T T
    0.49992776    0.16661799    0.81770833 T T T
    0.05548331    0.05550688    0.82291667 T T T
    0.72214998    0.05550688    0.82291667 T T T
    0.38881665    0.05550688    0.82291667 T T T
    0.05548331    0.72217355    0.82291667 T T T
    0.72214998    0.72217355    0.82291667 T T T
    0.38881665    0.72217355    0.82291667 T T T
    0.05548331    0.38884022    0.82291667 T T T
    0.72214998    0.38884022    0.82291667 T T T
    0.38881665    0.38884022    0.82291667 T T T
    0.94437220    0.94439577    0.82812500 T T T
    0.61103887    0.94439577    0.82812500 T T T
    0.27770554    0.94439577    0.82812500 T T T
    0.94437220    0.61106244    0.82812500 T T T
    0.61103887    0.61106244    0.82812500 T T T
    0.27770554    0.61106244    0.82812500 T T T
    0.94437220    0.27772910    0.82812500 T T T
    0.61103887    0.27772910    0.82812500 T T T
    0.27770554    0.27772910    0.82812500 T T T
    0.16659443    0.83328466    0.83333333 T T T
    0.83326109    0.83328466    0.83333333 T T T
    0.49992776    0.83328466    0.83333333 T T T
    0.16659443    0.49995133    0.83333333 T T T
    0.83326109    0.49995133    0.83333333 T T T
    0.49992776    0.49995133    0.83333333 T T T
    0.16659443    0.16661799    0.83333333 T T T
    0.83326109    0.16661799    0.83333333 T T T
    0.49992776    0.16661799    0.83333333 T T T
    0.05548331    0.05550688    0.83854167 T T T
    0.72214998    0.05550688    0.83854167 T T T
    0.38881665    0.05550688    0.83854167 T T T
    0.05548331    0.72217355    0.83854167 T T T
    0.72214998    0.72217355    0.83854167 T T T
    0.38881665    0.72217355    0.83854167 T T T
    0.05548331    0.38884022    0.83854167 T T T
    0.72214998    0.38884022    0.83854167 T T T
    0.38881665    0.38884022    0.83854167 T T T
    0.94437220    0.94439577    0.84375000 T T T
    0.61103887    0.94439577    0.84375000 T T T
    0.27770554    0.94439577    0.84375000 T T T
    0.94437220    0.61106244    0.84375000 T T T
    0.61103887    0.61106244    0.84375000 T T T
    0.27770554    0.61106244    0.84375000 T T T
    0.94437220    0.27772910    0.84375000 T T T
    0.61103887    0.27772910    0.84375000 T T T
    0.27770554    0.27772910    0.84375000 T T T
    0.16659443    0.83328466    0.84895833 T T T
    0.83326109    0.83328466    0.84895833 T T T
    0.49992776    0.83328466    0.84895833 T T T
    0.16659443    0.49995133    0.84895833 T T T
    0.83326109    0.49995133    0.84895833 T T T
    0.49992776    0.49995133    0.84895833 T T T
    0.16659443    0.16661799    0.84895833 T T T
    0.83326109    0.16661799    0.84895833 T T T
    0.49992776    0.16661799    0.84895833 T T T
    0.05548331    0.05550688    0.85416667 T T T
    0.72214998    0.05550688    0.85416667 T T T
    0.38881665    0.05550688    0.85416667 T T T
    0.05548331    0.72217355    0.85416667 T T T
    0.72214998    0.72217355    0.85416667 T T T
    0.38881665    0.72217355    0.85416667 T T T
    0.05548331    0.38884022    0.85416667 T T T
    0.72214998    0.38884022    0.85416667 T T T
    0.38881665    0.38884022    0.85416667 T T T
    0.94437220    0.94439577    0.85937500 T T T
    0.61103887    0.94439577    0.85937500 T T T
    0.27770554    0.94439577    0.85937500 T T T
    0.94437220    0.61106244    0.85937500 T T T
    0.61103887    0.61106244    0.85937500 T T T
    0.27770554    0.61106244    0.85937500 T T T
    0.94437220    0.27772910    0.85937500 T T T
    0.61103887    0.27772910    0.85937500 T T T
    0.27770554    0.27772910    0.85937500 T T T
    0.16659443    0.83328466    0.86458333 T T T
    0.83326109    0.83328466    0.86458333 T T T
    0.49992776    0.83328466    0.86458333 T T T
    0.16659443    0.49995133    0.86458333 T T T
    0.83326109    0.49995133    0.86458333 T T T
    0.49992776    0.49995133    0.86458333 T T T
    0.16659443    0.16661799    0.86458333 T T T
    0.83326109    0.16661799    0.86458333 T T T
    0.49992776    0.16661799    0.86458333 T T T
    0.05548331    0.05550688    0.86979167 T T T
    0.72214998    0.05550688    0.86979167 T T T
    0.38881665    0.05550688    0.86979167 T T T
    0.05548331    0.72217355    0.86979167 T T T
    0.72214998    0.72217355    0.86979167 T T T
    0.38881665    0.72217355    0.86979167 T T T
    0.05548331    0.38884022    0.86979167 T T T
    0.72214998    0.38884022    0.86979167 T T T
    0.38881665    0.38884022    0.86979167 T T T
    0.94437220    0.94439577    0.87500000 T T T
    0.61103887    0.94439577    0.87500000 T T T
    0.27770554    0.94439577    0.87500000 T T T
    0.94437220    0.61106244    0.87500000 T T T
    0.61103887    0.61106244    0.87500000 T T T
    0.27770554    0.61106244    0.87500000 T T T
    0.94437220    0.27772910    0.87500000 T T T
    0.61103887    0.27772910    0.87500000 T T T
    0.27770554    0.27772910    0.87500000 T T T
    0.16659443    0.83328466    0.88020833 T T T
    0.83326109    0.83328466    0.88020833 T T T
    0.49992776    0.83328466    0.88020833 T T T
    0.16659443    0.49995133    0.88020833 T T T
    0.83326109    0.49995133    0.88020833 T T T
    0.49992776    0.49995133    0.88020833 T T T
    0.16659443    0.16661799    0.88020833 T T T
    0.83326109    0.16661799    0.88020833 T T T
    0.49992776    0.16661799    0.88020833 T T T
    0.05548331    0.05550688    0.88541667 T T T
    0.72214998    0.05550688    0.88541667 T T T
    0.38881665    0.05550688    0.88541667 T T T
    0.05548331    0.72217355    0.88541667 T T T
    0.72214998    0.72217355    0.88541667 T T T
    0.38881665    0.72217355    0.88541667 T T T
    0.05548331    0.38884022    0.88541667 T T T
    0.72214998    0.38884022    0.88541667 T T T
    0.38881665    0.38884022    0.88541667 T T T
    0.94437220    0.94439577    0.89062500 T T T
    0.61103887    0.94439577    0.89062500 T T T
    0.27770554    0.94439577    0.89062500 T T T
    0.94437220    0.61106244    0.89062500 T T T
    0.61103887    0.61106244    0.89062500 T T T
    0.27770554    0.61106244    0.89062500 T T T
    0.94437220    0.27772910    0.89062500 T T T
    0.61103887    0.27772910    0.89062500 T T T
    0.27770554    0.27772910    0.89062500 T T T
    0.16659443    0.83328466    0.89583333 T T T
    0.83326109    0.83328466    0.89583333 T T T
    0.49992776    0.83328466    0.89583333 T T T
    0.16659443    0.49995133    0.89583333 T T T
    0.83326109    0.49995133    0.89583333 T T T
    0.49992776    0.49995133    0.89583333 T T T
    0.16659443    0.16661799    0.89583333 T T T
    0.83326109    0.16661799    0.89583333 T T T
    0.49992776    0.16661799    0.89583333 T T T
    0.05548331    0.05550688    0.90104167 T T T
    0.72214998    0.05550688    0.90104167 T T T
    0.38881665    0.05550688    0.90104167 T T T
    0.05548331    0.72217355    0.90104167 T T T
    0.72214998    0.72217355    0.90104167 T T T
    0.38881665    0.72217355    0.90104167 T T T
    0.05548331    0.38884022    0.90104167 T T T
    0.72214998    0.38884022    0.90104167 T T T
    0.38881665    0.38884022    0.90104167 T T T
    0.94437220    0.94439577    0.90625000 T T T
    0.61103887    0.94439577    0.90625000 T T T
    0.27770554    0.94439577    0.90625000 T T T
    0.94437220    0.61106244    0.90625000 T T T
    0.61103887    0.61106244    0.90625000 T T T
    0.27770554    0.61106244    0.90625000 T T T
    0.94437220    0.27772910    0.90625000 T T T
    0.61103887    0.27772910    0.90625000 T T T
    0.27770554    0.27772910    0.90625000 T T T
    0.16659443    0.83328466    0.91145833 T T T
    0.83326109    0.83328466    0.91145833 T T T
    0.49992776    0.83328466    0.91145833 T T T
    0.16659443    0.49995133    0.91145833 T T T
    0.83326109    0.49995133    0.91145833 T T T
    0.49992776    0.49995133    0.91145833 T T T
    0.16659443    0.16661799    0.91145833 T T T
    0.83326109    0.16661799    0.91145833 T T T
    0.49992776    0.16661799    0.91145833 T T T
    0.05548331    0.05550688    0.91666667 T T T
    0.72214998    0.05550688    0.91666667 T T T
    0.38881665    0.05550688    0.91666667 T T T
    0.05548331    0.72217355    0.91666667 T T T
    0.72214998    0.72217355    0.91666667 T T T
    0.38881665    0.72217355    0.91666667 T T T
    0.05548331    0.38884022    0.91666667 T T T
    0.72214998    0.38884022    0.91666667 T T T
    0.38881665    0.38884022    0.91666667 T T T
    0.94437220    0.94439577    0.92187500 T T T
    0.61103887    0.94439577    0.92187500 T T T
    0.27770554    0.94439577    0.92187500 T T T
    0.94437220    0.61106244    0.92187500 T T T
    0.61103887    0.61106244    0.92187500 T T T
    0.27770554    0.61106244    0.92187500 T T T
    0.94437220    0.27772910    0.92187500 T T T
    0.61103887    0.27772910    0.92187500 T T T
    0.27770554    0.27772910    0.92187500 T T T
    0.16659443    0.83328466    0.92708333 T T T
    0.83326109    0.83328466    0.92708333 T T T
    0.49992776    0.83328466    0.92708333 T T T
    0.16659443    0.49995133    0.92708333 T T T
    0.83326109    0.49995133    0.92708333 T T T
    0.49992776    0.49995133    0.92708333 T T T
    0.16659443    0.16661799    0.92708333 T T T
    0.83326109    0.16661799    0.92708333 T T T
    0.49992776    0.16661799    0.92708333 T T T
    0.05548331    0.05550688    0.93229167 T T T
    0.72214998    0.05550688    0.93229167 T T T
    0.38881665    0.05550688    0.93229167 T T T
    0.05548331    0.72217355    0.93229167 T T T
    0.72214998    0.72217355    0.93229167 T T T
    0.38881665    0.72217355    0.93229167 T T T
    0.05548331    0.38884022    0.93229167 T T T
    0.72214998    0.38884022    0.93229167 T T T
    0.38881665    0.38884022    0.93229167 T T T
    0.94437220    0.94439577    0.93750000 T T T
    0.61103887    0.94439577    0.93750000 T T T
    0.27770554    0.94439577    0.93750000 T T T
    0.94437220    0.61106244    0.93750000 T T T
    0.61103887    0.61106244    0.93750000 T T T
    0.27770554    0.61106244    0.93750000 T T T
    0.94437220    0.27772910    0.93750000 T T T
    0.61103887    0.27772910    0.93750000 T T T
    0.27770554    0.27772910    0.93750000 T T T
    0.16659443    0.83328466    0.94270833 T T T
    0.83326109    0.83328466    0.94270833 T T T
    0.49992776    0.83328466    0.94270833 T T T
    0.16659443    0.49995133    0.94270833 T T T
    0.83326109    0.49995133    0.94270833 T T T
    0.49992776    0.49995133    0.94270833 T T T
    0.16659443    0.16661799    0.94270833 T T T
    0.83326109    0.16661799    0.94270833 T T T
    0.49992776    0.16661799    0.94270833 T T T
    0.05548331    0.05550688    0.94791667 T T T
    0.72214998    0.05550688    0.94791667 T T T
    0.38881665    0.05550688    0.94791667 T T T
    0.05548331    0.72217355    0.94791667 T T T
    0.72214998    0.72217355    0.94791667 T T T
    0.38881665    0.72217355    0.94791667 T T T
    0.05548331    0.38884022    0.94791667 T T T
    0.72214998    0.38884022    0.94791667 T T T
    0.38881665    0.38884022    0.94791667 T T T
    0.94437220    0.94439577    0.95312500 T T T
    0.61103887    0.94439577    0.95312500 T T T
    0.27770554    0.94439577    0.95312500 T T T
    0.94437220    0.61106244    0.95312500 T T T
    0.61103887    0.61106244    0.95312500 T T T
    0.27770554    0.61106244    0.95312500 T T T
    0.94437220    0.27772910    0.95312500 T T T
    0.61103887    0.27772910    0.95312500 T T T
    0.27770554    0.27772910    0.95312500 T T T
    0.16659443    0.83328466    0.95833333 T T T
    0.83326109    0.83328466    0.95833333 T T T
    0.49992776    0.83328466    0.95833333 T T T
    0.16659443    0.49995133    0.95833333 T T T
    0.83326109    0.49995133    0.95833333 T T T
    0.49992776    0.49995133    0.95833333 T T T
    0.16659443    0.16661799    0.95833333 T T T
    0.83326109    0.16661799    0.95833333 T T T
    0.49992776    0.16661799    0.95833333 T T T
    0.05548331    0.05550688    0.96354167 T T T
    0.72214998    0.05550688    0.96354167 T T T
    0.38881665    0.05550688    0.96354167 T T T
    0.05548331    0.72217355    0.96354167 T T T
    0.72214998    0.72217355    0.96354167 T T T
    0.38881665    0.72217355    0.96354167 T T T
    0.05548331    0.38884022    0.96354167 T T T
    0.72214998    0.38884022    0.96354167 T T T
    0.38881665    0.38884022    0.96354167 T T T
    0.94437220    0.94439577    0.96875000 T T T
    0.61103887    0.94439577    0.96875000 T T T
    0.27770554    0.94439577    0.96875000 T T T
    0.94437220    0.61106244    0.96875000 T T T
    0.61103887    0.61106244    0.96875000 T T T
    0.27770554    0.61106244    0.96875000 T T T
    0.94437220    0.27772910    0.96875000 T T T
    0.61103887    0.27772910    0.96875000 T T T
    0.27770554    0.27772910    0.96875000 T T T
    0.16659443    0.83328466    0.97395833 T T T
    0.83326109    0.83328466    0.97395833 T T T
    0.49992776    0.83328466    0.97395833 T T T
    0.16659443    0.49995133    0.97395833 T T T
    0.83326109    0.49995133    0.97395833 T T T
    0.49992776    0.49995133    0.97395833 T T T
    0.16659443    0.16661799    0.97395833 T T T
    0.83326109    0.16661799    0.97395833 T T T
    0.49992776    0.16661799    0.97395833 T T T
    0.05548331    0.05550688    0.97916667 T T T
    0.72214998    0.05550688    0.97916667 T T T
    0.38881665    0.05550688    0.97916667 T T T
    0.05548331    0.72217355    0.97916667 T T T
    0.72214998    0.72217355    0.97916667 T T T
    0.38881665    0.72217355    0.97916667 T T T
    0.05548331    0.38884022    0.97916667 T T T
    0.72214998    0.38884022    0.97916667 T T T
    0.38881665    0.38884022    0.97916667 T T T
    0.94437220    0.94439577    0.98437500 T T T
    0.61103887    0.94439577    0.98437500 T T T
    0.27770554    0.94439577    0.98437500 T T T
    0.94437220    0.61106244    0.98437500 T T T
    0.61103887    0.61106244    0.98437500 T T T
    0.27770554    0.61106244    0.98437500 T T T
    0.94437220    0.27772910    0.98437500 T T T
    0.61103887    0.27772910    0.98437500 T T T
    0.27770554    0.27772910    0.98437500 T T T
    0.16659443    0.83328466    0.98958333 T T T
    0.83326109    0.83328466    0.98958333 T T T
    0.49992776    0.83328466    0.98958333 T T T
    0.16659443    0.49995133    0.98958333 T T T
    0.83326109    0.49995133    0.98958333 T T T
    0.49992776    0.49995133    0.98958333 T T T
    0.16659443    0.16661799    0.98958333 T T T
    0.83326109    0.16661799    0.98958333 T T T
    0.49992776    0.16661799    0.98958333 T T T
    0.05548331    0.05550688    0.99479167 F F F
    0.72214998    0.05550688    0.99479167 F F F
    0.38881665    0.05550688    0.99479167 F F F
    0.05548331    0.72217355    0.99479167 F F F
    0.72214998    0.72217355    0.99479167 F F F
    0.38881665    0.72217355    0.99479167 F F F
    0.05548331    0.38884022    0.99479167 F F F
    0.72214998    0.38884022    0.99479167 F F F
    0.38881665    0.38884022    0.99479167 F F F
