Generated generic
1.0
    7.66857304    0.00000000    0.00000000
    3.83428652    6.64117907    0.00000000
    0.00000000    0.00000000   79.31060648
 Cu
 342
Selective dynamics
Direct
    0.00000000    0.00000000    0.00000000 F F F
    0.33333333    0.00000000    0.00000000 F F F
    0.66666667    0.00000000    0.00000000 F F F
    0.00000000    0.33333333    0.00000000 F F F
    0.33333333    0.33333333    0.00000000 F F F
    0.66666667    0.33333333    0.00000000 F F F
    0.00000000    0.66666667    0.00000000 F F F
    0.33333333    0.66666667    0.00000000 F F F
    0.66666667    0.66666667    0.00000000 F F F
    0.11111111    0.11111111    0.02631579 T T T
    0.44444444    0.11111111    0.02631579 T T T
    0.77777778    0.11111111    0.02631579 T T T
    0.11111111    0.44444444    0.02631579 T T T
    0.44444444    0.44444444    0.02631579 T T T
    0.77777778    0.44444444    0.02631579 T T T
    0.11111111    0.77777778    0.02631579 T T T
    0.44444444    0.77777778    0.02631579 T T T
    0.77777778    0.77777778    0.02631579 T T T
    0.22222222    0.22222222    0.05263158 T T T
    0.55555556    0.22222222    0.05263158 T T T
    0.88888889    0.22222222    0.05263158 T T T
    0.22222222    0.55555556    0.05263158 T T T
    0.55555556    0.55555556    0.05263158 T T T
    0.88888889    0.55555556    0.05263158 T T T
    0.22222222    0.88888889    0.05263158 T T T
    0.55555556    0.88888889    0.05263158 T T T
    0.88888889    0.88888889    0.05263158 T T T
    0.00000000    0.00000000    0.07894737 T T T
    0.33333333    0.00000000    0.07894737 T T T
    0.66666667    0.00000000    0.07894737 T T T
    0.00000000    0.33333333    0.07894737 T T T
    0.33333333    0.33333333    0.07894737 T T T
    0.66666667    0.33333333    0.07894737 T T T
    0.00000000    0.66666667    0.07894737 T T T
    0.33333333    0.66666667    0.07894737 T T T
    0.66666667    0.66666667    0.07894737 T T T
    0.11111111    0.11111111    0.10526316 T T T
    0.44444444    0.11111111    0.10526316 T T T
    0.77777778    0.11111111    0.10526316 T T T
    0.11111111    0.44444444    0.10526316 T T T
    0.44444444    0.44444444    0.10526316 T T T
    0.77777778    0.44444444    0.10526316 T T T
    0.11111111    0.77777778    0.10526316 T T T
    0.44444444    0.77777778    0.10526316 T T T
    0.77777778    0.77777778    0.10526316 T T T
    0.22222222    0.22222222    0.13157895 T T T
    0.55555556    0.22222222    0.13157895 T T T
    0.88888889    0.22222222    0.13157895 T T T
    0.22222222    0.55555556    0.13157895 T T T
    0.55555556    0.55555556    0.13157895 T T T
    0.88888889    0.55555556    0.13157895 T T T
    0.22222222    0.88888889    0.13157895 T T T
    0.55555556    0.88888889    0.13157895 T T T
    0.88888889    0.88888889    0.13157895 T T T
    0.00000000    0.00000000    0.15789474 T T T
    0.33333333    0.00000000    0.15789474 T T T
    0.66666667    0.00000000    0.15789474 T T T
    0.00000000    0.33333333    0.15789474 T T T
    0.33333333    0.33333333    0.15789474 T T T
    0.66666667    0.33333333    0.15789474 T T T
    0.00000000    0.66666667    0.15789474 T T T
    0.33333333    0.66666667    0.15789474 T T T
    0.66666667    0.66666667    0.15789474 T T T
    0.11111111    0.11111111    0.18421053 T T T
    0.44444444    0.11111111    0.18421053 T T T
    0.77777778    0.11111111    0.18421053 T T T
    0.11111111    0.44444444    0.18421053 T T T
    0.44444444    0.44444444    0.18421053 T T T
    0.77777778    0.44444444    0.18421053 T T T
    0.11111111    0.77777778    0.18421053 T T T
    0.44444444    0.77777778    0.18421053 T T T
    0.77777778    0.77777778    0.18421053 T T T
    0.22222222    0.22222222    0.21052632 T T T
    0.55555556    0.22222222    0.21052632 T T T
    0.88888889    0.22222222    0.21052632 T T T
    0.22222222    0.55555556    0.21052632 T T T
    0.55555556    0.55555556    0.21052632 T T T
    0.88888889    0.55555556    0.21052632 T T T
    0.22222222    0.88888889    0.21052632 T T T
    0.55555556    0.88888889    0.21052632 T T T
    0.88888889    0.88888889    0.21052632 T T T
    0.00000000    0.00000000    0.23684211 T T T
    0.33333333    0.00000000    0.23684211 T T T
    0.66666667    0.00000000    0.23684211 T T T
    0.00000000    0.33333333    0.23684211 T T T
    0.33333333    0.33333333    0.23684211 T T T
    0.66666667    0.33333333    0.23684211 T T T
    0.00000000    0.66666667    0.23684211 T T T
    0.33333333    0.66666667    0.23684211 T T T
    0.66666667    0.66666667    0.23684211 T T T
    0.11111111    0.11111111    0.26315789 T T T
    0.44444444    0.11111111    0.26315789 T T T
    0.77777778    0.11111111    0.26315789 T T T
    0.11111111    0.44444444    0.26315789 T T T
    0.44444444    0.44444444    0.26315789 T T T
    0.77777778    0.44444444    0.26315789 T T T
    0.11111111    0.77777778    0.26315789 T T T
    0.44444444    0.77777778    0.26315789 T T T
    0.77777778    0.77777778    0.26315789 T T T
    0.22222222    0.22222222    0.28947368 T T T
    0.55555556    0.22222222    0.28947368 T T T
    0.88888889    0.22222222    0.28947368 T T T
    0.22222222    0.55555556    0.28947368 T T T
    0.55555556    0.55555556    0.28947368 T T T
    0.88888889    0.55555556    0.28947368 T T T
    0.22222222    0.88888889    0.28947368 T T T
    0.55555556    0.88888889    0.28947368 T T T
    0.88888889    0.88888889    0.28947368 T T T
    0.00000000    0.00000000    0.31578947 T T T
    0.33333333    0.00000000    0.31578947 T T T
    0.66666667    0.00000000    0.31578947 T T T
    0.00000000    0.33333333    0.31578947 T T T
    0.33333333    0.33333333    0.31578947 T T T
    0.66666667    0.33333333    0.31578947 T T T
    0.00000000    0.66666667    0.31578947 T T T
    0.33333333    0.66666667    0.31578947 T T T
    0.66666667    0.66666667    0.31578947 T T T
    0.11111111    0.11111111    0.34210526 T T T
    0.44444444    0.11111111    0.34210526 T T T
    0.77777778    0.11111111    0.34210526 T T T
    0.11111111    0.44444444    0.34210526 T T T
    0.44444444    0.44444444    0.34210526 T T T
    0.77777778    0.44444444    0.34210526 T T T
    0.11111111    0.77777778    0.34210526 T T T
    0.44444444    0.77777778    0.34210526 T T T
    0.77777778    0.77777778    0.34210526 T T T
    0.00000000    0.00000000    0.36842105 T T T
    0.33333333    0.00000000    0.36842105 T T T
    0.66666667    0.00000000    0.36842105 T T T
    0.00000000    0.33333333    0.36842105 T T T
    0.33333333    0.33333333    0.36842105 T T T
    0.66666667    0.33333333    0.36842105 T T T
    0.00000000    0.66666667    0.36842105 T T T
    0.33333333    0.66666667    0.36842105 T T T
    0.66666667    0.66666667    0.36842105 T T T
    0.22222222    0.22222222    0.39473684 T T T
    0.55555556    0.22222222    0.39473684 T T T
    0.88888889    0.22222222    0.39473684 T T T
    0.22222222    0.55555556    0.39473684 T T T
    0.55555556    0.55555556    0.39473684 T T T
    0.88888889    0.55555556    0.39473684 T T T
    0.22222222    0.88888889    0.39473684 T T T
    0.55555556    0.88888889    0.39473684 T T T
    0.88888889    0.88888889    0.39473684 T T T
    0.11111111    0.11111111    0.42105263 T T T
    0.44444444    0.11111111    0.42105263 T T T
    0.77777778    0.11111111    0.42105263 T T T
    0.11111111    0.44444444    0.42105263 T T T
    0.44444444    0.44444444    0.42105263 T T T
    0.77777778    0.44444444    0.42105263 T T T
    0.11111111    0.77777778    0.42105263 T T T
    0.44444444    0.77777778    0.42105263 T T T
    0.77777778    0.77777778    0.42105263 T T T
    0.00000000    0.00000000    0.44736842 T T T
    0.33333333    0.00000000    0.44736842 T T T
    0.66666667    0.00000000    0.44736842 T T T
    0.00000000    0.33333333    0.44736842 T T T
    0.33333333    0.33333333    0.44736842 T T T
    0.66666667    0.33333333    0.44736842 T T T
    0.00000000    0.66666667    0.44736842 T T T
    0.33333333    0.66666667    0.44736842 T T T
    0.66666667    0.66666667    0.44736842 T T T
    0.22222222    0.22222222    0.47368421 T T T
    0.55555556    0.22222222    0.47368421 T T T
    0.88888889    0.22222222    0.47368421 T T T
    0.22222222    0.55555556    0.47368421 T T T
    0.55555556    0.55555556    0.47368421 T T T
    0.88888889    0.55555556    0.47368421 T T T
    0.22222222    0.88888889    0.47368421 T T T
    0.55555556    0.88888889    0.47368421 T T T
    0.88888889    0.88888889    0.47368421 T T T
    0.11111111    0.11111111    0.50000000 T T T
    0.44444444    0.11111111    0.50000000 T T T
    0.77777778    0.11111111    0.50000000 T T T
    0.11111111    0.44444444    0.50000000 T T T
    0.44444444    0.44444444    0.50000000 T T T
    0.77777778    0.44444444    0.50000000 T T T
    0.11111111    0.77777778    0.50000000 T T T
    0.44444444    0.77777778    0.50000000 T T T
    0.77777778    0.77777778    0.50000000 T T T
    0.00000000    0.00000000    0.52631579 T T T
    0.33333333    0.00000000    0.52631579 T T T
    0.66666667    0.00000000    0.52631579 T T T
    0.00000000    0.33333333    0.52631579 T T T
    0.33333333    0.33333333    0.52631579 T T T
    0.66666667    0.33333333    0.52631579 T T T
    0.00000000    0.66666667    0.52631579 T T T
    0.33333333    0.66666667    0.52631579 T T T
    0.66666667    0.66666667    0.52631579 T T T
    0.22222222    0.22222222    0.55263158 T T T
    0.55555556    0.22222222    0.55263158 T T T
    0.88888889    0.22222222    0.55263158 T T T
    0.22222222    0.55555556    0.55263158 T T T
    0.55555556    0.55555556    0.55263158 T T T
    0.88888889    0.55555556    0.55263158 T T T
    0.22222222    0.88888889    0.55263158 T T T
    0.55555556    0.88888889    0.55263158 T T T
    0.88888889    0.88888889    0.55263158 T T T
    0.11111111    0.11111111    0.57894737 T T T
    0.44444444    0.11111111    0.57894737 T T T
    0.77777778    0.11111111    0.57894737 T T T
    0.11111111    0.44444444    0.57894737 T T T
    0.44444444    0.44444444    0.57894737 T T T
    0.77777778    0.44444444    0.57894737 T T T
    0.11111111    0.77777778    0.57894737 T T T
    0.44444444    0.77777778    0.57894737 T T T
    0.77777778    0.77777778    0.57894737 T T T
    0.00000000    0.00000000    0.60526316 T T T
    0.33333333    0.00000000    0.60526316 T T T
    0.66666667    0.00000000    0.60526316 T T T
    0.00000000    0.33333333    0.60526316 T T T
    0.33333333    0.33333333    0.60526316 T T T
    0.66666667    0.33333333    0.60526316 T T T
    0.00000000    0.66666667    0.60526316 T T T
    0.33333333    0.66666667    0.60526316 T T T
    0.66666667    0.66666667    0.60526316 T T T
    0.11111111    0.11111111    0.63157895 T T T
    0.44444444    0.11111111    0.63157895 T T T
    0.77777778    0.11111111    0.63157895 T T T
    0.11111111    0.44444444    0.63157895 T T T
    0.44444444    0.44444444    0.63157895 T T T
    0.77777778    0.44444444    0.63157895 T T T
    0.11111111    0.77777778    0.63157895 T T T
    0.44444444    0.77777778    0.63157895 T T T
    0.77777778    0.77777778    0.63157895 T T T
    0.22222222    0.22222222    0.65789474 T T T
    0.55555556    0.22222222    0.65789474 T T T
    0.88888889    0.22222222    0.65789474 T T T
    0.22222222    0.55555556    0.65789474 T T T
    0.55555556    0.55555556    0.65789474 T T T
    0.88888889    0.55555556    0.65789474 T T T
    0.22222222    0.88888889    0.65789474 T T T
    0.55555556    0.88888889    0.65789474 T T T
    0.88888889    0.88888889    0.65789474 T T T
    0.00000000    0.00000000    0.68421053 T T T
    0.33333333    0.00000000    0.68421053 T T T
    0.66666667    0.00000000    0.68421053 T T T
    0.00000000    0.33333333    0.68421053 T T T
    0.33333333    0.33333333    0.68421053 T T T
    0.66666667    0.33333333    0.68421053 T T T
    0.00000000    0.66666667    0.68421053 T T T
    0.33333333    0.66666667    0.68421053 T T T
    0.66666667    0.66666667    0.68421053 T T T
    0.11111111    0.11111111    0.71052632 T T T
    0.44444444    0.11111111    0.71052632 T T T
    0.77777778    0.11111111    0.71052632 T T T
    0.11111111    0.44444444    0.71052632 T T T
    0.44444444    0.44444444    0.71052632 T T T
    0.77777778    0.44444444    0.71052632 T T T
    0.11111111    0.77777778    0.71052632 T T T
    0.44444444    0.77777778    0.71052632 T T T
    0.77777778    0.77777778    0.71052632 T T T
    0.22222222    0.22222222    0.73684211 T T T
    0.55555556    0.22222222    0.73684211 T T T
    0.88888889    0.22222222    0.73684211 T T T
    0.22222222    0.55555556    0.73684211 T T T
    0.55555556    0.55555556    0.73684211 T T T
    0.88888889    0.55555556    0.73684211 T T T
    0.22222222    0.88888889    0.73684211 T T T
    0.55555556    0.88888889    0.73684211 T T T
    0.88888889    0.88888889    0.73684211 T T T
    0.00000000    0.00000000    0.76315789 T T T
    0.33333333    0.00000000    0.76315789 T T T
    0.66666667    0.00000000    0.76315789 T T T
    0.00000000    0.33333333    0.76315789 T T T
    0.33333333    0.33333333    0.76315789 T T T
    0.66666667    0.33333333    0.76315789 T T T
    0.00000000    0.66666667    0.76315789 T T T
    0.33333333    0.66666667    0.76315789 T T T
    0.66666667    0.66666667    0.76315789 T T T
    0.11111111    0.11111111    0.78947368 T T T
    0.44444444    0.11111111    0.78947368 T T T
    0.77777778    0.11111111    0.78947368 T T T
    0.11111111    0.44444444    0.78947368 T T T
    0.44444444    0.44444444    0.78947368 T T T
    0.77777778    0.44444444    0.78947368 T T T
    0.11111111    0.77777778    0.78947368 T T T
    0.44444444    0.77777778    0.78947368 T T T
    0.77777778    0.77777778    0.78947368 T T T
    0.22222222    0.22222222    0.81578947 T T T
    0.55555556    0.22222222    0.81578947 T T T
    0.88888889    0.22222222    0.81578947 T T T
    0.22222222    0.55555556    0.81578947 T T T
    0.55555556    0.55555556    0.81578947 T T T
    0.88888889    0.55555556    0.81578947 T T T
    0.22222222    0.88888889    0.81578947 T T T
    0.55555556    0.88888889    0.81578947 T T T
    0.88888889    0.88888889    0.81578947 T T T
    0.00000000    0.00000000    0.84210526 T T T
    0.33333333    0.00000000    0.84210526 T T T
    0.66666667    0.00000000    0.84210526 T T T
    0.00000000    0.33333333    0.84210526 T T T
    0.33333333    0.33333333    0.84210526 T T T
    0.66666667    0.33333333    0.84210526 T T T
    0.00000000    0.66666667    0.84210526 T T T
    0.33333333    0.66666667    0.84210526 T T T
    0.66666667    0.66666667    0.84210526 T T T
    0.11111111    0.11111111    0.86842105 T T T
    0.44444444    0.11111111    0.86842105 T T T
    0.77777778    0.11111111    0.86842105 T T T
    0.11111111    0.44444444    0.86842105 T T T
    0.44444444    0.44444444    0.86842105 T T T
    0.77777778    0.44444444    0.86842105 T T T
    0.11111111    0.77777778    0.86842105 T T T
    0.44444444    0.77777778    0.86842105 T T T
    0.77777778    0.77777778    0.86842105 T T T
    0.22222222    0.22222222    0.89473684 T T T
    0.55555556    0.22222222    0.89473684 T T T
    0.88888889    0.22222222    0.89473684 T T T
    0.22222222    0.55555556    0.89473684 T T T
    0.55555556    0.55555556    0.89473684 T T T
    0.88888889    0.55555556    0.89473684 T T T
    0.22222222    0.88888889    0.89473684 T T T
    0.55555556    0.88888889    0.89473684 T T T
    0.88888889    0.88888889    0.89473684 T T T
    0.00000000    0.00000000    0.92105263 T T T
    0.33333333    0.00000000    0.92105263 T T T
    0.66666667    0.00000000    0.92105263 T T T
    0.00000000    0.33333333    0.92105263 T T T
    0.33333333    0.33333333    0.92105263 T T T
    0.66666667    0.33333333    0.92105263 T T T
    0.00000000    0.66666667    0.92105263 T T T
    0.33333333    0.66666667    0.92105263 T T T
    0.66666667    0.66666667    0.92105263 T T T
    0.11111111    0.11111111    0.94736842 T T T
    0.44444444    0.11111111    0.94736842 T T T
    0.77777778    0.11111111    0.94736842 T T T
    0.11111111    0.44444444    0.94736842 T T T
    0.44444444    0.44444444    0.94736842 T T T
    0.77777778    0.44444444    0.94736842 T T T
    0.11111111    0.77777778    0.94736842 T T T
    0.44444444    0.77777778    0.94736842 T T T
    0.77777778    0.77777778    0.94736842 T T T
    0.22222222    0.22222222    0.97368421 F F F
    0.55555556    0.22222222    0.97368421 F F F
    0.88888889    0.22222222    0.97368421 F F F
    0.22222222    0.55555556    0.97368421 F F F
    0.55555556    0.55555556    0.97368421 F F F
    0.88888889    0.55555556    0.97368421 F F F
    0.22222222    0.88888889    0.97368421 F F F
    0.55555556    0.88888889    0.97368421 F F F
    0.88888889    0.88888889    0.97368421 F F F
