Generated generic
1.0
    7.66857304    0.00000000    0.00000000
    0.00000000    8.85490542    0.00000000
    0.00000000    0.00000000   25.04545468
 Cu
 144
Selective dynamics
Direct
    0.16583478    0.08113222   -0.00004702 F F F
    0.50119177    0.08141064    0.00067344 F F F
    0.83349884    0.08380498   -0.00004321 F F F
    0.00251869    0.33449372    0.00004141 F F F
    0.33582785    0.33537747   -0.00037188 F F F
    0.66885665    0.33330535    0.00079092 F F F
    0.16789160    0.58319890   -0.00074780 F F F
    0.49819484    0.58393667   -0.00047419 F F F
    0.83313221    0.58420622   -0.00075202 F F F
    0.00167267    0.83231682   -0.00055200 F F F
    0.33190673    0.83168284   -0.00034034 F F F
    0.66783653    0.83394746    0.00008116 F F F
    0.00012966    0.16698361    0.08305332 F F F
    0.33190508    0.16680216    0.08411738 F F F
    0.66465640    0.16652191    0.08265684 F F F
    0.16593765    0.41793259    0.08376169 F F F
    0.50079619    0.41737996    0.08314007 F F F
    0.83275444    0.41626253    0.08399498 F F F
    0.00198488    0.66664308    0.08410203 F F F
    0.33583889    0.66708531    0.08405497 F F F
    0.66439233    0.66462220    0.08332523 F F F
    0.16483016    0.91821996    0.08273771 F F F
    0.49914200    0.91524484    0.08302338 F F F
    0.83180347    0.91764803    0.08324781 F F F
    0.99739450    0.99929428    0.16660082 F F F
    0.33401771    0.99906772    0.16690644 F F F
    0.66779230    0.99826280    0.16588860 F F F
    0.16889475    0.25027189    0.16601311 F F F
    0.50009269    0.25170936    0.16714656 F F F
    0.83363121    0.24837850    0.16720112 F F F
    0.99812445    0.49875840    0.16700424 F F F
    0.33465250    0.50087526    0.16624640 F F F
    0.66883552    0.50017076    0.16697910 F F F
    0.16413880    0.74838320    0.16642905 F F F
    0.49782646    0.74829188    0.16613980 F F F
    0.83399295    0.74961182    0.16631440 F F F
    0.16518989    0.08551621    0.24952016 F F F
    0.49859084    0.08119946    0.24946578 F F F
    0.83146120    0.08136103    0.25031180 F F F
    0.99742629    0.33141479    0.24943780 F F F
    0.33441846    0.33472382    0.24957413 F F F
    0.66649096    0.33234450    0.24925810 F F F
    0.16503931    0.58291624    0.24942582 F F F
    0.49911801    0.58558456    0.24930535 F F F
    0.83093343    0.58547682    0.24987158 F F F
    0.99798469    0.83225520    0.24927522 F F F
    0.33166546    0.83276511    0.24941061 F F F
    0.66446681    0.83555953    0.25079506 F F F
    0.99888270    0.16677618    0.33334530 F F F
    0.33274163    0.16788875    0.33260851 F F F
    0.66866353    0.16699029    0.33282468 F F F
    0.16747810    0.41706819    0.33301616 F F F
    0.49826278    0.41702286    0.33362898 F F F
    0.83147821    0.41451131    0.33258324 F F F
    0.99925769    0.66788025    0.33275013 F F F
    0.33385780    0.66718417    0.33363934 F F F
    0.66535860    0.66822261    0.33299237 F F F
    0.16918849    0.91517116    0.33385868 F F F
    0.49797656    0.91867883    0.33369552 F F F
    0.83458487    0.91660026    0.33253818 F F F
    0.00012283    0.99968304    0.41613777 F F F
    0.33396486    0.00105501    0.41587719 F F F
    0.66590230    0.99800509    0.41742588 F F F
    0.16735581    0.25160670    0.41711560 F F F
    0.49869876    0.24947264    0.41634137 F F F
    0.83355118    0.25142321    0.41715239 F F F
    0.99821696    0.50181842    0.41643646 F F F
    0.33125923    0.50047840    0.41659459 F F F
    0.66743139    0.49844059    0.41646344 F F F
    0.16852385    0.75125155    0.41622782 F F F
    0.49975071    0.75110952    0.41670973 F F F
    0.83366922    0.74835908    0.41610412 F F F
    0.43342183    0.08388274    0.49974345 F F T
    0.76845823    0.08225784    0.50001808 F F T
    0.09978815    0.08458241    0.50004327 F F T
    0.26421844    0.33364901    0.50025957 F F T
    0.60248274    0.33237962    0.49952460 F F T
    0.93217220    0.33557881    0.49935006 F F T
    0.43321990    0.58222061    0.49951357 F F T
    0.76570652    0.58514168    0.49937868 F F T
    0.09922995    0.58153166    0.49956300 F F T
    0.26520647    0.83149757    0.50000277 F F T
    0.59851858    0.83130570    0.49957569 F F T
    0.93339034    0.83218517    0.49997398 F F T
    0.26703780    0.16635597    0.58299570 F F T
    0.60077369    0.16748915    0.58360768 F F T
    0.93156636    0.16722137    0.58358834 F F T
    0.43321930    0.41670455    0.58256996 F F T
    0.76539016    0.41834593    0.58363781 F F T
    0.10158790    0.41868103    0.58401993 F F T
    0.26481782    0.66598161    0.58276032 F F T
    0.59758188    0.66677901    0.58334894 F F T
    0.93420399    0.66723429    0.58394522 F F T
    0.43416923    0.91503757    0.58353954 F F T
    0.76842477    0.91774909    0.58337845 F F T
    0.09893363    0.91732567    0.58300886 F F T
    0.26657444    0.00091206    0.66646148 F F T
    0.60107263    0.00220926    0.66709338 F F T
    0.93139005    0.99810151    0.66705897 F F T
    0.43562744    0.25223496    0.66725774 F F T
    0.76746474    0.25146507    0.66629166 F F T
    0.09919817    0.24942182    0.66603412 F F T
    0.26610554    0.50194025    0.66737321 F F T
    0.59766814    0.50068496    0.66632999 F F T
    0.93341918    0.49901628    0.66739105 F F T
    0.43289716    0.74920597    0.66682825 F F T
    0.76547853    0.74872035    0.66617774 F F T
    0.09853462    0.74938595    0.66599753 F F T
    0.43134365    0.08286888    0.74944554 F F T
    0.76609760    0.08217789    0.75027241 F F T
    0.10239404    0.08316124    0.75045065 F F T
    0.26825777    0.33214638    0.75052160 F F T
    0.59909350    0.33236656    0.75007491 F F T
    0.93455589    0.33285240    0.75074699 F F T
    0.43440153    0.58511789    0.75047222 F F T
    0.76880229    0.58109079    0.74967650 F F T
    0.10171178    0.58223512    0.75070142 F F T
    0.26699760    0.83171328    0.75011369 F F T
    0.59846170    0.83353256    0.75076480 F F T
    0.93492163    0.83480287    0.74920612 F F T
    0.26492858    0.16752127    0.83267952 F F T
    0.59747911    0.16659783    0.83340117 F F T
    0.93270825    0.16457787    0.83396789 F F T
    0.43516063    0.41686174    0.83409575 F F T
    0.76906406    0.41882695    0.83286538 F F T
    0.09868512    0.41768969    0.83362422 F F T
    0.26905730    0.66789245    0.83397765 F F T
    0.60117268    0.66621043    0.83260523 F F T
    0.93393570    0.66441146    0.83380909 F F T
    0.43248322    0.91854572    0.83366781 F F T
    0.76820488    0.91499874    0.83365307 F F T
    0.10145063    0.91534095    0.83287899 F F T
    0.26413212    0.00197827    0.91603048 F F T
    0.59913556    0.99974222    0.91623785 F F T
    0.93361153    0.00065685    0.91628195 F F T
    0.43303235    0.24864059    0.91651397 F F T
    0.76859152    0.24775731    0.91643912 F F T
    0.09765899    0.24884309    0.91614799 F F T
    0.26406254    0.49800340    0.91705108 F F T
    0.60051711    0.49779100    0.91611874 F F T
    0.93137624    0.49839596    0.91668199 F F T
    0.43471542    0.75075561    0.91591760 F F T
    0.76603995    0.75051473    0.91598296 F F T
    0.09980709    0.74990517    0.91630582 F F T
