Generated generic
1.0
    7.66857304    0.00000000    0.00000000
    0.00000000    8.85490542    0.00000000
    0.00000000    0.00000000   25.04545468
 Cu
 144
Selective dynamics
Direct
    0.16490133    0.08451651   -0.00034000 F F F
    0.50009814    0.08193250    0.00055151 F F F
    0.83334865    0.08319163    0.00030782 F F F
    0.99805549    0.33114533    0.00026989 F F F
    0.33314296    0.33133294   -0.00059618 F F F
    0.66777529    0.33291536    0.00064929 F F F
    0.16853473    0.58403961   -0.00005396 F F F
    0.50074625    0.58156957   -0.00055229 F F F
    0.83154406    0.58263318   -0.00016223 F F F
    0.99942758    0.83179151    0.00079008 F F F
    0.33329359    0.83126812    0.00026335 F F F
    0.66478865    0.83335872    0.00053379 F F F
    0.00219161    0.16884686    0.08339200 F F F
    0.33109810    0.16806728    0.08293462 F F F
    0.66455315    0.16619451    0.08313081 F F F
    0.16464807    0.41626682    0.08320915 F F F
    0.50080696    0.41820225    0.08371726 F F F
    0.83568961    0.41500816    0.08411111 F F F
    0.99975453    0.66611397    0.08295550 F F F
    0.33403328    0.66722850    0.08409682 F F F
    0.66406460    0.66608029    0.08361668 F F F
    0.16923397    0.91617633    0.08295025 F F F
    0.49939329    0.91469197    0.08372692 F F F
    0.83583157    0.91789212    0.08284549 F F F
    0.99916284    0.00064349    0.16740190 F F F
    0.33250224    0.00109425    0.16731446 F F F
    0.66446471    0.99892728    0.16733454 F F F
    0.16440713    0.25152006    0.16697664 F F F
    0.49813398    0.24797408    0.16699984 F F F
    0.83288471    0.25027078    0.16666722 F F F
    0.99940521    0.49856219    0.16616749 F F F
    0.33510583    0.49926965    0.16722742 F F F
    0.66489964    0.50058962    0.16607834 F F F
    0.16519642    0.74975716    0.16727712 F F F
    0.49771507    0.75194882    0.16715918 F F F
    0.83272517    0.74780789    0.16703388 F F F
    0.16753048    0.08462416    0.24946716 F F F
    0.49942452    0.08316702    0.25042600 F F F
    0.83354872    0.08118342    0.24966744 F F F
    0.00063504    0.33232696    0.25052736 F F F
    0.33149029    0.33442649    0.25005604 F F F
    0.66477945    0.33155120    0.24987687 F F F
    0.16773176    0.58289948    0.24973644 F F F
    0.50185959    0.58220731    0.24997371 F F F
    0.83327719    0.58275032    0.24983416 F F F
    0.99750079    0.83292327    0.24959599 F F F
    0.33308799    0.83410946    0.25072309 F F F
    0.66778699    0.83305616    0.24939153 F F F
    0.99882899    0.16709966    0.33260492 F F F
    0.33568829    0.16766329    0.33342746 F F F
    0.66868332    0.16650721    0.33402865 F F F
    0.16808871    0.41796746    0.33274040 F F F
    0.50067391    0.41776656    0.33294479 F F F
    0.83173926    0.41717832    0.33263481 F F F
    0.00153842    0.66529809    0.33336526 F F F
    0.33216936    0.66808687    0.33395007 F F F
    0.66674784    0.66630011    0.33287201 F F F
    0.16861376    0.91488112    0.33394855 F F F
    0.49788015    0.91850439    0.33396453 F F F
    0.83336944    0.91769265    0.33377945 F F F
    0.00199470    0.99922663    0.41700706 F F F
    0.33376280    0.00172847    0.41735582 F F F
    0.66757933    0.99974155    0.41649019 F F F
    0.16700433    0.25065268    0.41610208 F F F
    0.49957964    0.25045718    0.41671054 F F F
    0.83204816    0.25187482    0.41602881 F F F
    0.99771995    0.49975627    0.41620953 F F F
    0.33318209    0.49978850    0.41668673 F F F
    0.66433599    0.49978330    0.41624666 F F F
    0.16738956    0.74787737    0.41742813 F F F
    0.50138248    0.75019463    0.41617813 F F F
    0.83352321    0.74918181    0.41607723 F F F
    0.36675423    0.33122194    0.49966856 F F T
    0.69905557    0.33506636    0.49951987 F F T
    0.03150664    0.33415462    0.49951332 F F T
    0.19945564    0.58330293    0.50045765 F F T
    0.53139115    0.58488654    0.49995902 F F T
    0.86506053    0.58532314    0.49969905 F F T
    0.36912121    0.83518857    0.50061116 F F T
    0.69969809    0.83410241    0.49955022 F F T
    0.03522814    0.83430792    0.50014699 F F T
    0.20110254    0.08332059    0.49959654 F F T
    0.53218415    0.08273359    0.50061644 F F T
    0.86723863    0.08361975    0.50031387 F F T
    0.20028172    0.41453021    0.58336470 F F T
    0.53476720    0.41611683    0.58294087 F F T
    0.86893231    0.41466092    0.58277106 F F T
    0.36435650    0.66664880    0.58318642 F F T
    0.69915179    0.66542198    0.58391453 F F T
    0.03360332    0.66562450    0.58271499 F F T
    0.20128686    0.91825486    0.58357823 F F T
    0.53205604    0.91829732    0.58278317 F F T
    0.86666233    0.91824639    0.58356875 F F T
    0.36457847    0.16613423    0.58384794 F F T
    0.70257191    0.16648192    0.58308125 F F T
    0.03431442    0.16754932    0.58363551 F F T
    0.19990158    0.25009747    0.66705578 F F T
    0.53379169    0.25195734    0.66619396 F F T
    0.86802809    0.25107757    0.66697474 F F T
    0.36757615    0.50071091    0.66632961 F F T
    0.70150372    0.50152033    0.66634027 F F T
    0.03330310    0.50036735    0.66623994 F F T
    0.19868666    0.75119353    0.66671264 F F T
    0.53542573    0.75107924    0.66620815 F F T
    0.86584566    0.74902707    0.66706415 F F T
    0.36462855    0.99964518    0.66594415 F F T
    0.69790226    0.99933824    0.66646063 F F T
    0.03392719    0.99867270    0.66616828 F F T
    0.36832348    0.33468218    0.74932295 F F T
    0.70258206    0.33495509    0.75000146 F F T
    0.03284990    0.33377624    0.74951649 F F T
    0.19827588    0.58165823    0.75047482 F F T
    0.53195653    0.58329622    0.74965205 F F T
    0.86617363    0.58292128    0.74954057 F F T
    0.36452676    0.83279431    0.75024794 F F T
    0.69827336    0.83368391    0.75002284 F F T
    0.03095882    0.83439347    0.74954832 F F T
    0.20019177    0.08246804    0.74957484 F F T
    0.53380482    0.08253916    0.75019191 F F T
    0.86925960    0.08543923    0.74961802 F F T
    0.20257699    0.41708336    0.83345895 F F T
    0.53088073    0.41643429    0.83287894 F F T
    0.86759923    0.41529439    0.83270040 F F T
    0.36603030    0.66584139    0.83364863 F F T
    0.70106193    0.66570951    0.83401982 F F T
    0.03189465    0.66547231    0.83405443 F F T
    0.20186015    0.91675822    0.83267392 F F T
    0.53322268    0.91618560    0.83339694 F F T
    0.86666256    0.91852248    0.83262101 F F T
    0.36748386    0.16841264    0.83365101 F F T
    0.70070143    0.16743595    0.83278906 F F T
    0.03200569    0.16637287    0.83377263 F F T
    0.19974028    0.24775084    0.91618624 F F T
    0.53224368    0.25146033    0.91592632 F F T
    0.86669667    0.24865782    0.91632647 F F T
    0.36617479    0.50069349    0.91612820 F F T
    0.70110649    0.49826236    0.91677240 F F T
    0.03436526    0.50033990    0.91665411 F F T
    0.19874599    0.75142506    0.91694436 F F T
    0.53251307    0.74890700    0.91639981 F F T
    0.86767624    0.75208177    0.91589970 F F T
    0.36651770    0.99810759    0.91692639 F F T
    0.70111778    0.00012646    0.91696059 F F T
    0.03335024    0.99788965    0.91693779 F F T
