Generated generic
1.0
    7.66857304    0.00000000    0.00000000
    0.00000000    8.85490542    0.00000000
    0.00000000    0.00000000   25.04545468
 Cu
 144
Selective dynamics
Direct
    0.16678703    0.08338560   -0.00065186 F F F
    0.50216867    0.08247917    0.00030683 F F F
    0.83473687    0.08384439   -0.00045821 F F F
    0.00219628    0.33332298   -0.00062629 F F F
    0.33246257    0.33144950    0.00072448 F F F
    0.66437990    0.33231310    0.00018503 F F F
    0.16838494    0.58210953   -0.00036347 F F F
    0.49891176    0.58278658    0.00054415 F F F
    0.83297120    0.58431936    0.00019430 F F F
    0.99784647    0.83178071    0.00019496 F F F
    0.33234809    0.83198247    0.00024671 F F F
    0.66533298    0.83532141   -0.00061492 F F F
    0.99841752    0.16527836    0.08359629 F F F
    0.33445887    0.16702350    0.08393255 F F F
    0.66593164    0.16617199    0.08361956 F F F
    0.16901824    0.41596917    0.08304797 F F F
    0.49755955    0.41873636    0.08258133 F F F
    0.83250728    0.41610809    0.08293457 F F F
    0.00229750    0.66500334    0.08321899 F F F
    0.33516395    0.66450853    0.08354278 F F F
    0.66443043    0.66749834    0.08349716 F F F
    0.16571562    0.91863407    0.08377675 F F F
    0.49992251    0.91646103    0.08281885 F F F
    0.83095048    0.91578914    0.08278610 F F F
    0.00200480    0.99839080    0.16679413 F F F
    0.33286126    0.99873798    0.16668400 F F F
    0.66599308    0.99886325    0.16664803 F F F
    0.16745344    0.24807806    0.16668717 F F F
    0.50222948    0.25205975    0.16694301 F F F
    0.83131587    0.25136742    0.16657810 F F F
    0.99967307    0.50111160    0.16612089 F F F
    0.33339792    0.50120097    0.16622140 F F F
    0.66452754    0.50009101    0.16636034 F F F
    0.16464534    0.75033907    0.16725108 F F F
    0.49883098    0.75188561    0.16625497 F F F
    0.83386890    0.75169781    0.16685643 F F F
    0.16553083    0.08155177    0.25046434 F F F
    0.49797190    0.08353865    0.24956222 F F F
    0.83092060    0.08517147    0.25003511 F F F
    0.99835705    0.33335012    0.25075617 F F F
    0.33554289    0.33395647    0.24997667 F F F
    0.66496253    0.33254160    0.24980066 F F F
    0.16454286    0.58124064    0.25026898 F F F
    0.50135299    0.58279423    0.24934888 F F F
    0.83452984    0.58369075    0.24931433 F F F
    0.00224989    0.83345301    0.24999703 F F F
    0.33367625    0.83503966    0.24952452 F F F
    0.66414116    0.83544196    0.25057050 F F F
    0.99881823    0.16892028    0.33310914 F F F
    0.33075100    0.16572188    0.33370026 F F F
    0.66408037    0.16562172    0.33309042 F F F
    0.16559679    0.41442997    0.33268178 F F F
    0.50171653    0.41573155    0.33374968 F F F
    0.83577789    0.41802299    0.33336019 F F F
    0.00132604    0.66577837    0.33370054 F F F
    0.33222135    0.66517439    0.33352665 F F F
    0.66802415    0.66563246    0.33386865 F F F
    0.16758672    0.91846530    0.33386497 F F F
    0.50213610    0.91754443    0.33367715 F F F
    0.83309299    0.91769697    0.33288287 F F F
    0.00015466    0.99964089    0.41621549 F F F
    0.33085876    0.00016028    0.41690545 F F F
    0.66523739    0.00015465    0.41735543 F F F
    0.16864981    0.25013677    0.41602225 F F F
    0.50160277    0.24804976    0.41687391 F F F
    0.83363290    0.24885175    0.41673565 F F F
    0.99908844    0.50214401    0.41700584 F F F
    0.33506956    0.49932724    0.41597129 F F F
    0.66813823    0.49935449    0.41627802 F F F
    0.16823132    0.75078448    0.41636218 F F F
    0.49809798    0.75201783    0.41730471 F F F
    0.83539604    0.74979500    0.41592593 F F F
    0.43164509    0.18181267    0.50012719 F F T
    0.76443223    0.18364262    0.50034371 F F T
    0.10108817    0.18446377    0.50000360 F F T
    0.26604666    0.43163051    0.50062499 F F T
    0.60102509    0.43133534    0.49930779 F F T
    0.93566801    0.43523941    0.50038768 F F T
    0.43179163    0.68405811    0.49942390 F F T
    0.76414027    0.68330402    0.50019073 F F T
    0.09964184    0.68148872    0.49946780 F F T
    0.26412554    0.93159188    0.50014331 F F T
    0.59770829    0.93191095    0.49928796 F F T
    0.93457142    0.93129286    0.50027442 F F T
    0.26525855    0.26538777    0.58373495 F F T
    0.60044118    0.26781057    0.58273072 F F T
    0.93460008    0.26887666    0.58391093 F F T
    0.43144472    0.51756091    0.58376045 F F T
    0.76718882    0.51494487    0.58368420 F F T
    0.09943760    0.51536493    0.58395249 F F T
    0.26856455    0.76670875    0.58353600 F F T
    0.60198105    0.76693015    0.58410378 F F T
    0.93126550    0.76871834    0.58409242 F F T
    0.43417024    0.01600440    0.58270407 F F T
    0.76818280    0.01476858    0.58305906 F F T
    0.09918186    0.01606937    0.58347305 F F T
    0.26513501    0.09928484    0.66707749 F F T
    0.60250517    0.09875642    0.66709941 F F T
    0.93547409    0.10005831    0.66632808 F F T
    0.43114184    0.35214459    0.66623144 F F T
    0.76569407    0.35188467    0.66598890 F F T
    0.09794974    0.34876638    0.66741528 F F T
    0.26591357    0.60156406    0.66744977 F F T
    0.60119193    0.59909555    0.66606343 F F T
    0.93532425    0.60105639    0.66658589 F F T
    0.43087753    0.84871806    0.66745437 F F T
    0.76439739    0.84963676    0.66703188 F F T
    0.10062664    0.85175669    0.66710608 F F T
    0.43522637    0.18393364    0.75070050 F F T
    0.76782929    0.18446141    0.74934893 F F T
    0.09935619    0.18160767    0.75060240 F F T
    0.26723580    0.43384219    0.75033110 F F T
    0.59831666    0.43259422    0.74967086 F F T
    0.93078314    0.43493667    0.74921405 F F T
    0.43265311    0.68354771    0.75013704 F F T
    0.76565778    0.68340471    0.74955265 F F T
    0.09828603    0.68222966    0.75061641 F F T
    0.26638226    0.93253993    0.74983060 F F T
    0.60200915    0.93415469    0.74990482 F F T
    0.93531468    0.93403703    0.75016871 F F T
    0.26705799    0.26653087    0.83340415 F F T
    0.59942383    0.26768946    0.83315328 F F T
    0.93090174    0.26805739    0.83320184 F F T
    0.43378504    0.51477536    0.83314361 F F T
    0.76487880    0.51476087    0.83396488 F F T
    0.09793847    0.51728964    0.83349396 F F T
    0.26423269    0.76839101    0.83325010 F F T
    0.59744811    0.76621683    0.83401582 F F T
    0.93201130    0.76782343    0.83397406 F F T
    0.43545295    0.01878509    0.83404883 F F T
    0.76437266    0.01557781    0.83338957 F F T
    0.09830616    0.01858984    0.83286655 F F T
    0.26527331    0.09835534    0.91685010 F F T
    0.60069877    0.09912759    0.91721145 F F T
    0.93458091    0.10143771    0.91727914 F F T
    0.43318179    0.35072896    0.91618259 F F T
    0.76901012    0.35114304    0.91660883 F F T
    0.10027135    0.34839320    0.91696057 F F T
    0.26501359    0.59786444    0.91660125 F F T
    0.59878379    0.59847933    0.91617701 F F T
    0.93312690    0.59965497    0.91737099 F F T
    0.43356570    0.84987915    0.91642518 F F T
    0.76692325    0.84947909    0.91732277 F F T
    0.10005582    0.84787686    0.91730153 F F T
