Generated generic
1.0
    7.66857304    0.00000000    0.00000000
    5.11238203    8.85490542    0.00000000
    0.00000000    0.00000000   87.65909137
 Cu
 504
Selective dynamics
Direct
    0.00000000    0.00000000    0.00000000 T T T
    0.33333333    0.00000000    0.00000000 T T T
    0.66666667    0.00000000    0.00000000 T T T
    0.00000000    0.25000000    0.00000000 T T T
    0.33333333    0.25000000    0.00000000 T T T
    0.66666667    0.25000000    0.00000000 T T T
    0.00000000    0.50000000    0.00000000 T T T
    0.33333333    0.50000000    0.00000000 T T T
    0.66666667    0.50000000    0.00000000 T T T
    0.00000000    0.75000000    0.00000000 T T T
    0.33333333    0.75000000    0.00000000 T T T
    0.66666667    0.75000000    0.00000000 T T T
    0.11111111    0.08333333    0.02380952 T T T
    0.44444444    0.08333333    0.02380952 T T T
    0.77777778    0.08333333    0.02380952 T T T
    0.11111111    0.33333333    0.02380952 T T T
    0.44444444    0.33333333    0.02380952 T T T
    0.77777778    0.33333333    0.02380952 T T T
    0.11111111    0.58333333    0.02380952 T T T
    0.44444444    0.58333333    0.02380952 T T T
    0.77777778    0.58333333    0.02380952 T T T
    0.11111111    0.83333333    0.02380952 T T T
    0.44444444    0.83333333    0.02380952 T T T
    0.77777778    0.83333333    0.02380952 T T T
    0.22222222    0.16666667    0.04761905 T T T
    0.55555556    0.16666667    0.04761905 T T T
    0.88888889    0.16666667    0.04761905 T T T
    0.22222222    0.41666667    0.04761905 T T T
    0.55555556    0.41666667    0.04761905 T T T
    0.88888889    0.41666667    0.04761905 T T T
    0.22222222    0.66666667    0.04761905 T T T
    0.55555556    0.66666667    0.04761905 T T T
    0.88888889    0.66666667    0.04761905 T T T
    0.22222222    0.91666667    0.04761905 T T T
    0.55555556    0.91666667    0.04761905 T T T
    0.88888889    0.91666667    0.04761905 T T T
    0.00000000    0.00000000    0.07142857 T T T
    0.33333333    0.00000000    0.07142857 T T T
    0.66666667    0.00000000    0.07142857 T T T
    0.00000000    0.25000000    0.07142857 T T T
    0.33333333    0.25000000    0.07142857 T T T
    0.66666667    0.25000000    0.07142857 T T T
    0.00000000    0.50000000    0.07142857 T T T
    0.33333333    0.50000000    0.07142857 T T T
    0.66666667    0.50000000    0.07142857 T T T
    0.00000000    0.75000000    0.07142857 T T T
    0.33333333    0.75000000    0.07142857 T T T
    0.66666667    0.75000000    0.07142857 T T T
    0.11111111    0.08333333    0.09523810 T T T
    0.44444444    0.08333333    0.09523810 T T T
    0.77777778    0.08333333    0.09523810 T T T
    0.11111111    0.33333333    0.09523810 T T T
    0.44444444    0.33333333    0.09523810 T T T
    0.77777778    0.33333333    0.09523810 T T T
    0.11111111    0.58333333    0.09523810 T T T
    0.44444444    0.58333333    0.09523810 T T T
    0.77777778    0.58333333    0.09523810 T T T
    0.11111111    0.83333333    0.09523810 T T T
    0.44444444    0.83333333    0.09523810 T T T
    0.77777778    0.83333333    0.09523810 T T T
    0.22222222    0.16666667    0.11904762 T T T
    0.55555556    0.16666667    0.11904762 T T T
    0.88888889    0.16666667    0.11904762 T T T
    0.22222222    0.41666667    0.11904762 T T T
    0.55555556    0.41666667    0.11904762 T T T
    0.88888889    0.41666667    0.11904762 T T T
    0.22222222    0.66666667    0.11904762 T T T
    0.55555556    0.66666667    0.11904762 T T T
    0.88888889    0.66666667    0.11904762 T T T
    0.22222222    0.91666667    0.11904762 T T T
    0.55555556    0.91666667    0.11904762 T T T
    0.88888889    0.91666667    0.11904762 T T T
    0.00000000    0.00000000    0.14285714 T T T
    0.33333333    0.00000000    0.14285714 T T T
    0.66666667    0.00000000    0.14285714 T T T
    0.00000000    0.25000000    0.14285714 T T T
    0.33333333    0.25000000    0.14285714 T T T
    0.66666667    0.25000000    0.14285714 T T T
    0.00000000    0.50000000    0.14285714 T T T
    0.33333333    0.50000000    0.14285714 T T T
    0.66666667    0.50000000    0.14285714 T T T
    0.00000000    0.75000000    0.14285714 T T T
    0.33333333    0.75000000    0.14285714 T T T
    0.66666667    0.75000000    0.14285714 T T T
    0.11111111    0.08333333    0.16666667 T T T
    0.44444444    0.08333333    0.16666667 T T T
    0.77777778    0.08333333    0.16666667 T T T
    0.11111111    0.33333333    0.16666667 T T T
    0.44444444    0.33333333    0.16666667 T T T
    0.77777778    0.33333333    0.16666667 T T T
    0.11111111    0.58333333    0.16666667 T T T
    0.44444444    0.58333333    0.16666667 T T T
    0.77777778    0.58333333    0.16666667 T T T
    0.11111111    0.83333333    0.16666667 T T T
    0.44444444    0.83333333    0.16666667 T T T
    0.77777778    0.83333333    0.16666667 T T T
    0.22222222    0.16666667    0.19047619 T T T
    0.55555556    0.16666667    0.19047619 T T T
    0.88888889    0.16666667    0.19047619 T T T
    0.22222222    0.41666667    0.19047619 T T T
    0.55555556    0.41666667    0.19047619 T T T
    0.88888889    0.41666667    0.19047619 T T T
    0.22222222    0.66666667    0.19047619 T T T
    0.55555556    0.66666667    0.19047619 T T T
    0.88888889    0.66666667    0.19047619 T T T
    0.22222222    0.91666667    0.19047619 T T T
    0.55555556    0.91666667    0.19047619 T T T
    0.88888889    0.91666667    0.19047619 T T T
    0.00000000    0.00000000    0.21428571 T T T
    0.33333333    0.00000000    0.21428571 T T T
    0.66666667    0.00000000    0.21428571 T T T
    0.00000000    0.25000000    0.21428571 T T T
    0.33333333    0.25000000    0.21428571 T T T
    0.66666667    0.25000000    0.21428571 T T T
    0.00000000    0.50000000    0.21428571 T T T
    0.33333333    0.50000000    0.21428571 T T T
    0.66666667    0.50000000    0.21428571 T T T
    0.00000000    0.75000000    0.21428571 T T T
    0.33333333    0.75000000    0.21428571 T T T
    0.66666667    0.75000000    0.21428571 T T T
    0.11111111    0.08333333    0.23809524 T T T
    0.44444444    0.08333333    0.23809524 T T T
    0.77777778    0.08333333    0.23809524 T T T
    0.11111111    0.33333333    0.23809524 T T T
    0.44444444    0.33333333    0.23809524 T T T
    0.77777778    0.33333333    0.23809524 T T T
    0.11111111    0.58333333    0.23809524 T T T
    0.44444444    0.58333333    0.23809524 T T T
    0.77777778    0.58333333    0.23809524 T T T
    0.11111111    0.83333333    0.23809524 T T T
    0.44444444    0.83333333    0.23809524 T T T
    0.77777778    0.83333333    0.23809524 T T T
    0.22222222    0.16666667    0.26190476 T T T
    0.55555556    0.16666667    0.26190476 T T T
    0.88888889    0.16666667    0.26190476 T T T
    0.22222222    0.41666667    0.26190476 T T T
    0.55555556    0.41666667    0.26190476 T T T
    0.88888889    0.41666667    0.26190476 T T T
    0.22222222    0.66666667    0.26190476 T T T
    0.55555556    0.66666667    0.26190476 T T T
    0.88888889    0.66666667    0.26190476 T T T
    0.22222222    0.91666667    0.26190476 T T T
    0.55555556    0.91666667    0.26190476 T T T
    0.88888889    0.91666667    0.26190476 T T T
    0.00000000    0.00000000    0.28571429 T T T
    0.33333333    0.00000000    0.28571429 T T T
    0.66666667    0.00000000    0.28571429 T T T
    0.00000000    0.25000000    0.28571429 T T T
    0.33333333    0.25000000    0.28571429 T T T
    0.66666667    0.25000000    0.28571429 T T T
    0.00000000    0.50000000    0.28571429 T T T
    0.33333333    0.50000000    0.28571429 T T T
    0.66666667    0.50000000    0.28571429 T T T
    0.00000000    0.75000000    0.28571429 T T T
    0.33333333    0.75000000    0.28571429 T T T
    0.66666667    0.75000000    0.28571429 T T T
    0.11111111    0.08333333    0.30952381 T T T
    0.44444444    0.08333333    0.30952381 T T T
    0.77777778    0.08333333    0.30952381 T T T
    0.11111111    0.33333333    0.30952381 T T T
    0.44444444    0.33333333    0.30952381 T T T
    0.77777778    0.33333333    0.30952381 T T T
    0.11111111    0.58333333    0.30952381 T T T
    0.44444444    0.58333333    0.30952381 T T T
    0.77777778    0.58333333    0.30952381 T T T
    0.11111111    0.83333333    0.30952381 T T T
    0.44444444    0.83333333    0.30952381 T T T
    0.77777778    0.83333333    0.30952381 T T T
    0.00000000    0.00000000    0.33333333 T T T
    0.33333333    0.00000000    0.33333333 T T T
    0.66666667    0.00000000    0.33333333 T T T
    0.00000000    0.25000000    0.33333333 T T T
    0.33333333    0.25000000    0.33333333 T T T
    0.66666667    0.25000000    0.33333333 T T T
    0.00000000    0.50000000    0.33333333 T T T
    0.33333333    0.50000000    0.33333333 T T T
    0.66666667    0.50000000    0.33333333 T T T
    0.00000000    0.75000000    0.33333333 T T T
    0.33333333    0.75000000    0.33333333 T T T
    0.66666667    0.75000000    0.33333333 T T T
    0.22222222    0.16666667    0.35714286 T T T
    0.55555556    0.16666667    0.35714286 T T T
    0.88888889    0.16666667    0.35714286 T T T
    0.22222222    0.41666667    0.35714286 T T T
    0.55555556    0.41666667    0.35714286 T T T
    0.88888889    0.41666667    0.35714286 T T T
    0.22222222    0.66666667    0.35714286 T T T
    0.55555556    0.66666667    0.35714286 T T T
    0.88888889    0.66666667    0.35714286 T T T
    0.22222222    0.91666667    0.35714286 T T T
    0.55555556    0.91666667    0.35714286 T T T
    0.88888889    0.91666667    0.35714286 T T T
    0.11111111    0.08333333    0.38095238 T T T
    0.44444444    0.08333333    0.38095238 T T T
    0.77777778    0.08333333    0.38095238 T T T
    0.11111111    0.33333333    0.38095238 T T T
    0.44444444    0.33333333    0.38095238 T T T
    0.77777778    0.33333333    0.38095238 T T T
    0.11111111    0.58333333    0.38095238 T T T
    0.44444444    0.58333333    0.38095238 T T T
    0.77777778    0.58333333    0.38095238 T T T
    0.11111111    0.83333333    0.38095238 T T T
    0.44444444    0.83333333    0.38095238 T T T
    0.77777778    0.83333333    0.38095238 T T T
    0.00000000    0.00000000    0.40476190 T T T
    0.33333333    0.00000000    0.40476190 T T T
    0.66666667    0.00000000    0.40476190 T T T
    0.00000000    0.25000000    0.40476190 T T T
    0.33333333    0.25000000    0.40476190 T T T
    0.66666667    0.25000000    0.40476190 T T T
    0.00000000    0.50000000    0.40476190 T T T
    0.33333333    0.50000000    0.40476190 T T T
    0.66666667    0.50000000    0.40476190 T T T
    0.00000000    0.75000000    0.40476190 T T T
    0.33333333    0.75000000    0.40476190 T T T
    0.66666667    0.75000000    0.40476190 T T T
    0.22222222    0.16666667    0.42857143 T T T
    0.55555556    0.16666667    0.42857143 T T T
    0.88888889    0.16666667    0.42857143 T T T
    0.22222222    0.41666667    0.42857143 T T T
    0.55555556    0.41666667    0.42857143 T T T
    0.88888889    0.41666667    0.42857143 T T T
    0.22222222    0.66666667    0.42857143 T T T
    0.55555556    0.66666667    0.42857143 T T T
    0.88888889    0.66666667    0.42857143 T T T
    0.22222222    0.91666667    0.42857143 T T T
    0.55555556    0.91666667    0.42857143 T T T
    0.88888889    0.91666667    0.42857143 T T T
    0.11111111    0.08333333    0.45238095 T T T
    0.44444444    0.08333333    0.45238095 T T T
    0.77777778    0.08333333    0.45238095 T T T
    0.11111111    0.33333333    0.45238095 T T T
    0.44444444    0.33333333    0.45238095 T T T
    0.77777778    0.33333333    0.45238095 T T T
    0.11111111    0.58333333    0.45238095 T T T
    0.44444444    0.58333333    0.45238095 T T T
    0.77777778    0.58333333    0.45238095 T T T
    0.11111111    0.83333333    0.45238095 T T T
    0.44444444    0.83333333    0.45238095 T T T
    0.77777778    0.83333333    0.45238095 T T T
    0.00000000    0.00000000    0.47619048 T T T
    0.33333333    0.00000000    0.47619048 T T T
    0.66666667    0.00000000    0.47619048 T T T
    0.00000000    0.25000000    0.47619048 T T T
    0.33333333    0.25000000    0.47619048 T T T
    0.66666667    0.25000000    0.47619048 T T T
    0.00000000    0.50000000    0.47619048 T T T
    0.33333333    0.50000000    0.47619048 T T T
    0.66666667    0.50000000    0.47619048 T T T
    0.00000000    0.75000000    0.47619048 T T T
    0.33333333    0.75000000    0.47619048 T T T
    0.66666667    0.75000000    0.47619048 T T T
    0.22222222    0.16666667    0.50000000 T T T
    0.55555556    0.16666667    0.50000000 T T T
    0.88888889    0.16666667    0.50000000 T T T
    0.22222222    0.41666667    0.50000000 T T T
    0.55555556    0.41666667    0.50000000 T T T
    0.88888889    0.41666667    0.50000000 T T T
    0.22222222    0.66666667    0.50000000 T T T
    0.55555556    0.66666667    0.50000000 T T T
    0.88888889    0.66666667    0.50000000 T T T
    0.22222222    0.91666667    0.50000000 T T T
    0.55555556    0.91666667    0.50000000 T T T
    0.88888889    0.91666667    0.50000000 T T T
    0.11111111    0.08333333    0.52380952 T T T
    0.44444444    0.08333333    0.52380952 T T T
    0.77777778    0.08333333    0.52380952 T T T
    0.11111111    0.33333333    0.52380952 T T T
    0.44444444    0.33333333    0.52380952 T T T
    0.77777778    0.33333333    0.52380952 T T T
    0.11111111    0.58333333    0.52380952 T T T
    0.44444444    0.58333333    0.52380952 T T T
    0.77777778    0.58333333    0.52380952 T T T
    0.11111111    0.83333333    0.52380952 T T T
    0.44444444    0.83333333    0.52380952 T T T
    0.77777778    0.83333333    0.52380952 T T T
    0.00000000    0.00000000    0.54761905 T T T
    0.33333333    0.00000000    0.54761905 T T T
    0.66666667    0.00000000    0.54761905 T T T
    0.00000000    0.25000000    0.54761905 T T T
    0.33333333    0.25000000    0.54761905 T T T
    0.66666667    0.25000000    0.54761905 T T T
    0.00000000    0.50000000    0.54761905 T T T
    0.33333333    0.50000000    0.54761905 T T T
    0.66666667    0.50000000    0.54761905 T T T
    0.00000000    0.75000000    0.54761905 T T T
    0.33333333    0.75000000    0.54761905 T T T
    0.66666667    0.75000000    0.54761905 T T T
    0.22222222    0.16666667    0.57142857 T T T
    0.55555556    0.16666667    0.57142857 T T T
    0.88888889    0.16666667    0.57142857 T T T
    0.22222222    0.41666667    0.57142857 T T T
    0.55555556    0.41666667    0.57142857 T T T
    0.88888889    0.41666667    0.57142857 T T T
    0.22222222    0.66666667    0.57142857 T T T
    0.55555556    0.66666667    0.57142857 T T T
    0.88888889    0.66666667    0.57142857 T T T
    0.22222222    0.91666667    0.57142857 T T T
    0.55555556    0.91666667    0.57142857 T T T
    0.88888889    0.91666667    0.57142857 T T T
    0.11111111    0.08333333    0.59523810 T T T
    0.44444444    0.08333333    0.59523810 T T T
    0.77777778    0.08333333    0.59523810 T T T
    0.11111111    0.33333333    0.59523810 T T T
    0.44444444    0.33333333    0.59523810 T T T
    0.77777778    0.33333333    0.59523810 T T T
    0.11111111    0.58333333    0.59523810 T T T
    0.44444444    0.58333333    0.59523810 T T T
    0.77777778    0.58333333    0.59523810 T T T
    0.11111111    0.83333333    0.59523810 T T T
    0.44444444    0.83333333    0.59523810 T T T
    0.77777778    0.83333333    0.59523810 T T T
    0.00000000    0.00000000    0.61904762 T T T
    0.33333333    0.00000000    0.61904762 T T T
    0.66666667    0.00000000    0.61904762 T T T
    0.00000000    0.25000000    0.61904762 T T T
    0.33333333    0.25000000    0.61904762 T T T
    0.66666667    0.25000000    0.61904762 T T T
    0.00000000    0.50000000    0.61904762 T T T
    0.33333333    0.50000000    0.61904762 T T T
    0.66666667    0.50000000    0.61904762 T T T
    0.00000000    0.75000000    0.61904762 T T T
    0.33333333    0.75000000    0.61904762 T T T
    0.66666667    0.75000000    0.61904762 T T T
    0.22222222    0.16666667    0.64285714 T T T
    0.55555556    0.16666667    0.64285714 T T T
    0.88888889    0.16666667    0.64285714 T T T
    0.22222222    0.41666667    0.64285714 T T T
    0.55555556    0.41666667    0.64285714 T T T
    0.88888889    0.41666667    0.64285714 T T T
    0.22222222    0.66666667    0.64285714 T T T
    0.55555556    0.66666667    0.64285714 T T T
    0.88888889    0.66666667    0.64285714 T T T
    0.22222222    0.91666667    0.64285714 T T T
    0.55555556    0.91666667    0.64285714 T T T
    0.88888889    0.91666667    0.64285714 T T T
    0.00000000    0.00000000    0.66666667 T T T
    0.33333333    0.00000000    0.66666667 T T T
    0.66666667    0.00000000    0.66666667 T T T
    0.00000000    0.25000000    0.66666667 T T T
    0.33333333    0.25000000    0.66666667 T T T
    0.66666667    0.25000000    0.66666667 T T T
    0.00000000    0.50000000    0.66666667 T T T
    0.33333333    0.50000000    0.66666667 T T T
    0.66666667    0.50000000    0.66666667 T T T
    0.00000000    0.75000000    0.66666667 T T T
    0.33333333    0.75000000    0.66666667 T T T
    0.66666667    0.75000000    0.66666667 T T T
    0.11111111    0.08333333    0.69047619 T T T
    0.44444444    0.08333333    0.69047619 T T T
    0.77777778    0.08333333    0.69047619 T T T
    0.11111111    0.33333333    0.69047619 T T T
    0.44444444    0.33333333    0.69047619 T T T
    0.77777778    0.33333333    0.69047619 T T T
    0.11111111    0.58333333    0.69047619 T T T
    0.44444444    0.58333333    0.69047619 T T T
    0.77777778    0.58333333    0.69047619 T T T
    0.11111111    0.83333333    0.69047619 T T T
    0.44444444    0.83333333    0.69047619 T T T
    0.77777778    0.83333333    0.69047619 T T T
    0.22222222    0.16666667    0.71428571 T T T
    0.55555556    0.16666667    0.71428571 T T T
    0.88888889    0.16666667    0.71428571 T T T
    0.22222222    0.41666667    0.71428571 T T T
    0.55555556    0.41666667    0.71428571 T T T
    0.88888889    0.41666667    0.71428571 T T T
    0.22222222    0.66666667    0.71428571 T T T
    0.55555556    0.66666667    0.71428571 T T T
    0.88888889    0.66666667    0.71428571 T T T
    0.22222222    0.91666667    0.71428571 T T T
    0.55555556    0.91666667    0.71428571 T T T
    0.88888889    0.91666667    0.71428571 T T T
    0.00000000    0.00000000    0.73809524 T T T
    0.33333333    0.00000000    0.73809524 T T T
    0.66666667    0.00000000    0.73809524 T T T
    0.00000000    0.25000000    0.73809524 T T T
    0.33333333    0.25000000    0.73809524 T T T
    0.66666667    0.25000000    0.73809524 T T T
    0.00000000    0.50000000    0.73809524 T T T
    0.33333333    0.50000000    0.73809524 T T T
    0.66666667    0.50000000    0.73809524 T T T
    0.00000000    0.75000000    0.73809524 T T T
    0.33333333    0.75000000    0.73809524 T T T
    0.66666667    0.75000000    0.73809524 T T T
    0.11111111    0.08333333    0.76190476 T T T
    0.44444444    0.08333333    0.76190476 T T T
    0.77777778    0.08333333    0.76190476 T T T
    0.11111111    0.33333333    0.76190476 T T T
    0.44444444    0.33333333    0.76190476 T T T
    0.77777778    0.33333333    0.76190476 T T T
    0.11111111    0.58333333    0.76190476 T T T
    0.44444444    0.58333333    0.76190476 T T T
    0.77777778    0.58333333    0.76190476 T T T
    0.11111111    0.83333333    0.76190476 T T T
    0.44444444    0.83333333    0.76190476 T T T
    0.77777778    0.83333333    0.76190476 T T T
    0.22222222    0.16666667    0.78571429 T T T
    0.55555556    0.16666667    0.78571429 T T T
    0.88888889    0.16666667    0.78571429 T T T
    0.22222222    0.41666667    0.78571429 T T T
    0.55555556    0.41666667    0.78571429 T T T
    0.88888889    0.41666667    0.78571429 T T T
    0.22222222    0.66666667    0.78571429 T T T
    0.55555556    0.66666667    0.78571429 T T T
    0.88888889    0.66666667    0.78571429 T T T
    0.22222222    0.91666667    0.78571429 T T T
    0.55555556    0.91666667    0.78571429 T T T
    0.88888889    0.91666667    0.78571429 T T T
    0.00000000    0.00000000    0.80952381 T T T
    0.33333333    0.00000000    0.80952381 T T T
    0.66666667    0.00000000    0.80952381 T T T
    0.00000000    0.25000000    0.80952381 T T T
    0.33333333    0.25000000    0.80952381 T T T
    0.66666667    0.25000000    0.80952381 T T T
    0.00000000    0.50000000    0.80952381 T T T
    0.33333333    0.50000000    0.80952381 T T T
    0.66666667    0.50000000    0.80952381 T T T
    0.00000000    0.75000000    0.80952381 T T T
    0.33333333    0.75000000    0.80952381 T T T
    0.66666667    0.75000000    0.80952381 T T T
    0.11111111    0.08333333    0.83333333 T T T
    0.44444444    0.08333333    0.83333333 T T T
    0.77777778    0.08333333    0.83333333 T T T
    0.11111111    0.33333333    0.83333333 T T T
    0.44444444    0.33333333    0.83333333 T T T
    0.77777778    0.33333333    0.83333333 T T T
    0.11111111    0.58333333    0.83333333 T T T
    0.44444444    0.58333333    0.83333333 T T T
    0.77777778    0.58333333    0.83333333 T T T
    0.11111111    0.83333333    0.83333333 T T T
    0.44444444    0.83333333    0.83333333 T T T
    0.77777778    0.83333333    0.83333333 T T T
    0.22222222    0.16666667    0.85714286 T T T
    0.55555556    0.16666667    0.85714286 T T T
    0.88888889    0.16666667    0.85714286 T T T
    0.22222222    0.41666667    0.85714286 T T T
    0.55555556    0.41666667    0.85714286 T T T
    0.88888889    0.41666667    0.85714286 T T T
    0.22222222    0.66666667    0.85714286 T T T
    0.55555556    0.66666667    0.85714286 T T T
    0.88888889    0.66666667    0.85714286 T T T
    0.22222222    0.91666667    0.85714286 T T T
    0.55555556    0.91666667    0.85714286 T T T
    0.88888889    0.91666667    0.85714286 T T T
    0.00000000    0.00000000    0.88095238 T T T
    0.33333333    0.00000000    0.88095238 T T T
    0.66666667    0.00000000    0.88095238 T T T
    0.00000000    0.25000000    0.88095238 T T T
    0.33333333    0.25000000    0.88095238 T T T
    0.66666667    0.25000000    0.88095238 T T T
    0.00000000    0.50000000    0.88095238 T T T
    0.33333333    0.50000000    0.88095238 T T T
    0.66666667    0.50000000    0.88095238 T T T
    0.00000000    0.75000000    0.88095238 T T T
    0.33333333    0.75000000    0.88095238 T T T
    0.66666667    0.75000000    0.88095238 T T T
    0.11111111    0.08333333    0.90476190 T T T
    0.44444444    0.08333333    0.90476190 T T T
    0.77777778    0.08333333    0.90476190 T T T
    0.11111111    0.33333333    0.90476190 T T T
    0.44444444    0.33333333    0.90476190 T T T
    0.77777778    0.33333333    0.90476190 T T T
    0.11111111    0.58333333    0.90476190 T T T
    0.44444444    0.58333333    0.90476190 T T T
    0.77777778    0.58333333    0.90476190 T T T
    0.11111111    0.83333333    0.90476190 T T T
    0.44444444    0.83333333    0.90476190 T T T
    0.77777778    0.83333333    0.90476190 T T T
    0.22222222    0.16666667    0.92857143 T T T
    0.55555556    0.16666667    0.92857143 T T T
    0.88888889    0.16666667    0.92857143 T T T
    0.22222222    0.41666667    0.92857143 T T T
    0.55555556    0.41666667    0.92857143 T T T
    0.88888889    0.41666667    0.92857143 T T T
    0.22222222    0.66666667    0.92857143 T T T
    0.55555556    0.66666667    0.92857143 T T T
    0.88888889    0.66666667    0.92857143 T T T
    0.22222222    0.91666667    0.92857143 T T T
    0.55555556    0.91666667    0.92857143 T T T
    0.88888889    0.91666667    0.92857143 T T T
    0.00000000    0.00000000    0.95238095 T T T
    0.33333333    0.00000000    0.95238095 T T T
    0.66666667    0.00000000    0.95238095 T T T
    0.00000000    0.25000000    0.95238095 T T T
    0.33333333    0.25000000    0.95238095 T T T
    0.66666667    0.25000000    0.95238095 T T T
    0.00000000    0.50000000    0.95238095 T T T
    0.33333333    0.50000000    0.95238095 T T T
    0.66666667    0.50000000    0.95238095 T T T
    0.00000000    0.75000000    0.95238095 T T T
    0.33333333    0.75000000    0.95238095 T T T
    0.66666667    0.75000000    0.95238095 T T T
    0.11111111    0.08333333    0.97619048 T T T
    0.44444444    0.08333333    0.97619048 T T T
    0.77777778    0.08333333    0.97619048 T T T
    0.11111111    0.33333333    0.97619048 T T T
    0.44444444    0.33333333    0.97619048 T T T
    0.77777778    0.33333333    0.97619048 T T T
    0.11111111    0.58333333    0.97619048 T T T
    0.44444444    0.58333333    0.97619048 T T T
    0.77777778    0.58333333    0.97619048 T T T
    0.11111111    0.83333333    0.97619048 T T T
    0.44444444    0.83333333    0.97619048 T T T
    0.77777778    0.83333333    0.97619048 T T T
