Generated generic
1.0
    7.66857304    0.00000000    0.00000000
    5.11238203    8.85490542    0.00000000
    0.00000000    0.00000000   60.52651547
 Cu
 348
Selective dynamics
Direct
    0.00000000    0.00000000    0.00000000 T T T
    0.33333333    0.00000000    0.00000000 T T T
    0.66666667    0.00000000    0.00000000 T T T
    0.00000000    0.25000000    0.00000000 T T T
    0.33333333    0.25000000    0.00000000 T T T
    0.66666667    0.25000000    0.00000000 T T T
    0.00000000    0.50000000    0.00000000 T T T
    0.33333333    0.50000000    0.00000000 T T T
    0.66666667    0.50000000    0.00000000 T T T
    0.00000000    0.75000000    0.00000000 T T T
    0.33333333    0.75000000    0.00000000 T T T
    0.66666667    0.75000000    0.00000000 T T T
    0.11111111    0.08333333    0.03448276 T T T
    0.44444444    0.08333333    0.03448276 T T T
    0.77777778    0.08333333    0.03448276 T T T
    0.11111111    0.33333333    0.03448276 T T T
    0.44444444    0.33333333    0.03448276 T T T
    0.77777778    0.33333333    0.03448276 T T T
    0.11111111    0.58333333    0.03448276 T T T
    0.44444444    0.58333333    0.03448276 T T T
    0.77777778    0.58333333    0.03448276 T T T
    0.11111111    0.83333333    0.03448276 T T T
    0.44444444    0.83333333    0.03448276 T T T
    0.77777778    0.83333333    0.03448276 T T T
    0.22222222    0.16666667    0.06896552 T T T
    0.55555556    0.16666667    0.06896552 T T T
    0.88888889    0.16666667    0.06896552 T T T
    0.22222222    0.41666667    0.06896552 T T T
    0.55555556    0.41666667    0.06896552 T T T
    0.88888889    0.41666667    0.06896552 T T T
    0.22222222    0.66666667    0.06896552 T T T
    0.55555556    0.66666667    0.06896552 T T T
    0.88888889    0.66666667    0.06896552 T T T
    0.22222222    0.91666667    0.06896552 T T T
    0.55555556    0.91666667    0.06896552 T T T
    0.88888889    0.91666667    0.06896552 T T T
    0.00000000    0.00000000    0.10344828 T T T
    0.33333333    0.00000000    0.10344828 T T T
    0.66666667    0.00000000    0.10344828 T T T
    0.00000000    0.25000000    0.10344828 T T T
    0.33333333    0.25000000    0.10344828 T T T
    0.66666667    0.25000000    0.10344828 T T T
    0.00000000    0.50000000    0.10344828 T T T
    0.33333333    0.50000000    0.10344828 T T T
    0.66666667    0.50000000    0.10344828 T T T
    0.00000000    0.75000000    0.10344828 T T T
    0.33333333    0.75000000    0.10344828 T T T
    0.66666667    0.75000000    0.10344828 T T T
    0.11111111    0.08333333    0.13793103 T T T
    0.44444444    0.08333333    0.13793103 T T T
    0.77777778    0.08333333    0.13793103 T T T
    0.11111111    0.33333333    0.13793103 T T T
    0.44444444    0.33333333    0.13793103 T T T
    0.77777778    0.33333333    0.13793103 T T T
    0.11111111    0.58333333    0.13793103 T T T
    0.44444444    0.58333333    0.13793103 T T T
    0.77777778    0.58333333    0.13793103 T T T
    0.11111111    0.83333333    0.13793103 T T T
    0.44444444    0.83333333    0.13793103 T T T
    0.77777778    0.83333333    0.13793103 T T T
    0.22222222    0.16666667    0.17241379 T T T
    0.55555556    0.16666667    0.17241379 T T T
    0.88888889    0.16666667    0.17241379 T T T
    0.22222222    0.41666667    0.17241379 T T T
    0.55555556    0.41666667    0.17241379 T T T
    0.88888889    0.41666667    0.17241379 T T T
    0.22222222    0.66666667    0.17241379 T T T
    0.55555556    0.66666667    0.17241379 T T T
    0.88888889    0.66666667    0.17241379 T T T
    0.22222222    0.91666667    0.17241379 T T T
    0.55555556    0.91666667    0.17241379 T T T
    0.88888889    0.91666667    0.17241379 T T T
    0.00000000    0.00000000    0.20689655 T T T
    0.33333333    0.00000000    0.20689655 T T T
    0.66666667    0.00000000    0.20689655 T T T
    0.00000000    0.25000000    0.20689655 T T T
    0.33333333    0.25000000    0.20689655 T T T
    0.66666667    0.25000000    0.20689655 T T T
    0.00000000    0.50000000    0.20689655 T T T
    0.33333333    0.50000000    0.20689655 T T T
    0.66666667    0.50000000    0.20689655 T T T
    0.00000000    0.75000000    0.20689655 T T T
    0.33333333    0.75000000    0.20689655 T T T
    0.66666667    0.75000000    0.20689655 T T T
    0.11111111    0.08333333    0.24137931 T T T
    0.44444444    0.08333333    0.24137931 T T T
    0.77777778    0.08333333    0.24137931 T T T
    0.11111111    0.33333333    0.24137931 T T T
    0.44444444    0.33333333    0.24137931 T T T
    0.77777778    0.33333333    0.24137931 T T T
    0.11111111    0.58333333    0.24137931 T T T
    0.44444444    0.58333333    0.24137931 T T T
    0.77777778    0.58333333    0.24137931 T T T
    0.11111111    0.83333333    0.24137931 T T T
    0.44444444    0.83333333    0.24137931 T T T
    0.77777778    0.83333333    0.24137931 T T T
    0.22222222    0.16666667    0.27586207 T T T
    0.55555556    0.16666667    0.27586207 T T T
    0.88888889    0.16666667    0.27586207 T T T
    0.22222222    0.41666667    0.27586207 T T T
    0.55555556    0.41666667    0.27586207 T T T
    0.88888889    0.41666667    0.27586207 T T T
    0.22222222    0.66666667    0.27586207 T T T
    0.55555556    0.66666667    0.27586207 T T T
    0.88888889    0.66666667    0.27586207 T T T
    0.22222222    0.91666667    0.27586207 T T T
    0.55555556    0.91666667    0.27586207 T T T
    0.88888889    0.91666667    0.27586207 T T T
    0.00000000    0.00000000    0.31034483 T T T
    0.33333333    0.00000000    0.31034483 T T T
    0.66666667    0.00000000    0.31034483 T T T
    0.00000000    0.25000000    0.31034483 T T T
    0.33333333    0.25000000    0.31034483 T T T
    0.66666667    0.25000000    0.31034483 T T T
    0.00000000    0.50000000    0.31034483 T T T
    0.33333333    0.50000000    0.31034483 T T T
    0.66666667    0.50000000    0.31034483 T T T
    0.00000000    0.75000000    0.31034483 T T T
    0.33333333    0.75000000    0.31034483 T T T
    0.66666667    0.75000000    0.31034483 T T T
    0.22222222    0.16666667    0.34482759 T T T
    0.55555556    0.16666667    0.34482759 T T T
    0.88888889    0.16666667    0.34482759 T T T
    0.22222222    0.41666667    0.34482759 T T T
    0.55555556    0.41666667    0.34482759 T T T
    0.88888889    0.41666667    0.34482759 T T T
    0.22222222    0.66666667    0.34482759 T T T
    0.55555556    0.66666667    0.34482759 T T T
    0.88888889    0.66666667    0.34482759 T T T
    0.22222222    0.91666667    0.34482759 T T T
    0.55555556    0.91666667    0.34482759 T T T
    0.88888889    0.91666667    0.34482759 T T T
    0.11111111    0.08333333    0.37931034 T T T
    0.44444444    0.08333333    0.37931034 T T T
    0.77777778    0.08333333    0.37931034 T T T
    0.11111111    0.33333333    0.37931034 T T T
    0.44444444    0.33333333    0.37931034 T T T
    0.77777778    0.33333333    0.37931034 T T T
    0.11111111    0.58333333    0.37931034 T T T
    0.44444444    0.58333333    0.37931034 T T T
    0.77777778    0.58333333    0.37931034 T T T
    0.11111111    0.83333333    0.37931034 T T T
    0.44444444    0.83333333    0.37931034 T T T
    0.77777778    0.83333333    0.37931034 T T T
    0.00000000    0.00000000    0.41379310 T T T
    0.33333333    0.00000000    0.41379310 T T T
    0.66666667    0.00000000    0.41379310 T T T
    0.00000000    0.25000000    0.41379310 T T T
    0.33333333    0.25000000    0.41379310 T T T
    0.66666667    0.25000000    0.41379310 T T T
    0.00000000    0.50000000    0.41379310 T T T
    0.33333333    0.50000000    0.41379310 T T T
    0.66666667    0.50000000    0.41379310 T T T
    0.00000000    0.75000000    0.41379310 T T T
    0.33333333    0.75000000    0.41379310 T T T
    0.66666667    0.75000000    0.41379310 T T T
    0.22222222    0.16666667    0.44827586 T T T
    0.55555556    0.16666667    0.44827586 T T T
    0.88888889    0.16666667    0.44827586 T T T
    0.22222222    0.41666667    0.44827586 T T T
    0.55555556    0.41666667    0.44827586 T T T
    0.88888889    0.41666667    0.44827586 T T T
    0.22222222    0.66666667    0.44827586 T T T
    0.55555556    0.66666667    0.44827586 T T T
    0.88888889    0.66666667    0.44827586 T T T
    0.22222222    0.91666667    0.44827586 T T T
    0.55555556    0.91666667    0.44827586 T T T
    0.88888889    0.91666667    0.44827586 T T T
    0.11111111    0.08333333    0.48275862 T T T
    0.44444444    0.08333333    0.48275862 T T T
    0.77777778    0.08333333    0.48275862 T T T
    0.11111111    0.33333333    0.48275862 T T T
    0.44444444    0.33333333    0.48275862 T T T
    0.77777778    0.33333333    0.48275862 T T T
    0.11111111    0.58333333    0.48275862 T T T
    0.44444444    0.58333333    0.48275862 T T T
    0.77777778    0.58333333    0.48275862 T T T
    0.11111111    0.83333333    0.48275862 T T T
    0.44444444    0.83333333    0.48275862 T T T
    0.77777778    0.83333333    0.48275862 T T T
    0.00000000    0.00000000    0.51724138 T T T
    0.33333333    0.00000000    0.51724138 T T T
    0.66666667    0.00000000    0.51724138 T T T
    0.00000000    0.25000000    0.51724138 T T T
    0.33333333    0.25000000    0.51724138 T T T
    0.66666667    0.25000000    0.51724138 T T T
    0.00000000    0.50000000    0.51724138 T T T
    0.33333333    0.50000000    0.51724138 T T T
    0.66666667    0.50000000    0.51724138 T T T
    0.00000000    0.75000000    0.51724138 T T T
    0.33333333    0.75000000    0.51724138 T T T
    0.66666667    0.75000000    0.51724138 T T T
    0.22222222    0.16666667    0.55172414 T T T
    0.55555556    0.16666667    0.55172414 T T T
    0.88888889    0.16666667    0.55172414 T T T
    0.22222222    0.41666667    0.55172414 T T T
    0.55555556    0.41666667    0.55172414 T T T
    0.88888889    0.41666667    0.55172414 T T T
    0.22222222    0.66666667    0.55172414 T T T
    0.55555556    0.66666667    0.55172414 T T T
    0.88888889    0.66666667    0.55172414 T T T
    0.22222222    0.91666667    0.55172414 T T T
    0.55555556    0.91666667    0.55172414 T T T
    0.88888889    0.91666667    0.55172414 T T T
    0.11111111    0.08333333    0.58620690 T T T
    0.44444444    0.08333333    0.58620690 T T T
    0.77777778    0.08333333    0.58620690 T T T
    0.11111111    0.33333333    0.58620690 T T T
    0.44444444    0.33333333    0.58620690 T T T
    0.77777778    0.33333333    0.58620690 T T T
    0.11111111    0.58333333    0.58620690 T T T
    0.44444444    0.58333333    0.58620690 T T T
    0.77777778    0.58333333    0.58620690 T T T
    0.11111111    0.83333333    0.58620690 T T T
    0.44444444    0.83333333    0.58620690 T T T
    0.77777778    0.83333333    0.58620690 T T T
    0.00000000    0.00000000    0.62068966 T T T
    0.33333333    0.00000000    0.62068966 T T T
    0.66666667    0.00000000    0.62068966 T T T
    0.00000000    0.25000000    0.62068966 T T T
    0.33333333    0.25000000    0.62068966 T T T
    0.66666667    0.25000000    0.62068966 T T T
    0.00000000    0.50000000    0.62068966 T T T
    0.33333333    0.50000000    0.62068966 T T T
    0.66666667    0.50000000    0.62068966 T T T
    0.00000000    0.75000000    0.62068966 T T T
    0.33333333    0.75000000    0.62068966 T T T
    0.66666667    0.75000000    0.62068966 T T T
    0.11111111    0.08333333    0.65517241 T T T
    0.44444444    0.08333333    0.65517241 T T T
    0.77777778    0.08333333    0.65517241 T T T
    0.11111111    0.33333333    0.65517241 T T T
    0.44444444    0.33333333    0.65517241 T T T
    0.77777778    0.33333333    0.65517241 T T T
    0.11111111    0.58333333    0.65517241 T T T
    0.44444444    0.58333333    0.65517241 T T T
    0.77777778    0.58333333    0.65517241 T T T
    0.11111111    0.83333333    0.65517241 T T T
    0.44444444    0.83333333    0.65517241 T T T
    0.77777778    0.83333333    0.65517241 T T T
    0.22222222    0.16666667    0.68965517 T T T
    0.55555556    0.16666667    0.68965517 T T T
    0.88888889    0.16666667    0.68965517 T T T
    0.22222222    0.41666667    0.68965517 T T T
    0.55555556    0.41666667    0.68965517 T T T
    0.88888889    0.41666667    0.68965517 T T T
    0.22222222    0.66666667    0.68965517 T T T
    0.55555556    0.66666667    0.68965517 T T T
    0.88888889    0.66666667    0.68965517 T T T
    0.22222222    0.91666667    0.68965517 T T T
    0.55555556    0.91666667    0.68965517 T T T
    0.88888889    0.91666667    0.68965517 T T T
    0.00000000    0.00000000    0.72413793 T T T
    0.33333333    0.00000000    0.72413793 T T T
    0.66666667    0.00000000    0.72413793 T T T
    0.00000000    0.25000000    0.72413793 T T T
    0.33333333    0.25000000    0.72413793 T T T
    0.66666667    0.25000000    0.72413793 T T T
    0.00000000    0.50000000    0.72413793 T T T
    0.33333333    0.50000000    0.72413793 T T T
    0.66666667    0.50000000    0.72413793 T T T
    0.00000000    0.75000000    0.72413793 T T T
    0.33333333    0.75000000    0.72413793 T T T
    0.66666667    0.75000000    0.72413793 T T T
    0.11111111    0.08333333    0.75862069 T T T
    0.44444444    0.08333333    0.75862069 T T T
    0.77777778    0.08333333    0.75862069 T T T
    0.11111111    0.33333333    0.75862069 T T T
    0.44444444    0.33333333    0.75862069 T T T
    0.77777778    0.33333333    0.75862069 T T T
    0.11111111    0.58333333    0.75862069 T T T
    0.44444444    0.58333333    0.75862069 T T T
    0.77777778    0.58333333    0.75862069 T T T
    0.11111111    0.83333333    0.75862069 T T T
    0.44444444    0.83333333    0.75862069 T T T
    0.77777778    0.83333333    0.75862069 T T T
    0.22222222    0.16666667    0.79310345 T T T
    0.55555556    0.16666667    0.79310345 T T T
    0.88888889    0.16666667    0.79310345 T T T
    0.22222222    0.41666667    0.79310345 T T T
    0.55555556    0.41666667    0.79310345 T T T
    0.88888889    0.41666667    0.79310345 T T T
    0.22222222    0.66666667    0.79310345 T T T
    0.55555556    0.66666667    0.79310345 T T T
    0.88888889    0.66666667    0.79310345 T T T
    0.22222222    0.91666667    0.79310345 T T T
    0.55555556    0.91666667    0.79310345 T T T
    0.88888889    0.91666667    0.79310345 T T T
    0.00000000    0.00000000    0.82758621 T T T
    0.33333333    0.00000000    0.82758621 T T T
    0.66666667    0.00000000    0.82758621 T T T
    0.00000000    0.25000000    0.82758621 T T T
    0.33333333    0.25000000    0.82758621 T T T
    0.66666667    0.25000000    0.82758621 T T T
    0.00000000    0.50000000    0.82758621 T T T
    0.33333333    0.50000000    0.82758621 T T T
    0.66666667    0.50000000    0.82758621 T T T
    0.00000000    0.75000000    0.82758621 T T T
    0.33333333    0.75000000    0.82758621 T T T
    0.66666667    0.75000000    0.82758621 T T T
    0.11111111    0.08333333    0.86206897 T T T
    0.44444444    0.08333333    0.86206897 T T T
    0.77777778    0.08333333    0.86206897 T T T
    0.11111111    0.33333333    0.86206897 T T T
    0.44444444    0.33333333    0.86206897 T T T
    0.77777778    0.33333333    0.86206897 T T T
    0.11111111    0.58333333    0.86206897 T T T
    0.44444444    0.58333333    0.86206897 T T T
    0.77777778    0.58333333    0.86206897 T T T
    0.11111111    0.83333333    0.86206897 T T T
    0.44444444    0.83333333    0.86206897 T T T
    0.77777778    0.83333333    0.86206897 T T T
    0.22222222    0.16666667    0.89655172 T T T
    0.55555556    0.16666667    0.89655172 T T T
    0.88888889    0.16666667    0.89655172 T T T
    0.22222222    0.41666667    0.89655172 T T T
    0.55555556    0.41666667    0.89655172 T T T
    0.88888889    0.41666667    0.89655172 T T T
    0.22222222    0.66666667    0.89655172 T T T
    0.55555556    0.66666667    0.89655172 T T T
    0.88888889    0.66666667    0.89655172 T T T
    0.22222222    0.91666667    0.89655172 T T T
    0.55555556    0.91666667    0.89655172 T T T
    0.88888889    0.91666667    0.89655172 T T T
    0.00000000    0.00000000    0.93103448 T T T
    0.33333333    0.00000000    0.93103448 T T T
    0.66666667    0.00000000    0.93103448 T T T
    0.00000000    0.25000000    0.93103448 T T T
    0.33333333    0.25000000    0.93103448 T T T
    0.66666667    0.25000000    0.93103448 T T T
    0.00000000    0.50000000    0.93103448 T T T
    0.33333333    0.50000000    0.93103448 T T T
    0.66666667    0.50000000    0.93103448 T T T
    0.00000000    0.75000000    0.93103448 T T T
    0.33333333    0.75000000    0.93103448 T T T
    0.66666667    0.75000000    0.93103448 T T T
    0.11111111    0.08333333    0.96551724 T T T
    0.44444444    0.08333333    0.96551724 T T T
    0.77777778    0.08333333    0.96551724 T T T
    0.11111111    0.33333333    0.96551724 T T T
    0.44444444    0.33333333    0.96551724 T T T
    0.77777778    0.33333333    0.96551724 T T T
    0.11111111    0.58333333    0.96551724 T T T
    0.44444444    0.58333333    0.96551724 T T T
    0.77777778    0.58333333    0.96551724 T T T
    0.11111111    0.83333333    0.96551724 T T T
    0.44444444    0.83333333    0.96551724 T T T
    0.77777778    0.83333333    0.96551724 T T T
