Cu
 1.0000000000000000
     7.6685730419681093    0.0000000000000000    0.0000000000000000
     3.8342865209840546    6.6411790651208911    0.0000000000000000
     0.0000000000000000    0.0000000000000000   25.0450909090909093
 Cu 
 108
Direct
  0.1125188065904341  0.1097245303008137 -0.0007331200796675
 -0.0023614602878203  0.6671410312489267  0.6661927977590016
  0.6664373807388243  0.3333783245041557  0.6671389804457636
  0.3347875864065793  0.3322372471692968  0.6670131500074076
  0.0007096460429391  0.3333126845529434  0.6661389883618281
  0.6657362988366795 -0.0025879365228226  0.6672654540324234
  0.3334696284037431  0.0025015073741530  0.6660812678172651
  0.0020317471687254 -0.0001668358162210  0.6673353561772429
  0.5579752139863228  0.8864060037915388  0.5831742549146113
  0.2208756950100431  0.8882147118060669  0.5826436979106717
  0.8866578660278622  0.8888887252050540  0.5837316587941843
  0.5556528882739700  0.5561713448627077  0.5840803508626367
  0.2200726667283843  0.5565946881085262  0.5828548560980894
  0.8911129231464412  0.5560968451515125  0.5830538160272476
  0.5574144180217213  0.2192493096565724  0.5837772593025576
  0.2235823858131585  0.2197463705355082  0.5841115259940398
  0.8902186287061389  0.2203799576236624  0.5833833666175556
  0.7759975039141074  0.7802487592838822  0.5001053266242519
  0.4446851764771273  0.7790704309922161  0.4994755060495144
  0.1137540346605915  0.7762548357989603  0.4994342901929221
  0.7788868613314538  0.4470085347846687  0.5004037447636466
  0.4454864698331774  0.4463256489417097  0.5002754016915099
  0.1142469351477284  0.4433358674714248  0.4995005160607794
  0.7797344691560930  0.1111755966817524  0.4997585839633832
  0.3349741939948163  0.6665994860424951  0.6674568544780527
  0.4441405660404011  0.1097248318842310  0.5005872085830506
  0.6636184807926230  0.6694554433919082  0.6671569501216407
  0.4440077352482965  0.1136027816934031  0.7493165783610294
 -0.0026247073359402  0.6680286146504009  0.9163287461683703
  0.6681696121603815  0.3329673075566102  0.9168211344111311
  0.3335445364935978  0.3313518866248288  0.9165069725489293
 -0.0007755867408055  0.3352200109385756  0.9174737655956239
  0.6675619295930988  0.0004157445753925  0.9172005734215201
  0.3351521665312974  0.0005018388819604  0.9159456544370087
  0.0017083091335188  0.0011085407953636  0.9171970983073182
  0.5548978681932978  0.8894086782380060  0.8327428290564369
  0.2200705886698395  0.8887453418677992  0.8332313063377965
  0.8904807281746976  0.8864426073320499  0.8331719586884336
  0.5572275560729617  0.5543143558107225  0.8337729097411484
  0.2244526719278077  0.5554118887289432  0.8339264471692416
  0.8913501629608117  0.5555777021001044  0.8337502214922597
  0.5575773538812993  0.2217651135443094  0.8341115572458364
  0.2223181817424295  0.2241562347537080  0.8341149744653943
  0.8891039227601031  0.2243415802987558  0.8327687679025015
  0.7760373620822689  0.7772173218801230  0.7492128139522035
  0.4439748358516499  0.7772805655388897  0.7500770300901882
  0.1092908090269507  0.7795644435480411  0.7495722101350092
  0.7779941166291041  0.4461860305144467  0.7504887457386107
  0.4429039334920634  0.4467183111911162  0.7493509874288693
  0.1128411923521839  0.4461380623958299  0.7499877912927673
  0.7798810242115140  0.1103992783544582  0.7497322689259137
  0.1100691520468329  0.1129995352063221  0.7501751553824204
  0.1096180766108017  0.1139808564817089  0.5004475740073090
  0.6647278513629933  0.6659485442337673  0.4165605593494857
  0.3367720887304617  0.6644189760437850  0.4172553130412190
  0.6642200819166286  0.3341109552000153  0.1673513042367250
  0.3304345479851150  0.3359961924803089  0.1664536522587575
  0.0010252506004289  0.3321208747309847  0.1669437837752698
  0.6670767320819715 -0.0018158640357953  0.1660154711818805
  0.3356901632726729 -0.0016223492145900  0.1659536119621311
  0.0001983592215498 -0.0021063761701104  0.1665897734630507
  0.5530622946769264  0.8911564635295905  0.0826295241660124
  0.2190506447134367  0.8908924135304718  0.0837930739815478
  0.8917462652786118  0.8872455517417270  0.0835312882872613
  0.5565355659264944  0.5545792905104272  0.0831614463170349
  0.2212650555143428  0.5559863816485029  0.0830500478642118
  0.8876420569379248  0.5579014512498581  0.0840277630214094
  0.5566345047376553  0.2223749319879255  0.0830314773338684
  0.2235396927605114  0.2215531929734595  0.0827517492687202
  0.8908382091707462  0.2233397465814442  0.0835748451370739
  0.7787299440065761  0.7770771645607720  0.0007941036230916
  0.4419708328733801  0.7788054532132420  0.0002350792210873
  0.1102992179207747  0.7773121208331645 -0.0007533297931585
  0.7749922487096836  0.4466318808546882  0.0000662185182710
  0.4477133121558645  0.4416352178289831  0.0003667871636219
  0.1124292926706172  0.4463468388899149 -0.0007941859770201
  0.7776428680606583  0.1124933750659519  0.0000696743192089
  0.4409791894731892  0.1129979461813807  0.0006592199306059
 -0.0016800037630205  0.6694046774279077  0.1666689210248914
  0.3325812943647107  0.6673907155190563  0.1674598156450710
  0.6691287238026157  0.6664260174668837  0.1670807111558301
  0.1110093936834448  0.1112876590397806  0.2504600650147025
  0.0014771084976977  0.6653045537094168  0.4169963781060982
  0.6645169587625191  0.3325205027144422  0.4159997404244716
  0.3352714218248924  0.3328236891162504  0.4171994548928105
 -0.0017222478201215  0.3358025271776335  0.4159429418307248
  0.6661077005035781  0.0020977673082436  0.4161064974752062
  0.3361212159716473 -0.0007865807419300  0.4167567454201030
 -0.0014123664679839  0.0019160511580943  0.4168747644796731
  0.5569889120209039  0.8892531371731958  0.3330002582674579
  0.2208587747270236  0.8894076104229309  0.3334245638348945
  0.8917388985423946  0.8872377930886118  0.3327385438912703
  0.5566063452300877  0.5541031905193798  0.3329256001230630
  0.3306265365608940  0.6688527242629112  0.9167828557905493
  0.2216200346982004  0.5551357429447602  0.3340825316260376
  0.5568626292375831  0.2222990683553378  0.3340235055117046
  0.2191019482079258  0.2235425888057890  0.3325651558581331
  0.8857934596606357  0.2236196017741456  0.3335208425746995
  0.7781532639436137  0.7774329765280952  0.2506920172416591
  0.4447436152374643  0.7803287113131062  0.2496301132603922
  0.1128529100262009  0.7776572445050203  0.2495761987383399
  0.7745223697260354  0.4472911004926461  0.2506264047662885
  0.4448921001105554  0.4473426951035391  0.2507338503717122
  0.1119314286124247  0.4472627764625172  0.2492285591702281
  0.7811910773883496  0.1087918400121495  0.2503693956155080
  0.4432931308807390  0.1125234119660615  0.2503408515161450
  0.8855976527066891  0.5576113187040298  0.3326461270623145
  0.6653847485599513  0.6690687929236928  0.9160187932654085
