Cu
 1.0000000000000000
     7.6685730419681093    0.0000000000000000    0.0000000000000000
     3.8342865209840546    6.6411790651208911    0.0000000000000000
     0.0000000000000000    0.0000000000000000   25.0450909090909093
 Cu 
 108
Direct
  0.1113833646518522  0.1120984055043028 -0.0007508031801746
  0.0326098826895390  0.6667889495508547  0.6658918259190130
  0.6987198228381845  0.3323445446891057  0.6662991330792329
  0.3635281768156344  0.3350176843151306  0.6659222231305600
  0.0340393315894890  0.3347809332640386  0.6666162495835452
  0.6990522885779272  0.0021459735742724  0.6671911295274361
  0.3629313618734867  0.0024740470338712  0.6663848774680097
  0.0367087593235310 -0.0018691854848412  0.6660659253000202
  0.5877386832566071  0.8906609699300460  0.5828405702131068
  0.2546881200807145  0.8901407785398590  0.5836955377224329
  0.9219980949152596  0.8859488401955791  0.5825661773813249
  0.5898743769651136  0.5559597051098093  0.5838346609431725
  0.2581963451103348  0.5543860042795472  0.5833596644857996
  0.9220945278234333  0.5548775193906963  0.5837923988428246
  0.5885127466776031  0.2193011786341648  0.5835366272244187
  0.2580367786580495  0.2213122184115801  0.5832394199664834
  0.9233850859069852  0.2209029778075071  0.5837413102524269
  0.8118706465721535  0.7798423109489037  0.4997955831116201
  0.4775821567805509  0.7785510640863612  0.5007565106290151
  0.1427654071013070  0.7765652223863607  0.4998107768885635
  0.8084500329952473  0.4463104626461371  0.5005966859331258
  0.4789326007684568  0.4450438495452161  0.4999168861252778
  0.1466133390796799  0.4417804659809648  0.5007045714792270
  0.8117098640651683  0.1084505433486399  0.4995488620195899
  0.3651359205328871  0.6694997822982898  0.6666217903466164
  0.4758725966932413  0.1130545004474557  0.4998106820778314
  0.6987280022228534  0.6679802258222461  0.6668834102754931
  0.4740978595709472  0.1138057739102236  0.7497391152662246
  0.0352562409902060  0.6667979184501899  0.9167229430194559
  0.6982993574866055  0.3346960999086245  0.9171843693454897
  0.3675682820365195  0.3352033301343145  0.9166987286882727
  0.0340806898821186  0.3345706764465156  0.9173220276584794
  0.6983359178838733  0.0020785564925950  0.9168453516740622
  0.3663845434304020  0.0015141620533511  0.9163645100194961
  0.0358952626003370 -0.0014110536478960  0.9174452374078488
  0.5880426095756757  0.8879548870897527  0.8336587905644113
  0.2559775036729001  0.8889621029353988  0.8336424802171915
  0.9236866134012974  0.8898543279546165  0.8339153167237627
  0.5906391356372920  0.5565387186531626  0.8326941868164500
  0.2562349548814309  0.5578008437852940  0.8339822286972576
  0.9206488311403992  0.5545005154786274  0.8326717667838460
  0.5891367895957031  0.2231682503134941  0.8330177376578530
  0.2539317618136860  0.2219683734808181  0.8330238949881057
  0.9200255414864353  0.2231541937545687  0.8335364540271033
  0.8107776821520348  0.7765236607353102  0.7499769790893549
  0.4767160623651976  0.7763229469632673  0.7492785532583724
  0.1446904074301233  0.7765907132519956  0.7495336950134162
  0.8102288708777223  0.4466487137505929  0.7507778821999893
  0.4756712259412678  0.4438884644226413  0.7493548585547760
  0.1423769506777517  0.4471404948819770  0.7496819105606031
  0.8110180582345783  0.1127223799550720  0.7502097867948100
  0.1412039221078639  0.1126288605552408  0.7503976744044369
  0.1426402705515240  0.1120997317011809  0.4999747276585679
  0.6649611084961971  0.6651999874067510  0.4174540671521337
  0.3339416009322911  0.6664432630309841  0.4161683922699052
  0.6664758218874940  0.3343467239155044  0.1663972716925881
  0.3318521475717331  0.3341139785940442  0.1661604661177432
  0.0004722550222034  0.3354028865685873  0.1660684817665646
  0.6655154827251523  0.0002370426162795  0.1666768448667371
  0.3314683430709667  0.0029184568560370  0.1665773516407718
 -0.0000039182710595  0.0018490506659485  0.1665079210722853
  0.5542910017958749  0.8912509276596191  0.0840367046971556
  0.2214663983376177  0.8905834472338797  0.0826339761745894
  0.8852447449415947  0.8918592276210091  0.0828858762453961
  0.5570798974557021  0.5574943921415402  0.0833103394128228
  0.2223344796695964  0.5564007881960401  0.0829201476533841
  0.8892541881817383  0.5542343394018936  0.0838908638157773
  0.5562053348391978  0.2236768543571556  0.0837017097135285
  0.2214642678464726  0.2232822294262339  0.0839270123705178
  0.8860079762254818  0.2231272332935118  0.0828245032874756
  0.7788009527431312  0.7763746297286140  0.0003772438132036
  0.4422017709189733  0.7798839611122185  0.0006702772192629
  0.1102595125311696  0.7794965321018176 -0.0007327891008676
  0.7768426111706452  0.4422836302243221 -0.0000848905426269
  0.4408358290062517  0.4469064023836597  0.0000426956324316
  0.1108620770240175  0.4435862505958418 -0.0004127642520168
  0.7782969167954225  0.1103536721993542 -0.0007014642578727
  0.4425426462042988  0.1115537834048630  0.0000817150439770
 -0.0012554597002341  0.6651746134483637  0.1664465523955643
  0.3320864964745836  0.6684577245752585  0.1662373044408651
  0.6647593264499715  0.6661260364197679  0.1665901356355852
  0.1145959223532646  0.1082149010543274  0.2497905598892013
 -0.0031572478808654  0.6688596036812958  0.4160010630604995
  0.6654285369299830  0.3333782805315352  0.4166165645655067
  0.3355818613718626  0.3324382806709483  0.4173750561445645
  0.0036309960349846  0.3310918603845372  0.4160641362515244
  0.6645532789156313  0.0023791430833082  0.4169703892473499
  0.3329850511169337  0.0016401806524861  0.4165503978551831
 -0.0014179462805789  0.0009869148011181  0.4171378036770103
  0.5552105704100262  0.8887350171457588  0.3341231744403873
  0.2217845742502376  0.8878265315690805  0.3326629927672030
  0.8898052361440575  0.8912398805841746  0.3336359102905616
  0.5540484260863200  0.5580453828550441  0.3326378524642143
  0.3649471663361798  0.6670539635706793  0.9170434919768610
  0.2200876412536506  0.5547007370617234  0.3332557821541379
  0.5541188460433241  0.2242701565745644  0.3336675214799181
  0.2229837591218350  0.2246294151971377  0.3339545290693092
  0.8914997188622904  0.2222067424038086  0.3334697451313860
  0.7781667067257261  0.7765144631099775  0.2493144064703949
  0.4467586889538091  0.7758829328285738  0.2501969751139142
  0.1113932768323232  0.7762346489748264  0.2506868822021279
  0.7789737120488379  0.4465515160749604  0.2504161687283770
  0.4455610840433835  0.4449447014222782  0.2493573397536038
  0.1120999755258745  0.4472889023309901  0.2498575315457923
  0.7779487467400281  0.1127781047406254  0.2493564632343794
  0.4461153889556337  0.1115037138024868  0.2496248584663688
  0.8894243606686756  0.5553314459735876  0.3334203819938949
  0.7013377394283554  0.6687148957492385  0.9163389940532864
