Cu
 1.0000000000000000
     7.6685730419681093    0.0000000000000000    0.0000000000000000
     3.8342865209840546    6.6411790651208911    0.0000000000000000
     0.0000000000000000    0.0000000000000000   25.0450909090909093
 Cu 
 108
Direct
  0.1113198008687199  0.1131770447075486 -0.0001073946623383
  0.2031518730339981  0.7318844483908516  0.6658888907275381
  0.8648407177418634  0.4001272381361927  0.6659944540252677
  0.5337833362612657  0.4025005795762728  0.6662367351110826
  0.2020539748427835  0.3977555726667643  0.6666875640521652
  0.8672507540210969  0.0680530566437719  0.6673109059587808
  0.5330463794826640  0.0653476574992348  0.6661808826370678
  0.2024697657398870  0.0657209130390482  0.6673001615965564
  0.7583941915093459  0.9525817826972242  0.5833153671186754
  0.4199311265878503  0.9576222155490053  0.5839888853862993
  0.0892613748318162  0.9528818884413026  0.5831253892888576
  0.7564957731788333  0.6193694401432189  0.5826950247457473
  0.4232026669041898  0.6247259314292132  0.5835796333801274
  0.0912664529269141  0.6212447623413808  0.5829886995964382
  0.7549865604806333  0.2893001486990238  0.5835374774818429
  0.4217203033381361  0.2905873029059133  0.5828097935216257
  0.0863262602206426  0.2912947946831682  0.5827214767182368
  0.9808841520885112  0.8425220747467697  0.5002726445626482
  0.6420106684352780  0.8469810312211633  0.4998662329558741
  0.3102160967022313  0.8473082488643862  0.5005449205642896
  0.9766608597893531  0.5135612502006413  0.5002352809815556
  0.6445772698573539  0.5113252387090189  0.4995972642018475
  0.3076487490418211  0.5139987570619535  0.4997205351932803
  0.9767352497303239  0.1790587105049486  0.4996800727415524
  0.5314352585194091  0.7353814462018199  0.6666173627543316
  0.6429858573540864  0.1798598509939978  0.4995073689020288
  0.8653152078196577  0.7356062847702457  0.6662076403266596
  0.6470316757724834  0.1768027809087650  0.7501035991562145
  0.1986422643417481  0.7340660622327521  0.9172313621103327
  0.8704646605148919  0.3974352557463823  0.9161070712764823
  0.5344005815154069  0.4029588216994960  0.9173506247799964
  0.2005266496759031  0.4017217580934018  0.9160502130167377
  0.8633430692528627  0.0683518172462665  0.9170085535730201
  0.5344789948142362  0.0655690967356749  0.9166014127875021
  0.1980278751475478  0.0669000390138623  0.9172020463521890
  0.7559128285965496  0.9532294848094519  0.8333057477860434
  0.4203097531280822  0.9547624861216250  0.8329118798638363
  0.0909980905624872  0.9527203530071600  0.8333235089260215
  0.7579503981067082  0.6205624869752803  0.8329625966302111
  0.4216976996891111  0.6236582703624374  0.8327843484406811
  0.0891967957523716  0.6192407183136613  0.8329289465200326
  0.7562303820180383  0.2916045767365957  0.8331873494786006
  0.4229930488394587  0.2916782018607191  0.8334474669808907
  0.0894861807913273  0.2876216550661840  0.8328382003300815
  0.9761984074774992  0.8428608315970921  0.7494042554377817
  0.6443018503527240  0.8457667785343012  0.7503713792928528
  0.3075652838261928  0.8466737228848840  0.7500358573912671
  0.9790241698447812  0.5122621781317629  0.7503386421951411
  0.6420081464747187  0.5131769358577150  0.7495547254244583
  0.3096657278038946  0.5110567561628957  0.7502276137038676
  0.9796597082482005  0.1763396913983690  0.7503909945991333
  0.3102940026449453  0.1789935346465946  0.7507475509974574
  0.3088570149971514  0.1777821014432751  0.4996016815211711
  0.6633219659170122  0.6694895772118544  0.4168233417294435
  0.3330615168022031  0.6641757848962596  0.4167941435715760
  0.6656903765309968  0.3329965522595622  0.1669986180457300
  0.3330041253834873  0.3362317784811177  0.1669617497477265
 -0.0010821132887962  0.3356452154829219  0.1663446713955885
  0.6650186040934009  0.0000686876440508  0.1672995105806796
  0.3343330292369668 -0.0028442488460728  0.1661740664551377
 -0.0017949956165198 -0.0005239789001218  0.1662811385448073
  0.5522006295363983  0.8905722514279252  0.0833967436344682
  0.2237120073213959  0.8867752075253943  0.0837074787303195
  0.8922777210007207  0.8865815963251520  0.0836255452352882
  0.5529875337542332  0.5556912151478592  0.0826744712953733
  0.2244872137650554  0.5555174424998359  0.0826010400746910
  0.8898364964121505  0.5571559731016169  0.0829333214663830
  0.5535765222785090  0.2234312731011181  0.0835294870804362
  0.2213030202938894  0.2202470411068201  0.0834094230466922
  0.8859498432479248  0.2237415374662360  0.0839051613807075
  0.7801184982713637  0.7752355292347666  0.0003405173635023
  0.4461570301890039  0.7748579718554713  0.0007546482424514
  0.1095806860159425  0.7766129046006861 -0.0007966266456571
  0.7749098467349039  0.4453089375372599 -0.0000941490066214
  0.4437779818939101  0.4448923149420592 -0.0003134453475370
  0.1093416554923103  0.4432746555112861  0.0006435766550369
  0.7784427785067669  0.1137282877070120  0.0000637682018325
  0.4471698841172349  0.1101637993890263  0.0006420716682594
 -0.0001238754815484  0.6641878600200692  0.1669402087794009
  0.3330663835494940  0.6675257452042801  0.1674601485640123
  0.6652264293800154  0.6695082575300083  0.1671692276910428
  0.1107458823124848  0.1113806802742787  0.2495720370803347
 -0.0023634544900732  0.6683357875178455  0.4159556118111549
  0.6664657726545706  0.3358706290047309  0.4173743395643189
  0.3307124277853857  0.3359372168284074  0.4170114844454244
  0.0011309564306640  0.3346772379221626  0.4160592267918224
  0.6665640856446913 -0.0011606795433618  0.4170637515829729
  0.3344525427289346 -0.0023220836877290  0.4170085991105343
  0.0020711670380179 -0.0001597802131380  0.4161831190078722
  0.5564010642057485  0.8868430280216767  0.3327081368675778
  0.2218325514838776  0.8908142318726859  0.3333656427381180
  0.8910716396351309  0.8878312597344101  0.3326711144901928
  0.5547582157509463  0.5575261419931030  0.3333610238021682
  0.5348006327936106  0.7321829869307153  0.9162591261197033
  0.2212659878139425  0.5551337707067316  0.3335230536168172
  0.5547376775961770  0.2196124705798231  0.3333697342256590
  0.2210308619470787  0.2248672626308444  0.3333071491883613
  0.8882990222636803  0.2216848209723074  0.3337418266066036
  0.7766802388457564  0.7787223662145821  0.2499738239246515
  0.4425337407848471  0.7792128257121679  0.2504545482635603
  0.1111579793156693  0.7774087773674035  0.2496400116731142
  0.7784052792135558  0.4442706059673032  0.2498981191429654
  0.4427589894148563  0.4453498552379351  0.2492375611471966
  0.1085405718828029  0.4463223550725828  0.2493674381418094
  0.7771211742902961  0.1130135162637346  0.2494818458046041
  0.4435948857257384  0.1099891827603701  0.2504868780060249
  0.8871914464974332  0.5554878904623322  0.3329970550422128
  0.8657153098913376  0.7327263782223006  0.9167976321501546
