Generated generic
1.0
    7.66857304    0.00000000    0.00000000
    3.83428652    6.64117907    0.00000000
    0.00000000    0.00000000  158.62121296
 Cu
 684
Selective dynamics
Direct
    0.00000000    0.00000000    0.00000000 F F F
    0.33333333    0.00000000    0.00000000 F F F
    0.66666667    0.00000000    0.00000000 F F F
    0.00000000    0.33333333    0.00000000 F F F
    0.33333333    0.33333333    0.00000000 F F F
    0.66666667    0.33333333    0.00000000 F F F
    0.00000000    0.66666667    0.00000000 F F F
    0.33333333    0.66666667    0.00000000 F F F
    0.66666667    0.66666667    0.00000000 F F F
    0.11111111    0.11111111    0.01315789 T T T
    0.44444444    0.11111111    0.01315789 T T T
    0.77777778    0.11111111    0.01315789 T T T
    0.11111111    0.44444444    0.01315789 T T T
    0.44444444    0.44444444    0.01315789 T T T
    0.77777778    0.44444444    0.01315789 T T T
    0.11111111    0.77777778    0.01315789 T T T
    0.44444444    0.77777778    0.01315789 T T T
    0.77777778    0.77777778    0.01315789 T T T
    0.22222222    0.22222222    0.02631579 T T T
    0.55555556    0.22222222    0.02631579 T T T
    0.88888889    0.22222222    0.02631579 T T T
    0.22222222    0.55555556    0.02631579 T T T
    0.55555556    0.55555556    0.02631579 T T T
    0.88888889    0.55555556    0.02631579 T T T
    0.22222222    0.88888889    0.02631579 T T T
    0.55555556    0.88888889    0.02631579 T T T
    0.88888889    0.88888889    0.02631579 T T T
    0.00000000    0.00000000    0.03947368 T T T
    0.33333333    0.00000000    0.03947368 T T T
    0.66666667    0.00000000    0.03947368 T T T
    0.00000000    0.33333333    0.03947368 T T T
    0.33333333    0.33333333    0.03947368 T T T
    0.66666667    0.33333333    0.03947368 T T T
    0.00000000    0.66666667    0.03947368 T T T
    0.33333333    0.66666667    0.03947368 T T T
    0.66666667    0.66666667    0.03947368 T T T
    0.11111111    0.11111111    0.05263158 T T T
    0.44444444    0.11111111    0.05263158 T T T
    0.77777778    0.11111111    0.05263158 T T T
    0.11111111    0.44444444    0.05263158 T T T
    0.44444444    0.44444444    0.05263158 T T T
    0.77777778    0.44444444    0.05263158 T T T
    0.11111111    0.77777778    0.05263158 T T T
    0.44444444    0.77777778    0.05263158 T T T
    0.77777778    0.77777778    0.05263158 T T T
    0.22222222    0.22222222    0.06578947 T T T
    0.55555556    0.22222222    0.06578947 T T T
    0.88888889    0.22222222    0.06578947 T T T
    0.22222222    0.55555556    0.06578947 T T T
    0.55555556    0.55555556    0.06578947 T T T
    0.88888889    0.55555556    0.06578947 T T T
    0.22222222    0.88888889    0.06578947 T T T
    0.55555556    0.88888889    0.06578947 T T T
    0.88888889    0.88888889    0.06578947 T T T
    0.00000000    0.00000000    0.07894737 T T T
    0.33333333    0.00000000    0.07894737 T T T
    0.66666667    0.00000000    0.07894737 T T T
    0.00000000    0.33333333    0.07894737 T T T
    0.33333333    0.33333333    0.07894737 T T T
    0.66666667    0.33333333    0.07894737 T T T
    0.00000000    0.66666667    0.07894737 T T T
    0.33333333    0.66666667    0.07894737 T T T
    0.66666667    0.66666667    0.07894737 T T T
    0.11111111    0.11111111    0.09210526 T T T
    0.44444444    0.11111111    0.09210526 T T T
    0.77777778    0.11111111    0.09210526 T T T
    0.11111111    0.44444444    0.09210526 T T T
    0.44444444    0.44444444    0.09210526 T T T
    0.77777778    0.44444444    0.09210526 T T T
    0.11111111    0.77777778    0.09210526 T T T
    0.44444444    0.77777778    0.09210526 T T T
    0.77777778    0.77777778    0.09210526 T T T
    0.22222222    0.22222222    0.10526316 T T T
    0.55555556    0.22222222    0.10526316 T T T
    0.88888889    0.22222222    0.10526316 T T T
    0.22222222    0.55555556    0.10526316 T T T
    0.55555556    0.55555556    0.10526316 T T T
    0.88888889    0.55555556    0.10526316 T T T
    0.22222222    0.88888889    0.10526316 T T T
    0.55555556    0.88888889    0.10526316 T T T
    0.88888889    0.88888889    0.10526316 T T T
    0.00000000    0.00000000    0.11842105 T T T
    0.33333333    0.00000000    0.11842105 T T T
    0.66666667    0.00000000    0.11842105 T T T
    0.00000000    0.33333333    0.11842105 T T T
    0.33333333    0.33333333    0.11842105 T T T
    0.66666667    0.33333333    0.11842105 T T T
    0.00000000    0.66666667    0.11842105 T T T
    0.33333333    0.66666667    0.11842105 T T T
    0.66666667    0.66666667    0.11842105 T T T
    0.11111111    0.11111111    0.13157895 T T T
    0.44444444    0.11111111    0.13157895 T T T
    0.77777778    0.11111111    0.13157895 T T T
    0.11111111    0.44444444    0.13157895 T T T
    0.44444444    0.44444444    0.13157895 T T T
    0.77777778    0.44444444    0.13157895 T T T
    0.11111111    0.77777778    0.13157895 T T T
    0.44444444    0.77777778    0.13157895 T T T
    0.77777778    0.77777778    0.13157895 T T T
    0.22222222    0.22222222    0.14473684 T T T
    0.55555556    0.22222222    0.14473684 T T T
    0.88888889    0.22222222    0.14473684 T T T
    0.22222222    0.55555556    0.14473684 T T T
    0.55555556    0.55555556    0.14473684 T T T
    0.88888889    0.55555556    0.14473684 T T T
    0.22222222    0.88888889    0.14473684 T T T
    0.55555556    0.88888889    0.14473684 T T T
    0.88888889    0.88888889    0.14473684 T T T
    0.00000000    0.00000000    0.15789474 T T T
    0.33333333    0.00000000    0.15789474 T T T
    0.66666667    0.00000000    0.15789474 T T T
    0.00000000    0.33333333    0.15789474 T T T
    0.33333333    0.33333333    0.15789474 T T T
    0.66666667    0.33333333    0.15789474 T T T
    0.00000000    0.66666667    0.15789474 T T T
    0.33333333    0.66666667    0.15789474 T T T
    0.66666667    0.66666667    0.15789474 T T T
    0.11111111    0.11111111    0.17105263 T T T
    0.44444444    0.11111111    0.17105263 T T T
    0.77777778    0.11111111    0.17105263 T T T
    0.11111111    0.44444444    0.17105263 T T T
    0.44444444    0.44444444    0.17105263 T T T
    0.77777778    0.44444444    0.17105263 T T T
    0.11111111    0.77777778    0.17105263 T T T
    0.44444444    0.77777778    0.17105263 T T T
    0.77777778    0.77777778    0.17105263 T T T
    0.22222222    0.22222222    0.18421053 T T T
    0.55555556    0.22222222    0.18421053 T T T
    0.88888889    0.22222222    0.18421053 T T T
    0.22222222    0.55555556    0.18421053 T T T
    0.55555556    0.55555556    0.18421053 T T T
    0.88888889    0.55555556    0.18421053 T T T
    0.22222222    0.88888889    0.18421053 T T T
    0.55555556    0.88888889    0.18421053 T T T
    0.88888889    0.88888889    0.18421053 T T T
    0.00000000    0.00000000    0.19736842 T T T
    0.33333333    0.00000000    0.19736842 T T T
    0.66666667    0.00000000    0.19736842 T T T
    0.00000000    0.33333333    0.19736842 T T T
    0.33333333    0.33333333    0.19736842 T T T
    0.66666667    0.33333333    0.19736842 T T T
    0.00000000    0.66666667    0.19736842 T T T
    0.33333333    0.66666667    0.19736842 T T T
    0.66666667    0.66666667    0.19736842 T T T
    0.11111111    0.11111111    0.21052632 T T T
    0.44444444    0.11111111    0.21052632 T T T
    0.77777778    0.11111111    0.21052632 T T T
    0.11111111    0.44444444    0.21052632 T T T
    0.44444444    0.44444444    0.21052632 T T T
    0.77777778    0.44444444    0.21052632 T T T
    0.11111111    0.77777778    0.21052632 T T T
    0.44444444    0.77777778    0.21052632 T T T
    0.77777778    0.77777778    0.21052632 T T T
    0.22222222    0.22222222    0.22368421 T T T
    0.55555556    0.22222222    0.22368421 T T T
    0.88888889    0.22222222    0.22368421 T T T
    0.22222222    0.55555556    0.22368421 T T T
    0.55555556    0.55555556    0.22368421 T T T
    0.88888889    0.55555556    0.22368421 T T T
    0.22222222    0.88888889    0.22368421 T T T
    0.55555556    0.88888889    0.22368421 T T T
    0.88888889    0.88888889    0.22368421 T T T
    0.00000000    0.00000000    0.23684211 T T T
    0.33333333    0.00000000    0.23684211 T T T
    0.66666667    0.00000000    0.23684211 T T T
    0.00000000    0.33333333    0.23684211 T T T
    0.33333333    0.33333333    0.23684211 T T T
    0.66666667    0.33333333    0.23684211 T T T
    0.00000000    0.66666667    0.23684211 T T T
    0.33333333    0.66666667    0.23684211 T T T
    0.66666667    0.66666667    0.23684211 T T T
    0.22222222    0.22222222    0.25000000 T T T
    0.55555556    0.22222222    0.25000000 T T T
    0.88888889    0.22222222    0.25000000 T T T
    0.22222222    0.55555556    0.25000000 T T T
    0.55555556    0.55555556    0.25000000 T T T
    0.88888889    0.55555556    0.25000000 T T T
    0.22222222    0.88888889    0.25000000 T T T
    0.55555556    0.88888889    0.25000000 T T T
    0.88888889    0.88888889    0.25000000 T T T
    0.11111111    0.11111111    0.26315789 T T T
    0.44444444    0.11111111    0.26315789 T T T
    0.77777778    0.11111111    0.26315789 T T T
    0.11111111    0.44444444    0.26315789 T T T
    0.44444444    0.44444444    0.26315789 T T T
    0.77777778    0.44444444    0.26315789 T T T
    0.11111111    0.77777778    0.26315789 T T T
    0.44444444    0.77777778    0.26315789 T T T
    0.77777778    0.77777778    0.26315789 T T T
    0.00000000    0.00000000    0.27631579 T T T
    0.33333333    0.00000000    0.27631579 T T T
    0.66666667    0.00000000    0.27631579 T T T
    0.00000000    0.33333333    0.27631579 T T T
    0.33333333    0.33333333    0.27631579 T T T
    0.66666667    0.33333333    0.27631579 T T T
    0.00000000    0.66666667    0.27631579 T T T
    0.33333333    0.66666667    0.27631579 T T T
    0.66666667    0.66666667    0.27631579 T T T
    0.22222222    0.22222222    0.28947368 T T T
    0.55555556    0.22222222    0.28947368 T T T
    0.88888889    0.22222222    0.28947368 T T T
    0.22222222    0.55555556    0.28947368 T T T
    0.55555556    0.55555556    0.28947368 T T T
    0.88888889    0.55555556    0.28947368 T T T
    0.22222222    0.88888889    0.28947368 T T T
    0.55555556    0.88888889    0.28947368 T T T
    0.88888889    0.88888889    0.28947368 T T T
    0.11111111    0.11111111    0.30263158 T T T
    0.44444444    0.11111111    0.30263158 T T T
    0.77777778    0.11111111    0.30263158 T T T
    0.11111111    0.44444444    0.30263158 T T T
    0.44444444    0.44444444    0.30263158 T T T
    0.77777778    0.44444444    0.30263158 T T T
    0.11111111    0.77777778    0.30263158 T T T
    0.44444444    0.77777778    0.30263158 T T T
    0.77777778    0.77777778    0.30263158 T T T
    0.00000000    0.00000000    0.31578947 T T T
    0.33333333    0.00000000    0.31578947 T T T
    0.66666667    0.00000000    0.31578947 T T T
    0.00000000    0.33333333    0.31578947 T T T
    0.33333333    0.33333333    0.31578947 T T T
    0.66666667    0.33333333    0.31578947 T T T
    0.00000000    0.66666667    0.31578947 T T T
    0.33333333    0.66666667    0.31578947 T T T
    0.66666667    0.66666667    0.31578947 T T T
    0.22222222    0.22222222    0.32894737 T T T
    0.55555556    0.22222222    0.32894737 T T T
    0.88888889    0.22222222    0.32894737 T T T
    0.22222222    0.55555556    0.32894737 T T T
    0.55555556    0.55555556    0.32894737 T T T
    0.88888889    0.55555556    0.32894737 T T T
    0.22222222    0.88888889    0.32894737 T T T
    0.55555556    0.88888889    0.32894737 T T T
    0.88888889    0.88888889    0.32894737 T T T
    0.11111111    0.11111111    0.34210526 T T T
    0.44444444    0.11111111    0.34210526 T T T
    0.77777778    0.11111111    0.34210526 T T T
    0.11111111    0.44444444    0.34210526 T T T
    0.44444444    0.44444444    0.34210526 T T T
    0.77777778    0.44444444    0.34210526 T T T
    0.11111111    0.77777778    0.34210526 T T T
    0.44444444    0.77777778    0.34210526 T T T
    0.77777778    0.77777778    0.34210526 T T T
    0.00000000    0.00000000    0.35526316 T T T
    0.33333333    0.00000000    0.35526316 T T T
    0.66666667    0.00000000    0.35526316 T T T
    0.00000000    0.33333333    0.35526316 T T T
    0.33333333    0.33333333    0.35526316 T T T
    0.66666667    0.33333333    0.35526316 T T T
    0.00000000    0.66666667    0.35526316 T T T
    0.33333333    0.66666667    0.35526316 T T T
    0.66666667    0.66666667    0.35526316 T T T
    0.22222222    0.22222222    0.36842105 T T T
    0.55555556    0.22222222    0.36842105 T T T
    0.88888889    0.22222222    0.36842105 T T T
    0.22222222    0.55555556    0.36842105 T T T
    0.55555556    0.55555556    0.36842105 T T T
    0.88888889    0.55555556    0.36842105 T T T
    0.22222222    0.88888889    0.36842105 T T T
    0.55555556    0.88888889    0.36842105 T T T
    0.88888889    0.88888889    0.36842105 T T T
    0.11111111    0.11111111    0.38157895 T T T
    0.44444444    0.11111111    0.38157895 T T T
    0.77777778    0.11111111    0.38157895 T T T
    0.11111111    0.44444444    0.38157895 T T T
    0.44444444    0.44444444    0.38157895 T T T
    0.77777778    0.44444444    0.38157895 T T T
    0.11111111    0.77777778    0.38157895 T T T
    0.44444444    0.77777778    0.38157895 T T T
    0.77777778    0.77777778    0.38157895 T T T
    0.00000000    0.00000000    0.39473684 T T T
    0.33333333    0.00000000    0.39473684 T T T
    0.66666667    0.00000000    0.39473684 T T T
    0.00000000    0.33333333    0.39473684 T T T
    0.33333333    0.33333333    0.39473684 T T T
    0.66666667    0.33333333    0.39473684 T T T
    0.00000000    0.66666667    0.39473684 T T T
    0.33333333    0.66666667    0.39473684 T T T
    0.66666667    0.66666667    0.39473684 T T T
    0.22222222    0.22222222    0.40789474 T T T
    0.55555556    0.22222222    0.40789474 T T T
    0.88888889    0.22222222    0.40789474 T T T
    0.22222222    0.55555556    0.40789474 T T T
    0.55555556    0.55555556    0.40789474 T T T
    0.88888889    0.55555556    0.40789474 T T T
    0.22222222    0.88888889    0.40789474 T T T
    0.55555556    0.88888889    0.40789474 T T T
    0.88888889    0.88888889    0.40789474 T T T
    0.11111111    0.11111111    0.42105263 T T T
    0.44444444    0.11111111    0.42105263 T T T
    0.77777778    0.11111111    0.42105263 T T T
    0.11111111    0.44444444    0.42105263 T T T
    0.44444444    0.44444444    0.42105263 T T T
    0.77777778    0.44444444    0.42105263 T T T
    0.11111111    0.77777778    0.42105263 T T T
    0.44444444    0.77777778    0.42105263 T T T
    0.77777778    0.77777778    0.42105263 T T T
    0.00000000    0.00000000    0.43421053 T T T
    0.33333333    0.00000000    0.43421053 T T T
    0.66666667    0.00000000    0.43421053 T T T
    0.00000000    0.33333333    0.43421053 T T T
    0.33333333    0.33333333    0.43421053 T T T
    0.66666667    0.33333333    0.43421053 T T T
    0.00000000    0.66666667    0.43421053 T T T
    0.33333333    0.66666667    0.43421053 T T T
    0.66666667    0.66666667    0.43421053 T T T
    0.22222222    0.22222222    0.44736842 T T T
    0.55555556    0.22222222    0.44736842 T T T
    0.88888889    0.22222222    0.44736842 T T T
    0.22222222    0.55555556    0.44736842 T T T
    0.55555556    0.55555556    0.44736842 T T T
    0.88888889    0.55555556    0.44736842 T T T
    0.22222222    0.88888889    0.44736842 T T T
    0.55555556    0.88888889    0.44736842 T T T
    0.88888889    0.88888889    0.44736842 T T T
    0.11111111    0.11111111    0.46052632 T T T
    0.44444444    0.11111111    0.46052632 T T T
    0.77777778    0.11111111    0.46052632 T T T
    0.11111111    0.44444444    0.46052632 T T T
    0.44444444    0.44444444    0.46052632 T T T
    0.77777778    0.44444444    0.46052632 T T T
    0.11111111    0.77777778    0.46052632 T T T
    0.44444444    0.77777778    0.46052632 T T T
    0.77777778    0.77777778    0.46052632 T T T
    0.00000000    0.00000000    0.47368421 T T T
    0.33333333    0.00000000    0.47368421 T T T
    0.66666667    0.00000000    0.47368421 T T T
    0.00000000    0.33333333    0.47368421 T T T
    0.33333333    0.33333333    0.47368421 T T T
    0.66666667    0.33333333    0.47368421 T T T
    0.00000000    0.66666667    0.47368421 T T T
    0.33333333    0.66666667    0.47368421 T T T
    0.66666667    0.66666667    0.47368421 T T T
    0.22222222    0.22222222    0.48684211 T T T
    0.55555556    0.22222222    0.48684211 T T T
    0.88888889    0.22222222    0.48684211 T T T
    0.22222222    0.55555556    0.48684211 T T T
    0.55555556    0.55555556    0.48684211 T T T
    0.88888889    0.55555556    0.48684211 T T T
    0.22222222    0.88888889    0.48684211 T T T
    0.55555556    0.88888889    0.48684211 T T T
    0.88888889    0.88888889    0.48684211 T T T
    0.00000000    0.00000000    0.50000000 T T T
    0.33333333    0.00000000    0.50000000 T T T
    0.66666667    0.00000000    0.50000000 T T T
    0.00000000    0.33333333    0.50000000 T T T
    0.33333333    0.33333333    0.50000000 T T T
    0.66666667    0.33333333    0.50000000 T T T
    0.00000000    0.66666667    0.50000000 T T T
    0.33333333    0.66666667    0.50000000 T T T
    0.66666667    0.66666667    0.50000000 T T T
    0.11111111    0.11111111    0.51315789 T T T
    0.44444444    0.11111111    0.51315789 T T T
    0.77777778    0.11111111    0.51315789 T T T
    0.11111111    0.44444444    0.51315789 T T T
    0.44444444    0.44444444    0.51315789 T T T
    0.77777778    0.44444444    0.51315789 T T T
    0.11111111    0.77777778    0.51315789 T T T
    0.44444444    0.77777778    0.51315789 T T T
    0.77777778    0.77777778    0.51315789 T T T
    0.22222222    0.22222222    0.52631579 T T T
    0.55555556    0.22222222    0.52631579 T T T
    0.88888889    0.22222222    0.52631579 T T T
    0.22222222    0.55555556    0.52631579 T T T
    0.55555556    0.55555556    0.52631579 T T T
    0.88888889    0.55555556    0.52631579 T T T
    0.22222222    0.88888889    0.52631579 T T T
    0.55555556    0.88888889    0.52631579 T T T
    0.88888889    0.88888889    0.52631579 T T T
    0.00000000    0.00000000    0.53947368 T T T
    0.33333333    0.00000000    0.53947368 T T T
    0.66666667    0.00000000    0.53947368 T T T
    0.00000000    0.33333333    0.53947368 T T T
    0.33333333    0.33333333    0.53947368 T T T
    0.66666667    0.33333333    0.53947368 T T T
    0.00000000    0.66666667    0.53947368 T T T
    0.33333333    0.66666667    0.53947368 T T T
    0.66666667    0.66666667    0.53947368 T T T
    0.11111111    0.11111111    0.55263158 T T T
    0.44444444    0.11111111    0.55263158 T T T
    0.77777778    0.11111111    0.55263158 T T T
    0.11111111    0.44444444    0.55263158 T T T
    0.44444444    0.44444444    0.55263158 T T T
    0.77777778    0.44444444    0.55263158 T T T
    0.11111111    0.77777778    0.55263158 T T T
    0.44444444    0.77777778    0.55263158 T T T
    0.77777778    0.77777778    0.55263158 T T T
    0.22222222    0.22222222    0.56578947 T T T
    0.55555556    0.22222222    0.56578947 T T T
    0.88888889    0.22222222    0.56578947 T T T
    0.22222222    0.55555556    0.56578947 T T T
    0.55555556    0.55555556    0.56578947 T T T
    0.88888889    0.55555556    0.56578947 T T T
    0.22222222    0.88888889    0.56578947 T T T
    0.55555556    0.88888889    0.56578947 T T T
    0.88888889    0.88888889    0.56578947 T T T
    0.00000000    0.00000000    0.57894737 T T T
    0.33333333    0.00000000    0.57894737 T T T
    0.66666667    0.00000000    0.57894737 T T T
    0.00000000    0.33333333    0.57894737 T T T
    0.33333333    0.33333333    0.57894737 T T T
    0.66666667    0.33333333    0.57894737 T T T
    0.00000000    0.66666667    0.57894737 T T T
    0.33333333    0.66666667    0.57894737 T T T
    0.66666667    0.66666667    0.57894737 T T T
    0.11111111    0.11111111    0.59210526 T T T
    0.44444444    0.11111111    0.59210526 T T T
    0.77777778    0.11111111    0.59210526 T T T
    0.11111111    0.44444444    0.59210526 T T T
    0.44444444    0.44444444    0.59210526 T T T
    0.77777778    0.44444444    0.59210526 T T T
    0.11111111    0.77777778    0.59210526 T T T
    0.44444444    0.77777778    0.59210526 T T T
    0.77777778    0.77777778    0.59210526 T T T
    0.22222222    0.22222222    0.60526316 T T T
    0.55555556    0.22222222    0.60526316 T T T
    0.88888889    0.22222222    0.60526316 T T T
    0.22222222    0.55555556    0.60526316 T T T
    0.55555556    0.55555556    0.60526316 T T T
    0.88888889    0.55555556    0.60526316 T T T
    0.22222222    0.88888889    0.60526316 T T T
    0.55555556    0.88888889    0.60526316 T T T
    0.88888889    0.88888889    0.60526316 T T T
    0.00000000    0.00000000    0.61842105 T T T
    0.33333333    0.00000000    0.61842105 T T T
    0.66666667    0.00000000    0.61842105 T T T
    0.00000000    0.33333333    0.61842105 T T T
    0.33333333    0.33333333    0.61842105 T T T
    0.66666667    0.33333333    0.61842105 T T T
    0.00000000    0.66666667    0.61842105 T T T
    0.33333333    0.66666667    0.61842105 T T T
    0.66666667    0.66666667    0.61842105 T T T
    0.11111111    0.11111111    0.63157895 T T T
    0.44444444    0.11111111    0.63157895 T T T
    0.77777778    0.11111111    0.63157895 T T T
    0.11111111    0.44444444    0.63157895 T T T
    0.44444444    0.44444444    0.63157895 T T T
    0.77777778    0.44444444    0.63157895 T T T
    0.11111111    0.77777778    0.63157895 T T T
    0.44444444    0.77777778    0.63157895 T T T
    0.77777778    0.77777778    0.63157895 T T T
    0.22222222    0.22222222    0.64473684 T T T
    0.55555556    0.22222222    0.64473684 T T T
    0.88888889    0.22222222    0.64473684 T T T
    0.22222222    0.55555556    0.64473684 T T T
    0.55555556    0.55555556    0.64473684 T T T
    0.88888889    0.55555556    0.64473684 T T T
    0.22222222    0.88888889    0.64473684 T T T
    0.55555556    0.88888889    0.64473684 T T T
    0.88888889    0.88888889    0.64473684 T T T
    0.00000000    0.00000000    0.65789474 T T T
    0.33333333    0.00000000    0.65789474 T T T
    0.66666667    0.00000000    0.65789474 T T T
    0.00000000    0.33333333    0.65789474 T T T
    0.33333333    0.33333333    0.65789474 T T T
    0.66666667    0.33333333    0.65789474 T T T
    0.00000000    0.66666667    0.65789474 T T T
    0.33333333    0.66666667    0.65789474 T T T
    0.66666667    0.66666667    0.65789474 T T T
    0.11111111    0.11111111    0.67105263 T T T
    0.44444444    0.11111111    0.67105263 T T T
    0.77777778    0.11111111    0.67105263 T T T
    0.11111111    0.44444444    0.67105263 T T T
    0.44444444    0.44444444    0.67105263 T T T
    0.77777778    0.44444444    0.67105263 T T T
    0.11111111    0.77777778    0.67105263 T T T
    0.44444444    0.77777778    0.67105263 T T T
    0.77777778    0.77777778    0.67105263 T T T
    0.22222222    0.22222222    0.68421053 T T T
    0.55555556    0.22222222    0.68421053 T T T
    0.88888889    0.22222222    0.68421053 T T T
    0.22222222    0.55555556    0.68421053 T T T
    0.55555556    0.55555556    0.68421053 T T T
    0.88888889    0.55555556    0.68421053 T T T
    0.22222222    0.88888889    0.68421053 T T T
    0.55555556    0.88888889    0.68421053 T T T
    0.88888889    0.88888889    0.68421053 T T T
    0.00000000    0.00000000    0.69736842 T T T
    0.33333333    0.00000000    0.69736842 T T T
    0.66666667    0.00000000    0.69736842 T T T
    0.00000000    0.33333333    0.69736842 T T T
    0.33333333    0.33333333    0.69736842 T T T
    0.66666667    0.33333333    0.69736842 T T T
    0.00000000    0.66666667    0.69736842 T T T
    0.33333333    0.66666667    0.69736842 T T T
    0.66666667    0.66666667    0.69736842 T T T
    0.11111111    0.11111111    0.71052632 T T T
    0.44444444    0.11111111    0.71052632 T T T
    0.77777778    0.11111111    0.71052632 T T T
    0.11111111    0.44444444    0.71052632 T T T
    0.44444444    0.44444444    0.71052632 T T T
    0.77777778    0.44444444    0.71052632 T T T
    0.11111111    0.77777778    0.71052632 T T T
    0.44444444    0.77777778    0.71052632 T T T
    0.77777778    0.77777778    0.71052632 T T T
    0.22222222    0.22222222    0.72368421 T T T
    0.55555556    0.22222222    0.72368421 T T T
    0.88888889    0.22222222    0.72368421 T T T
    0.22222222    0.55555556    0.72368421 T T T
    0.55555556    0.55555556    0.72368421 T T T
    0.88888889    0.55555556    0.72368421 T T T
    0.22222222    0.88888889    0.72368421 T T T
    0.55555556    0.88888889    0.72368421 T T T
    0.88888889    0.88888889    0.72368421 T T T
    0.00000000    0.00000000    0.73684211 T T T
    0.33333333    0.00000000    0.73684211 T T T
    0.66666667    0.00000000    0.73684211 T T T
    0.00000000    0.33333333    0.73684211 T T T
    0.33333333    0.33333333    0.73684211 T T T
    0.66666667    0.33333333    0.73684211 T T T
    0.00000000    0.66666667    0.73684211 T T T
    0.33333333    0.66666667    0.73684211 T T T
    0.66666667    0.66666667    0.73684211 T T T
    0.22222222    0.22222222    0.75000000 T T T
    0.55555556    0.22222222    0.75000000 T T T
    0.88888889    0.22222222    0.75000000 T T T
    0.22222222    0.55555556    0.75000000 T T T
    0.55555556    0.55555556    0.75000000 T T T
    0.88888889    0.55555556    0.75000000 T T T
    0.22222222    0.88888889    0.75000000 T T T
    0.55555556    0.88888889    0.75000000 T T T
    0.88888889    0.88888889    0.75000000 T T T
    0.11111111    0.11111111    0.76315789 T T T
    0.44444444    0.11111111    0.76315789 T T T
    0.77777778    0.11111111    0.76315789 T T T
    0.11111111    0.44444444    0.76315789 T T T
    0.44444444    0.44444444    0.76315789 T T T
    0.77777778    0.44444444    0.76315789 T T T
    0.11111111    0.77777778    0.76315789 T T T
    0.44444444    0.77777778    0.76315789 T T T
    0.77777778    0.77777778    0.76315789 T T T
    0.00000000    0.00000000    0.77631579 T T T
    0.33333333    0.00000000    0.77631579 T T T
    0.66666667    0.00000000    0.77631579 T T T
    0.00000000    0.33333333    0.77631579 T T T
    0.33333333    0.33333333    0.77631579 T T T
    0.66666667    0.33333333    0.77631579 T T T
    0.00000000    0.66666667    0.77631579 T T T
    0.33333333    0.66666667    0.77631579 T T T
    0.66666667    0.66666667    0.77631579 T T T
    0.22222222    0.22222222    0.78947368 T T T
    0.55555556    0.22222222    0.78947368 T T T
    0.88888889    0.22222222    0.78947368 T T T
    0.22222222    0.55555556    0.78947368 T T T
    0.55555556    0.55555556    0.78947368 T T T
    0.88888889    0.55555556    0.78947368 T T T
    0.22222222    0.88888889    0.78947368 T T T
    0.55555556    0.88888889    0.78947368 T T T
    0.88888889    0.88888889    0.78947368 T T T
    0.11111111    0.11111111    0.80263158 T T T
    0.44444444    0.11111111    0.80263158 T T T
    0.77777778    0.11111111    0.80263158 T T T
    0.11111111    0.44444444    0.80263158 T T T
    0.44444444    0.44444444    0.80263158 T T T
    0.77777778    0.44444444    0.80263158 T T T
    0.11111111    0.77777778    0.80263158 T T T
    0.44444444    0.77777778    0.80263158 T T T
    0.77777778    0.77777778    0.80263158 T T T
    0.00000000    0.00000000    0.81578947 T T T
    0.33333333    0.00000000    0.81578947 T T T
    0.66666667    0.00000000    0.81578947 T T T
    0.00000000    0.33333333    0.81578947 T T T
    0.33333333    0.33333333    0.81578947 T T T
    0.66666667    0.33333333    0.81578947 T T T
    0.00000000    0.66666667    0.81578947 T T T
    0.33333333    0.66666667    0.81578947 T T T
    0.66666667    0.66666667    0.81578947 T T T
    0.22222222    0.22222222    0.82894737 T T T
    0.55555556    0.22222222    0.82894737 T T T
    0.88888889    0.22222222    0.82894737 T T T
    0.22222222    0.55555556    0.82894737 T T T
    0.55555556    0.55555556    0.82894737 T T T
    0.88888889    0.55555556    0.82894737 T T T
    0.22222222    0.88888889    0.82894737 T T T
    0.55555556    0.88888889    0.82894737 T T T
    0.88888889    0.88888889    0.82894737 T T T
    0.11111111    0.11111111    0.84210526 T T T
    0.44444444    0.11111111    0.84210526 T T T
    0.77777778    0.11111111    0.84210526 T T T
    0.11111111    0.44444444    0.84210526 T T T
    0.44444444    0.44444444    0.84210526 T T T
    0.77777778    0.44444444    0.84210526 T T T
    0.11111111    0.77777778    0.84210526 T T T
    0.44444444    0.77777778    0.84210526 T T T
    0.77777778    0.77777778    0.84210526 T T T
    0.00000000    0.00000000    0.85526316 T T T
    0.33333333    0.00000000    0.85526316 T T T
    0.66666667    0.00000000    0.85526316 T T T
    0.00000000    0.33333333    0.85526316 T T T
    0.33333333    0.33333333    0.85526316 T T T
    0.66666667    0.33333333    0.85526316 T T T
    0.00000000    0.66666667    0.85526316 T T T
    0.33333333    0.66666667    0.85526316 T T T
    0.66666667    0.66666667    0.85526316 T T T
    0.22222222    0.22222222    0.86842105 T T T
    0.55555556    0.22222222    0.86842105 T T T
    0.88888889    0.22222222    0.86842105 T T T
    0.22222222    0.55555556    0.86842105 T T T
    0.55555556    0.55555556    0.86842105 T T T
    0.88888889    0.55555556    0.86842105 T T T
    0.22222222    0.88888889    0.86842105 T T T
    0.55555556    0.88888889    0.86842105 T T T
    0.88888889    0.88888889    0.86842105 T T T
    0.11111111    0.11111111    0.88157895 T T T
    0.44444444    0.11111111    0.88157895 T T T
    0.77777778    0.11111111    0.88157895 T T T
    0.11111111    0.44444444    0.88157895 T T T
    0.44444444    0.44444444    0.88157895 T T T
    0.77777778    0.44444444    0.88157895 T T T
    0.11111111    0.77777778    0.88157895 T T T
    0.44444444    0.77777778    0.88157895 T T T
    0.77777778    0.77777778    0.88157895 T T T
    0.00000000    0.00000000    0.89473684 T T T
    0.33333333    0.00000000    0.89473684 T T T
    0.66666667    0.00000000    0.89473684 T T T
    0.00000000    0.33333333    0.89473684 T T T
    0.33333333    0.33333333    0.89473684 T T T
    0.66666667    0.33333333    0.89473684 T T T
    0.00000000    0.66666667    0.89473684 T T T
    0.33333333    0.66666667    0.89473684 T T T
    0.66666667    0.66666667    0.89473684 T T T
    0.22222222    0.22222222    0.90789474 T T T
    0.55555556    0.22222222    0.90789474 T T T
    0.88888889    0.22222222    0.90789474 T T T
    0.22222222    0.55555556    0.90789474 T T T
    0.55555556    0.55555556    0.90789474 T T T
    0.88888889    0.55555556    0.90789474 T T T
    0.22222222    0.88888889    0.90789474 T T T
    0.55555556    0.88888889    0.90789474 T T T
    0.88888889    0.88888889    0.90789474 T T T
    0.11111111    0.11111111    0.92105263 T T T
    0.44444444    0.11111111    0.92105263 T T T
    0.77777778    0.11111111    0.92105263 T T T
    0.11111111    0.44444444    0.92105263 T T T
    0.44444444    0.44444444    0.92105263 T T T
    0.77777778    0.44444444    0.92105263 T T T
    0.11111111    0.77777778    0.92105263 T T T
    0.44444444    0.77777778    0.92105263 T T T
    0.77777778    0.77777778    0.92105263 T T T
    0.00000000    0.00000000    0.93421053 T T T
    0.33333333    0.00000000    0.93421053 T T T
    0.66666667    0.00000000    0.93421053 T T T
    0.00000000    0.33333333    0.93421053 T T T
    0.33333333    0.33333333    0.93421053 T T T
    0.66666667    0.33333333    0.93421053 T T T
    0.00000000    0.66666667    0.93421053 T T T
    0.33333333    0.66666667    0.93421053 T T T
    0.66666667    0.66666667    0.93421053 T T T
    0.22222222    0.22222222    0.94736842 T T T
    0.55555556    0.22222222    0.94736842 T T T
    0.88888889    0.22222222    0.94736842 T T T
    0.22222222    0.55555556    0.94736842 T T T
    0.55555556    0.55555556    0.94736842 T T T
    0.88888889    0.55555556    0.94736842 T T T
    0.22222222    0.88888889    0.94736842 T T T
    0.55555556    0.88888889    0.94736842 T T T
    0.88888889    0.88888889    0.94736842 T T T
    0.11111111    0.11111111    0.96052632 T T T
    0.44444444    0.11111111    0.96052632 T T T
    0.77777778    0.11111111    0.96052632 T T T
    0.11111111    0.44444444    0.96052632 T T T
    0.44444444    0.44444444    0.96052632 T T T
    0.77777778    0.44444444    0.96052632 T T T
    0.11111111    0.77777778    0.96052632 T T T
    0.44444444    0.77777778    0.96052632 T T T
    0.77777778    0.77777778    0.96052632 T T T
    0.00000000    0.00000000    0.97368421 T T T
    0.33333333    0.00000000    0.97368421 T T T
    0.66666667    0.00000000    0.97368421 T T T
    0.00000000    0.33333333    0.97368421 T T T
    0.33333333    0.33333333    0.97368421 T T T
    0.66666667    0.33333333    0.97368421 T T T
    0.00000000    0.66666667    0.97368421 T T T
    0.33333333    0.66666667    0.97368421 T T T
    0.66666667    0.66666667    0.97368421 T T T
    0.22222222    0.22222222    0.98684211 F F F
    0.55555556    0.22222222    0.98684211 F F F
    0.88888889    0.22222222    0.98684211 F F F
    0.22222222    0.55555556    0.98684211 F F F
    0.55555556    0.55555556    0.98684211 F F F
    0.88888889    0.55555556    0.98684211 F F F
    0.22222222    0.88888889    0.98684211 F F F
    0.55555556    0.88888889    0.98684211 F F F
    0.88888889    0.88888889    0.98684211 F F F
