Generated generic
1.0
    7.66857304    0.00000000    0.00000000
    3.83428652    6.64117907    0.00000000
    0.00000000    0.00000000  342.28788059
 Cu
 1476
Selective dynamics
Direct
    0.00000000    0.00000000    0.00000000 F F F
    0.33333333    0.00000000    0.00000000 F F F
    0.66666667    0.00000000    0.00000000 F F F
    0.00000000    0.33333333    0.00000000 F F F
    0.33333333    0.33333333    0.00000000 F F F
    0.66666667    0.33333333    0.00000000 F F F
    0.00000000    0.66666667    0.00000000 F F F
    0.33333333    0.66666667    0.00000000 F F F
    0.66666667    0.66666667    0.00000000 F F F
    0.11111111    0.11111111    0.00609756 T T T
    0.44444444    0.11111111    0.00609756 T T T
    0.77777778    0.11111111    0.00609756 T T T
    0.11111111    0.44444444    0.00609756 T T T
    0.44444444    0.44444444    0.00609756 T T T
    0.77777778    0.44444444    0.00609756 T T T
    0.11111111    0.77777778    0.00609756 T T T
    0.44444444    0.77777778    0.00609756 T T T
    0.77777778    0.77777778    0.00609756 T T T
    0.22222222    0.22222222    0.01219512 T T T
    0.55555556    0.22222222    0.01219512 T T T
    0.88888889    0.22222222    0.01219512 T T T
    0.22222222    0.55555556    0.01219512 T T T
    0.55555556    0.55555556    0.01219512 T T T
    0.88888889    0.55555556    0.01219512 T T T
    0.22222222    0.88888889    0.01219512 T T T
    0.55555556    0.88888889    0.01219512 T T T
    0.88888889    0.88888889    0.01219512 T T T
    0.00000000    0.00000000    0.01829268 T T T
    0.33333333    0.00000000    0.01829268 T T T
    0.66666667    0.00000000    0.01829268 T T T
    0.00000000    0.33333333    0.01829268 T T T
    0.33333333    0.33333333    0.01829268 T T T
    0.66666667    0.33333333    0.01829268 T T T
    0.00000000    0.66666667    0.01829268 T T T
    0.33333333    0.66666667    0.01829268 T T T
    0.66666667    0.66666667    0.01829268 T T T
    0.11111111    0.11111111    0.02439024 T T T
    0.44444444    0.11111111    0.02439024 T T T
    0.77777778    0.11111111    0.02439024 T T T
    0.11111111    0.44444444    0.02439024 T T T
    0.44444444    0.44444444    0.02439024 T T T
    0.77777778    0.44444444    0.02439024 T T T
    0.11111111    0.77777778    0.02439024 T T T
    0.44444444    0.77777778    0.02439024 T T T
    0.77777778    0.77777778    0.02439024 T T T
    0.22222222    0.22222222    0.03048780 T T T
    0.55555556    0.22222222    0.03048780 T T T
    0.88888889    0.22222222    0.03048780 T T T
    0.22222222    0.55555556    0.03048780 T T T
    0.55555556    0.55555556    0.03048780 T T T
    0.88888889    0.55555556    0.03048780 T T T
    0.22222222    0.88888889    0.03048780 T T T
    0.55555556    0.88888889    0.03048780 T T T
    0.88888889    0.88888889    0.03048780 T T T
    0.00000000    0.00000000    0.03658537 T T T
    0.33333333    0.00000000    0.03658537 T T T
    0.66666667    0.00000000    0.03658537 T T T
    0.00000000    0.33333333    0.03658537 T T T
    0.33333333    0.33333333    0.03658537 T T T
    0.66666667    0.33333333    0.03658537 T T T
    0.00000000    0.66666667    0.03658537 T T T
    0.33333333    0.66666667    0.03658537 T T T
    0.66666667    0.66666667    0.03658537 T T T
    0.11111111    0.11111111    0.04268293 T T T
    0.44444444    0.11111111    0.04268293 T T T
    0.77777778    0.11111111    0.04268293 T T T
    0.11111111    0.44444444    0.04268293 T T T
    0.44444444    0.44444444    0.04268293 T T T
    0.77777778    0.44444444    0.04268293 T T T
    0.11111111    0.77777778    0.04268293 T T T
    0.44444444    0.77777778    0.04268293 T T T
    0.77777778    0.77777778    0.04268293 T T T
    0.22222222    0.22222222    0.04878049 T T T
    0.55555556    0.22222222    0.04878049 T T T
    0.88888889    0.22222222    0.04878049 T T T
    0.22222222    0.55555556    0.04878049 T T T
    0.55555556    0.55555556    0.04878049 T T T
    0.88888889    0.55555556    0.04878049 T T T
    0.22222222    0.88888889    0.04878049 T T T
    0.55555556    0.88888889    0.04878049 T T T
    0.88888889    0.88888889    0.04878049 T T T
    0.00000000    0.00000000    0.05487805 T T T
    0.33333333    0.00000000    0.05487805 T T T
    0.66666667    0.00000000    0.05487805 T T T
    0.00000000    0.33333333    0.05487805 T T T
    0.33333333    0.33333333    0.05487805 T T T
    0.66666667    0.33333333    0.05487805 T T T
    0.00000000    0.66666667    0.05487805 T T T
    0.33333333    0.66666667    0.05487805 T T T
    0.66666667    0.66666667    0.05487805 T T T
    0.11111111    0.11111111    0.06097561 T T T
    0.44444444    0.11111111    0.06097561 T T T
    0.77777778    0.11111111    0.06097561 T T T
    0.11111111    0.44444444    0.06097561 T T T
    0.44444444    0.44444444    0.06097561 T T T
    0.77777778    0.44444444    0.06097561 T T T
    0.11111111    0.77777778    0.06097561 T T T
    0.44444444    0.77777778    0.06097561 T T T
    0.77777778    0.77777778    0.06097561 T T T
    0.22222222    0.22222222    0.06707317 T T T
    0.55555556    0.22222222    0.06707317 T T T
    0.88888889    0.22222222    0.06707317 T T T
    0.22222222    0.55555556    0.06707317 T T T
    0.55555556    0.55555556    0.06707317 T T T
    0.88888889    0.55555556    0.06707317 T T T
    0.22222222    0.88888889    0.06707317 T T T
    0.55555556    0.88888889    0.06707317 T T T
    0.88888889    0.88888889    0.06707317 T T T
    0.00000000    0.00000000    0.07317073 T T T
    0.33333333    0.00000000    0.07317073 T T T
    0.66666667    0.00000000    0.07317073 T T T
    0.00000000    0.33333333    0.07317073 T T T
    0.33333333    0.33333333    0.07317073 T T T
    0.66666667    0.33333333    0.07317073 T T T
    0.00000000    0.66666667    0.07317073 T T T
    0.33333333    0.66666667    0.07317073 T T T
    0.66666667    0.66666667    0.07317073 T T T
    0.11111111    0.11111111    0.07926829 T T T
    0.44444444    0.11111111    0.07926829 T T T
    0.77777778    0.11111111    0.07926829 T T T
    0.11111111    0.44444444    0.07926829 T T T
    0.44444444    0.44444444    0.07926829 T T T
    0.77777778    0.44444444    0.07926829 T T T
    0.11111111    0.77777778    0.07926829 T T T
    0.44444444    0.77777778    0.07926829 T T T
    0.77777778    0.77777778    0.07926829 T T T
    0.22222222    0.22222222    0.08536585 T T T
    0.55555556    0.22222222    0.08536585 T T T
    0.88888889    0.22222222    0.08536585 T T T
    0.22222222    0.55555556    0.08536585 T T T
    0.55555556    0.55555556    0.08536585 T T T
    0.88888889    0.55555556    0.08536585 T T T
    0.22222222    0.88888889    0.08536585 T T T
    0.55555556    0.88888889    0.08536585 T T T
    0.88888889    0.88888889    0.08536585 T T T
    0.00000000    0.00000000    0.09146341 T T T
    0.33333333    0.00000000    0.09146341 T T T
    0.66666667    0.00000000    0.09146341 T T T
    0.00000000    0.33333333    0.09146341 T T T
    0.33333333    0.33333333    0.09146341 T T T
    0.66666667    0.33333333    0.09146341 T T T
    0.00000000    0.66666667    0.09146341 T T T
    0.33333333    0.66666667    0.09146341 T T T
    0.66666667    0.66666667    0.09146341 T T T
    0.11111111    0.11111111    0.09756098 T T T
    0.44444444    0.11111111    0.09756098 T T T
    0.77777778    0.11111111    0.09756098 T T T
    0.11111111    0.44444444    0.09756098 T T T
    0.44444444    0.44444444    0.09756098 T T T
    0.77777778    0.44444444    0.09756098 T T T
    0.11111111    0.77777778    0.09756098 T T T
    0.44444444    0.77777778    0.09756098 T T T
    0.77777778    0.77777778    0.09756098 T T T
    0.22222222    0.22222222    0.10365854 T T T
    0.55555556    0.22222222    0.10365854 T T T
    0.88888889    0.22222222    0.10365854 T T T
    0.22222222    0.55555556    0.10365854 T T T
    0.55555556    0.55555556    0.10365854 T T T
    0.88888889    0.55555556    0.10365854 T T T
    0.22222222    0.88888889    0.10365854 T T T
    0.55555556    0.88888889    0.10365854 T T T
    0.88888889    0.88888889    0.10365854 T T T
    0.00000000    0.00000000    0.10975610 T T T
    0.33333333    0.00000000    0.10975610 T T T
    0.66666667    0.00000000    0.10975610 T T T
    0.00000000    0.33333333    0.10975610 T T T
    0.33333333    0.33333333    0.10975610 T T T
    0.66666667    0.33333333    0.10975610 T T T
    0.00000000    0.66666667    0.10975610 T T T
    0.33333333    0.66666667    0.10975610 T T T
    0.66666667    0.66666667    0.10975610 T T T
    0.11111111    0.11111111    0.11585366 T T T
    0.44444444    0.11111111    0.11585366 T T T
    0.77777778    0.11111111    0.11585366 T T T
    0.11111111    0.44444444    0.11585366 T T T
    0.44444444    0.44444444    0.11585366 T T T
    0.77777778    0.44444444    0.11585366 T T T
    0.11111111    0.77777778    0.11585366 T T T
    0.44444444    0.77777778    0.11585366 T T T
    0.77777778    0.77777778    0.11585366 T T T
    0.22222222    0.22222222    0.12195122 T T T
    0.55555556    0.22222222    0.12195122 T T T
    0.88888889    0.22222222    0.12195122 T T T
    0.22222222    0.55555556    0.12195122 T T T
    0.55555556    0.55555556    0.12195122 T T T
    0.88888889    0.55555556    0.12195122 T T T
    0.22222222    0.88888889    0.12195122 T T T
    0.55555556    0.88888889    0.12195122 T T T
    0.88888889    0.88888889    0.12195122 T T T
    0.00000000    0.00000000    0.12804878 T T T
    0.33333333    0.00000000    0.12804878 T T T
    0.66666667    0.00000000    0.12804878 T T T
    0.00000000    0.33333333    0.12804878 T T T
    0.33333333    0.33333333    0.12804878 T T T
    0.66666667    0.33333333    0.12804878 T T T
    0.00000000    0.66666667    0.12804878 T T T
    0.33333333    0.66666667    0.12804878 T T T
    0.66666667    0.66666667    0.12804878 T T T
    0.11111111    0.11111111    0.13414634 T T T
    0.44444444    0.11111111    0.13414634 T T T
    0.77777778    0.11111111    0.13414634 T T T
    0.11111111    0.44444444    0.13414634 T T T
    0.44444444    0.44444444    0.13414634 T T T
    0.77777778    0.44444444    0.13414634 T T T
    0.11111111    0.77777778    0.13414634 T T T
    0.44444444    0.77777778    0.13414634 T T T
    0.77777778    0.77777778    0.13414634 T T T
    0.22222222    0.22222222    0.14024390 T T T
    0.55555556    0.22222222    0.14024390 T T T
    0.88888889    0.22222222    0.14024390 T T T
    0.22222222    0.55555556    0.14024390 T T T
    0.55555556    0.55555556    0.14024390 T T T
    0.88888889    0.55555556    0.14024390 T T T
    0.22222222    0.88888889    0.14024390 T T T
    0.55555556    0.88888889    0.14024390 T T T
    0.88888889    0.88888889    0.14024390 T T T
    0.00000000    0.00000000    0.14634146 T T T
    0.33333333    0.00000000    0.14634146 T T T
    0.66666667    0.00000000    0.14634146 T T T
    0.00000000    0.33333333    0.14634146 T T T
    0.33333333    0.33333333    0.14634146 T T T
    0.66666667    0.33333333    0.14634146 T T T
    0.00000000    0.66666667    0.14634146 T T T
    0.33333333    0.66666667    0.14634146 T T T
    0.66666667    0.66666667    0.14634146 T T T
    0.11111111    0.11111111    0.15243902 T T T
    0.44444444    0.11111111    0.15243902 T T T
    0.77777778    0.11111111    0.15243902 T T T
    0.11111111    0.44444444    0.15243902 T T T
    0.44444444    0.44444444    0.15243902 T T T
    0.77777778    0.44444444    0.15243902 T T T
    0.11111111    0.77777778    0.15243902 T T T
    0.44444444    0.77777778    0.15243902 T T T
    0.77777778    0.77777778    0.15243902 T T T
    0.22222222    0.22222222    0.15853659 T T T
    0.55555556    0.22222222    0.15853659 T T T
    0.88888889    0.22222222    0.15853659 T T T
    0.22222222    0.55555556    0.15853659 T T T
    0.55555556    0.55555556    0.15853659 T T T
    0.88888889    0.55555556    0.15853659 T T T
    0.22222222    0.88888889    0.15853659 T T T
    0.55555556    0.88888889    0.15853659 T T T
    0.88888889    0.88888889    0.15853659 T T T
    0.00000000    0.00000000    0.16463415 T T T
    0.33333333    0.00000000    0.16463415 T T T
    0.66666667    0.00000000    0.16463415 T T T
    0.00000000    0.33333333    0.16463415 T T T
    0.33333333    0.33333333    0.16463415 T T T
    0.66666667    0.33333333    0.16463415 T T T
    0.00000000    0.66666667    0.16463415 T T T
    0.33333333    0.66666667    0.16463415 T T T
    0.66666667    0.66666667    0.16463415 T T T
    0.11111111    0.11111111    0.17073171 T T T
    0.44444444    0.11111111    0.17073171 T T T
    0.77777778    0.11111111    0.17073171 T T T
    0.11111111    0.44444444    0.17073171 T T T
    0.44444444    0.44444444    0.17073171 T T T
    0.77777778    0.44444444    0.17073171 T T T
    0.11111111    0.77777778    0.17073171 T T T
    0.44444444    0.77777778    0.17073171 T T T
    0.77777778    0.77777778    0.17073171 T T T
    0.22222222    0.22222222    0.17682927 T T T
    0.55555556    0.22222222    0.17682927 T T T
    0.88888889    0.22222222    0.17682927 T T T
    0.22222222    0.55555556    0.17682927 T T T
    0.55555556    0.55555556    0.17682927 T T T
    0.88888889    0.55555556    0.17682927 T T T
    0.22222222    0.88888889    0.17682927 T T T
    0.55555556    0.88888889    0.17682927 T T T
    0.88888889    0.88888889    0.17682927 T T T
    0.00000000    0.00000000    0.18292683 T T T
    0.33333333    0.00000000    0.18292683 T T T
    0.66666667    0.00000000    0.18292683 T T T
    0.00000000    0.33333333    0.18292683 T T T
    0.33333333    0.33333333    0.18292683 T T T
    0.66666667    0.33333333    0.18292683 T T T
    0.00000000    0.66666667    0.18292683 T T T
    0.33333333    0.66666667    0.18292683 T T T
    0.66666667    0.66666667    0.18292683 T T T
    0.11111111    0.11111111    0.18902439 T T T
    0.44444444    0.11111111    0.18902439 T T T
    0.77777778    0.11111111    0.18902439 T T T
    0.11111111    0.44444444    0.18902439 T T T
    0.44444444    0.44444444    0.18902439 T T T
    0.77777778    0.44444444    0.18902439 T T T
    0.11111111    0.77777778    0.18902439 T T T
    0.44444444    0.77777778    0.18902439 T T T
    0.77777778    0.77777778    0.18902439 T T T
    0.22222222    0.22222222    0.19512195 T T T
    0.55555556    0.22222222    0.19512195 T T T
    0.88888889    0.22222222    0.19512195 T T T
    0.22222222    0.55555556    0.19512195 T T T
    0.55555556    0.55555556    0.19512195 T T T
    0.88888889    0.55555556    0.19512195 T T T
    0.22222222    0.88888889    0.19512195 T T T
    0.55555556    0.88888889    0.19512195 T T T
    0.88888889    0.88888889    0.19512195 T T T
    0.00000000    0.00000000    0.20121951 T T T
    0.33333333    0.00000000    0.20121951 T T T
    0.66666667    0.00000000    0.20121951 T T T
    0.00000000    0.33333333    0.20121951 T T T
    0.33333333    0.33333333    0.20121951 T T T
    0.66666667    0.33333333    0.20121951 T T T
    0.00000000    0.66666667    0.20121951 T T T
    0.33333333    0.66666667    0.20121951 T T T
    0.66666667    0.66666667    0.20121951 T T T
    0.11111111    0.11111111    0.20731707 T T T
    0.44444444    0.11111111    0.20731707 T T T
    0.77777778    0.11111111    0.20731707 T T T
    0.11111111    0.44444444    0.20731707 T T T
    0.44444444    0.44444444    0.20731707 T T T
    0.77777778    0.44444444    0.20731707 T T T
    0.11111111    0.77777778    0.20731707 T T T
    0.44444444    0.77777778    0.20731707 T T T
    0.77777778    0.77777778    0.20731707 T T T
    0.22222222    0.22222222    0.21341463 T T T
    0.55555556    0.22222222    0.21341463 T T T
    0.88888889    0.22222222    0.21341463 T T T
    0.22222222    0.55555556    0.21341463 T T T
    0.55555556    0.55555556    0.21341463 T T T
    0.88888889    0.55555556    0.21341463 T T T
    0.22222222    0.88888889    0.21341463 T T T
    0.55555556    0.88888889    0.21341463 T T T
    0.88888889    0.88888889    0.21341463 T T T
    0.00000000    0.00000000    0.21951220 T T T
    0.33333333    0.00000000    0.21951220 T T T
    0.66666667    0.00000000    0.21951220 T T T
    0.00000000    0.33333333    0.21951220 T T T
    0.33333333    0.33333333    0.21951220 T T T
    0.66666667    0.33333333    0.21951220 T T T
    0.00000000    0.66666667    0.21951220 T T T
    0.33333333    0.66666667    0.21951220 T T T
    0.66666667    0.66666667    0.21951220 T T T
    0.11111111    0.11111111    0.22560976 T T T
    0.44444444    0.11111111    0.22560976 T T T
    0.77777778    0.11111111    0.22560976 T T T
    0.11111111    0.44444444    0.22560976 T T T
    0.44444444    0.44444444    0.22560976 T T T
    0.77777778    0.44444444    0.22560976 T T T
    0.11111111    0.77777778    0.22560976 T T T
    0.44444444    0.77777778    0.22560976 T T T
    0.77777778    0.77777778    0.22560976 T T T
    0.22222222    0.22222222    0.23170732 T T T
    0.55555556    0.22222222    0.23170732 T T T
    0.88888889    0.22222222    0.23170732 T T T
    0.22222222    0.55555556    0.23170732 T T T
    0.55555556    0.55555556    0.23170732 T T T
    0.88888889    0.55555556    0.23170732 T T T
    0.22222222    0.88888889    0.23170732 T T T
    0.55555556    0.88888889    0.23170732 T T T
    0.88888889    0.88888889    0.23170732 T T T
    0.00000000    0.00000000    0.23780488 T T T
    0.33333333    0.00000000    0.23780488 T T T
    0.66666667    0.00000000    0.23780488 T T T
    0.00000000    0.33333333    0.23780488 T T T
    0.33333333    0.33333333    0.23780488 T T T
    0.66666667    0.33333333    0.23780488 T T T
    0.00000000    0.66666667    0.23780488 T T T
    0.33333333    0.66666667    0.23780488 T T T
    0.66666667    0.66666667    0.23780488 T T T
    0.11111111    0.11111111    0.24390244 T T T
    0.44444444    0.11111111    0.24390244 T T T
    0.77777778    0.11111111    0.24390244 T T T
    0.11111111    0.44444444    0.24390244 T T T
    0.44444444    0.44444444    0.24390244 T T T
    0.77777778    0.44444444    0.24390244 T T T
    0.11111111    0.77777778    0.24390244 T T T
    0.44444444    0.77777778    0.24390244 T T T
    0.77777778    0.77777778    0.24390244 T T T
    0.00000000    0.00000000    0.25000000 T T T
    0.33333333    0.00000000    0.25000000 T T T
    0.66666667    0.00000000    0.25000000 T T T
    0.00000000    0.33333333    0.25000000 T T T
    0.33333333    0.33333333    0.25000000 T T T
    0.66666667    0.33333333    0.25000000 T T T
    0.00000000    0.66666667    0.25000000 T T T
    0.33333333    0.66666667    0.25000000 T T T
    0.66666667    0.66666667    0.25000000 T T T
    0.22222222    0.22222222    0.25609756 T T T
    0.55555556    0.22222222    0.25609756 T T T
    0.88888889    0.22222222    0.25609756 T T T
    0.22222222    0.55555556    0.25609756 T T T
    0.55555556    0.55555556    0.25609756 T T T
    0.88888889    0.55555556    0.25609756 T T T
    0.22222222    0.88888889    0.25609756 T T T
    0.55555556    0.88888889    0.25609756 T T T
    0.88888889    0.88888889    0.25609756 T T T
    0.11111111    0.11111111    0.26219512 T T T
    0.44444444    0.11111111    0.26219512 T T T
    0.77777778    0.11111111    0.26219512 T T T
    0.11111111    0.44444444    0.26219512 T T T
    0.44444444    0.44444444    0.26219512 T T T
    0.77777778    0.44444444    0.26219512 T T T
    0.11111111    0.77777778    0.26219512 T T T
    0.44444444    0.77777778    0.26219512 T T T
    0.77777778    0.77777778    0.26219512 T T T
    0.00000000    0.00000000    0.26829268 T T T
    0.33333333    0.00000000    0.26829268 T T T
    0.66666667    0.00000000    0.26829268 T T T
    0.00000000    0.33333333    0.26829268 T T T
    0.33333333    0.33333333    0.26829268 T T T
    0.66666667    0.33333333    0.26829268 T T T
    0.00000000    0.66666667    0.26829268 T T T
    0.33333333    0.66666667    0.26829268 T T T
    0.66666667    0.66666667    0.26829268 T T T
    0.22222222    0.22222222    0.27439024 T T T
    0.55555556    0.22222222    0.27439024 T T T
    0.88888889    0.22222222    0.27439024 T T T
    0.22222222    0.55555556    0.27439024 T T T
    0.55555556    0.55555556    0.27439024 T T T
    0.88888889    0.55555556    0.27439024 T T T
    0.22222222    0.88888889    0.27439024 T T T
    0.55555556    0.88888889    0.27439024 T T T
    0.88888889    0.88888889    0.27439024 T T T
    0.11111111    0.11111111    0.28048780 T T T
    0.44444444    0.11111111    0.28048780 T T T
    0.77777778    0.11111111    0.28048780 T T T
    0.11111111    0.44444444    0.28048780 T T T
    0.44444444    0.44444444    0.28048780 T T T
    0.77777778    0.44444444    0.28048780 T T T
    0.11111111    0.77777778    0.28048780 T T T
    0.44444444    0.77777778    0.28048780 T T T
    0.77777778    0.77777778    0.28048780 T T T
    0.00000000    0.00000000    0.28658537 T T T
    0.33333333    0.00000000    0.28658537 T T T
    0.66666667    0.00000000    0.28658537 T T T
    0.00000000    0.33333333    0.28658537 T T T
    0.33333333    0.33333333    0.28658537 T T T
    0.66666667    0.33333333    0.28658537 T T T
    0.00000000    0.66666667    0.28658537 T T T
    0.33333333    0.66666667    0.28658537 T T T
    0.66666667    0.66666667    0.28658537 T T T
    0.22222222    0.22222222    0.29268293 T T T
    0.55555556    0.22222222    0.29268293 T T T
    0.88888889    0.22222222    0.29268293 T T T
    0.22222222    0.55555556    0.29268293 T T T
    0.55555556    0.55555556    0.29268293 T T T
    0.88888889    0.55555556    0.29268293 T T T
    0.22222222    0.88888889    0.29268293 T T T
    0.55555556    0.88888889    0.29268293 T T T
    0.88888889    0.88888889    0.29268293 T T T
    0.11111111    0.11111111    0.29878049 T T T
    0.44444444    0.11111111    0.29878049 T T T
    0.77777778    0.11111111    0.29878049 T T T
    0.11111111    0.44444444    0.29878049 T T T
    0.44444444    0.44444444    0.29878049 T T T
    0.77777778    0.44444444    0.29878049 T T T
    0.11111111    0.77777778    0.29878049 T T T
    0.44444444    0.77777778    0.29878049 T T T
    0.77777778    0.77777778    0.29878049 T T T
    0.00000000    0.00000000    0.30487805 T T T
    0.33333333    0.00000000    0.30487805 T T T
    0.66666667    0.00000000    0.30487805 T T T
    0.00000000    0.33333333    0.30487805 T T T
    0.33333333    0.33333333    0.30487805 T T T
    0.66666667    0.33333333    0.30487805 T T T
    0.00000000    0.66666667    0.30487805 T T T
    0.33333333    0.66666667    0.30487805 T T T
    0.66666667    0.66666667    0.30487805 T T T
    0.22222222    0.22222222    0.31097561 T T T
    0.55555556    0.22222222    0.31097561 T T T
    0.88888889    0.22222222    0.31097561 T T T
    0.22222222    0.55555556    0.31097561 T T T
    0.55555556    0.55555556    0.31097561 T T T
    0.88888889    0.55555556    0.31097561 T T T
    0.22222222    0.88888889    0.31097561 T T T
    0.55555556    0.88888889    0.31097561 T T T
    0.88888889    0.88888889    0.31097561 T T T
    0.11111111    0.11111111    0.31707317 T T T
    0.44444444    0.11111111    0.31707317 T T T
    0.77777778    0.11111111    0.31707317 T T T
    0.11111111    0.44444444    0.31707317 T T T
    0.44444444    0.44444444    0.31707317 T T T
    0.77777778    0.44444444    0.31707317 T T T
    0.11111111    0.77777778    0.31707317 T T T
    0.44444444    0.77777778    0.31707317 T T T
    0.77777778    0.77777778    0.31707317 T T T
    0.00000000    0.00000000    0.32317073 T T T
    0.33333333    0.00000000    0.32317073 T T T
    0.66666667    0.00000000    0.32317073 T T T
    0.00000000    0.33333333    0.32317073 T T T
    0.33333333    0.33333333    0.32317073 T T T
    0.66666667    0.33333333    0.32317073 T T T
    0.00000000    0.66666667    0.32317073 T T T
    0.33333333    0.66666667    0.32317073 T T T
    0.66666667    0.66666667    0.32317073 T T T
    0.22222222    0.22222222    0.32926829 T T T
    0.55555556    0.22222222    0.32926829 T T T
    0.88888889    0.22222222    0.32926829 T T T
    0.22222222    0.55555556    0.32926829 T T T
    0.55555556    0.55555556    0.32926829 T T T
    0.88888889    0.55555556    0.32926829 T T T
    0.22222222    0.88888889    0.32926829 T T T
    0.55555556    0.88888889    0.32926829 T T T
    0.88888889    0.88888889    0.32926829 T T T
    0.11111111    0.11111111    0.33536585 T T T
    0.44444444    0.11111111    0.33536585 T T T
    0.77777778    0.11111111    0.33536585 T T T
    0.11111111    0.44444444    0.33536585 T T T
    0.44444444    0.44444444    0.33536585 T T T
    0.77777778    0.44444444    0.33536585 T T T
    0.11111111    0.77777778    0.33536585 T T T
    0.44444444    0.77777778    0.33536585 T T T
    0.77777778    0.77777778    0.33536585 T T T
    0.00000000    0.00000000    0.34146341 T T T
    0.33333333    0.00000000    0.34146341 T T T
    0.66666667    0.00000000    0.34146341 T T T
    0.00000000    0.33333333    0.34146341 T T T
    0.33333333    0.33333333    0.34146341 T T T
    0.66666667    0.33333333    0.34146341 T T T
    0.00000000    0.66666667    0.34146341 T T T
    0.33333333    0.66666667    0.34146341 T T T
    0.66666667    0.66666667    0.34146341 T T T
    0.22222222    0.22222222    0.34756098 T T T
    0.55555556    0.22222222    0.34756098 T T T
    0.88888889    0.22222222    0.34756098 T T T
    0.22222222    0.55555556    0.34756098 T T T
    0.55555556    0.55555556    0.34756098 T T T
    0.88888889    0.55555556    0.34756098 T T T
    0.22222222    0.88888889    0.34756098 T T T
    0.55555556    0.88888889    0.34756098 T T T
    0.88888889    0.88888889    0.34756098 T T T
    0.11111111    0.11111111    0.35365854 T T T
    0.44444444    0.11111111    0.35365854 T T T
    0.77777778    0.11111111    0.35365854 T T T
    0.11111111    0.44444444    0.35365854 T T T
    0.44444444    0.44444444    0.35365854 T T T
    0.77777778    0.44444444    0.35365854 T T T
    0.11111111    0.77777778    0.35365854 T T T
    0.44444444    0.77777778    0.35365854 T T T
    0.77777778    0.77777778    0.35365854 T T T
    0.00000000    0.00000000    0.35975610 T T T
    0.33333333    0.00000000    0.35975610 T T T
    0.66666667    0.00000000    0.35975610 T T T
    0.00000000    0.33333333    0.35975610 T T T
    0.33333333    0.33333333    0.35975610 T T T
    0.66666667    0.33333333    0.35975610 T T T
    0.00000000    0.66666667    0.35975610 T T T
    0.33333333    0.66666667    0.35975610 T T T
    0.66666667    0.66666667    0.35975610 T T T
    0.22222222    0.22222222    0.36585366 T T T
    0.55555556    0.22222222    0.36585366 T T T
    0.88888889    0.22222222    0.36585366 T T T
    0.22222222    0.55555556    0.36585366 T T T
    0.55555556    0.55555556    0.36585366 T T T
    0.88888889    0.55555556    0.36585366 T T T
    0.22222222    0.88888889    0.36585366 T T T
    0.55555556    0.88888889    0.36585366 T T T
    0.88888889    0.88888889    0.36585366 T T T
    0.11111111    0.11111111    0.37195122 T T T
    0.44444444    0.11111111    0.37195122 T T T
    0.77777778    0.11111111    0.37195122 T T T
    0.11111111    0.44444444    0.37195122 T T T
    0.44444444    0.44444444    0.37195122 T T T
    0.77777778    0.44444444    0.37195122 T T T
    0.11111111    0.77777778    0.37195122 T T T
    0.44444444    0.77777778    0.37195122 T T T
    0.77777778    0.77777778    0.37195122 T T T
    0.00000000    0.00000000    0.37804878 T T T
    0.33333333    0.00000000    0.37804878 T T T
    0.66666667    0.00000000    0.37804878 T T T
    0.00000000    0.33333333    0.37804878 T T T
    0.33333333    0.33333333    0.37804878 T T T
    0.66666667    0.33333333    0.37804878 T T T
    0.00000000    0.66666667    0.37804878 T T T
    0.33333333    0.66666667    0.37804878 T T T
    0.66666667    0.66666667    0.37804878 T T T
    0.22222222    0.22222222    0.38414634 T T T
    0.55555556    0.22222222    0.38414634 T T T
    0.88888889    0.22222222    0.38414634 T T T
    0.22222222    0.55555556    0.38414634 T T T
    0.55555556    0.55555556    0.38414634 T T T
    0.88888889    0.55555556    0.38414634 T T T
    0.22222222    0.88888889    0.38414634 T T T
    0.55555556    0.88888889    0.38414634 T T T
    0.88888889    0.88888889    0.38414634 T T T
    0.11111111    0.11111111    0.39024390 T T T
    0.44444444    0.11111111    0.39024390 T T T
    0.77777778    0.11111111    0.39024390 T T T
    0.11111111    0.44444444    0.39024390 T T T
    0.44444444    0.44444444    0.39024390 T T T
    0.77777778    0.44444444    0.39024390 T T T
    0.11111111    0.77777778    0.39024390 T T T
    0.44444444    0.77777778    0.39024390 T T T
    0.77777778    0.77777778    0.39024390 T T T
    0.00000000    0.00000000    0.39634146 T T T
    0.33333333    0.00000000    0.39634146 T T T
    0.66666667    0.00000000    0.39634146 T T T
    0.00000000    0.33333333    0.39634146 T T T
    0.33333333    0.33333333    0.39634146 T T T
    0.66666667    0.33333333    0.39634146 T T T
    0.00000000    0.66666667    0.39634146 T T T
    0.33333333    0.66666667    0.39634146 T T T
    0.66666667    0.66666667    0.39634146 T T T
    0.22222222    0.22222222    0.40243902 T T T
    0.55555556    0.22222222    0.40243902 T T T
    0.88888889    0.22222222    0.40243902 T T T
    0.22222222    0.55555556    0.40243902 T T T
    0.55555556    0.55555556    0.40243902 T T T
    0.88888889    0.55555556    0.40243902 T T T
    0.22222222    0.88888889    0.40243902 T T T
    0.55555556    0.88888889    0.40243902 T T T
    0.88888889    0.88888889    0.40243902 T T T
    0.11111111    0.11111111    0.40853659 T T T
    0.44444444    0.11111111    0.40853659 T T T
    0.77777778    0.11111111    0.40853659 T T T
    0.11111111    0.44444444    0.40853659 T T T
    0.44444444    0.44444444    0.40853659 T T T
    0.77777778    0.44444444    0.40853659 T T T
    0.11111111    0.77777778    0.40853659 T T T
    0.44444444    0.77777778    0.40853659 T T T
    0.77777778    0.77777778    0.40853659 T T T
    0.00000000    0.00000000    0.41463415 T T T
    0.33333333    0.00000000    0.41463415 T T T
    0.66666667    0.00000000    0.41463415 T T T
    0.00000000    0.33333333    0.41463415 T T T
    0.33333333    0.33333333    0.41463415 T T T
    0.66666667    0.33333333    0.41463415 T T T
    0.00000000    0.66666667    0.41463415 T T T
    0.33333333    0.66666667    0.41463415 T T T
    0.66666667    0.66666667    0.41463415 T T T
    0.22222222    0.22222222    0.42073171 T T T
    0.55555556    0.22222222    0.42073171 T T T
    0.88888889    0.22222222    0.42073171 T T T
    0.22222222    0.55555556    0.42073171 T T T
    0.55555556    0.55555556    0.42073171 T T T
    0.88888889    0.55555556    0.42073171 T T T
    0.22222222    0.88888889    0.42073171 T T T
    0.55555556    0.88888889    0.42073171 T T T
    0.88888889    0.88888889    0.42073171 T T T
    0.11111111    0.11111111    0.42682927 T T T
    0.44444444    0.11111111    0.42682927 T T T
    0.77777778    0.11111111    0.42682927 T T T
    0.11111111    0.44444444    0.42682927 T T T
    0.44444444    0.44444444    0.42682927 T T T
    0.77777778    0.44444444    0.42682927 T T T
    0.11111111    0.77777778    0.42682927 T T T
    0.44444444    0.77777778    0.42682927 T T T
    0.77777778    0.77777778    0.42682927 T T T
    0.00000000    0.00000000    0.43292683 T T T
    0.33333333    0.00000000    0.43292683 T T T
    0.66666667    0.00000000    0.43292683 T T T
    0.00000000    0.33333333    0.43292683 T T T
    0.33333333    0.33333333    0.43292683 T T T
    0.66666667    0.33333333    0.43292683 T T T
    0.00000000    0.66666667    0.43292683 T T T
    0.33333333    0.66666667    0.43292683 T T T
    0.66666667    0.66666667    0.43292683 T T T
    0.22222222    0.22222222    0.43902439 T T T
    0.55555556    0.22222222    0.43902439 T T T
    0.88888889    0.22222222    0.43902439 T T T
    0.22222222    0.55555556    0.43902439 T T T
    0.55555556    0.55555556    0.43902439 T T T
    0.88888889    0.55555556    0.43902439 T T T
    0.22222222    0.88888889    0.43902439 T T T
    0.55555556    0.88888889    0.43902439 T T T
    0.88888889    0.88888889    0.43902439 T T T
    0.11111111    0.11111111    0.44512195 T T T
    0.44444444    0.11111111    0.44512195 T T T
    0.77777778    0.11111111    0.44512195 T T T
    0.11111111    0.44444444    0.44512195 T T T
    0.44444444    0.44444444    0.44512195 T T T
    0.77777778    0.44444444    0.44512195 T T T
    0.11111111    0.77777778    0.44512195 T T T
    0.44444444    0.77777778    0.44512195 T T T
    0.77777778    0.77777778    0.44512195 T T T
    0.00000000    0.00000000    0.45121951 T T T
    0.33333333    0.00000000    0.45121951 T T T
    0.66666667    0.00000000    0.45121951 T T T
    0.00000000    0.33333333    0.45121951 T T T
    0.33333333    0.33333333    0.45121951 T T T
    0.66666667    0.33333333    0.45121951 T T T
    0.00000000    0.66666667    0.45121951 T T T
    0.33333333    0.66666667    0.45121951 T T T
    0.66666667    0.66666667    0.45121951 T T T
    0.22222222    0.22222222    0.45731707 T T T
    0.55555556    0.22222222    0.45731707 T T T
    0.88888889    0.22222222    0.45731707 T T T
    0.22222222    0.55555556    0.45731707 T T T
    0.55555556    0.55555556    0.45731707 T T T
    0.88888889    0.55555556    0.45731707 T T T
    0.22222222    0.88888889    0.45731707 T T T
    0.55555556    0.88888889    0.45731707 T T T
    0.88888889    0.88888889    0.45731707 T T T
    0.11111111    0.11111111    0.46341463 T T T
    0.44444444    0.11111111    0.46341463 T T T
    0.77777778    0.11111111    0.46341463 T T T
    0.11111111    0.44444444    0.46341463 T T T
    0.44444444    0.44444444    0.46341463 T T T
    0.77777778    0.44444444    0.46341463 T T T
    0.11111111    0.77777778    0.46341463 T T T
    0.44444444    0.77777778    0.46341463 T T T
    0.77777778    0.77777778    0.46341463 T T T
    0.00000000    0.00000000    0.46951220 T T T
    0.33333333    0.00000000    0.46951220 T T T
    0.66666667    0.00000000    0.46951220 T T T
    0.00000000    0.33333333    0.46951220 T T T
    0.33333333    0.33333333    0.46951220 T T T
    0.66666667    0.33333333    0.46951220 T T T
    0.00000000    0.66666667    0.46951220 T T T
    0.33333333    0.66666667    0.46951220 T T T
    0.66666667    0.66666667    0.46951220 T T T
    0.22222222    0.22222222    0.47560976 T T T
    0.55555556    0.22222222    0.47560976 T T T
    0.88888889    0.22222222    0.47560976 T T T
    0.22222222    0.55555556    0.47560976 T T T
    0.55555556    0.55555556    0.47560976 T T T
    0.88888889    0.55555556    0.47560976 T T T
    0.22222222    0.88888889    0.47560976 T T T
    0.55555556    0.88888889    0.47560976 T T T
    0.88888889    0.88888889    0.47560976 T T T
    0.11111111    0.11111111    0.48170732 T T T
    0.44444444    0.11111111    0.48170732 T T T
    0.77777778    0.11111111    0.48170732 T T T
    0.11111111    0.44444444    0.48170732 T T T
    0.44444444    0.44444444    0.48170732 T T T
    0.77777778    0.44444444    0.48170732 T T T
    0.11111111    0.77777778    0.48170732 T T T
    0.44444444    0.77777778    0.48170732 T T T
    0.77777778    0.77777778    0.48170732 T T T
    0.00000000    0.00000000    0.48780488 T T T
    0.33333333    0.00000000    0.48780488 T T T
    0.66666667    0.00000000    0.48780488 T T T
    0.00000000    0.33333333    0.48780488 T T T
    0.33333333    0.33333333    0.48780488 T T T
    0.66666667    0.33333333    0.48780488 T T T
    0.00000000    0.66666667    0.48780488 T T T
    0.33333333    0.66666667    0.48780488 T T T
    0.66666667    0.66666667    0.48780488 T T T
    0.22222222    0.22222222    0.49390244 T T T
    0.55555556    0.22222222    0.49390244 T T T
    0.88888889    0.22222222    0.49390244 T T T
    0.22222222    0.55555556    0.49390244 T T T
    0.55555556    0.55555556    0.49390244 T T T
    0.88888889    0.55555556    0.49390244 T T T
    0.22222222    0.88888889    0.49390244 T T T
    0.55555556    0.88888889    0.49390244 T T T
    0.88888889    0.88888889    0.49390244 T T T
    0.00000000    0.00000000    0.50000000 T T T
    0.33333333    0.00000000    0.50000000 T T T
    0.66666667    0.00000000    0.50000000 T T T
    0.00000000    0.33333333    0.50000000 T T T
    0.33333333    0.33333333    0.50000000 T T T
    0.66666667    0.33333333    0.50000000 T T T
    0.00000000    0.66666667    0.50000000 T T T
    0.33333333    0.66666667    0.50000000 T T T
    0.66666667    0.66666667    0.50000000 T T T
    0.11111111    0.11111111    0.50609756 T T T
    0.44444444    0.11111111    0.50609756 T T T
    0.77777778    0.11111111    0.50609756 T T T
    0.11111111    0.44444444    0.50609756 T T T
    0.44444444    0.44444444    0.50609756 T T T
    0.77777778    0.44444444    0.50609756 T T T
    0.11111111    0.77777778    0.50609756 T T T
    0.44444444    0.77777778    0.50609756 T T T
    0.77777778    0.77777778    0.50609756 T T T
    0.22222222    0.22222222    0.51219512 T T T
    0.55555556    0.22222222    0.51219512 T T T
    0.88888889    0.22222222    0.51219512 T T T
    0.22222222    0.55555556    0.51219512 T T T
    0.55555556    0.55555556    0.51219512 T T T
    0.88888889    0.55555556    0.51219512 T T T
    0.22222222    0.88888889    0.51219512 T T T
    0.55555556    0.88888889    0.51219512 T T T
    0.88888889    0.88888889    0.51219512 T T T
    0.00000000    0.00000000    0.51829268 T T T
    0.33333333    0.00000000    0.51829268 T T T
    0.66666667    0.00000000    0.51829268 T T T
    0.00000000    0.33333333    0.51829268 T T T
    0.33333333    0.33333333    0.51829268 T T T
    0.66666667    0.33333333    0.51829268 T T T
    0.00000000    0.66666667    0.51829268 T T T
    0.33333333    0.66666667    0.51829268 T T T
    0.66666667    0.66666667    0.51829268 T T T
    0.11111111    0.11111111    0.52439024 T T T
    0.44444444    0.11111111    0.52439024 T T T
    0.77777778    0.11111111    0.52439024 T T T
    0.11111111    0.44444444    0.52439024 T T T
    0.44444444    0.44444444    0.52439024 T T T
    0.77777778    0.44444444    0.52439024 T T T
    0.11111111    0.77777778    0.52439024 T T T
    0.44444444    0.77777778    0.52439024 T T T
    0.77777778    0.77777778    0.52439024 T T T
    0.22222222    0.22222222    0.53048780 T T T
    0.55555556    0.22222222    0.53048780 T T T
    0.88888889    0.22222222    0.53048780 T T T
    0.22222222    0.55555556    0.53048780 T T T
    0.55555556    0.55555556    0.53048780 T T T
    0.88888889    0.55555556    0.53048780 T T T
    0.22222222    0.88888889    0.53048780 T T T
    0.55555556    0.88888889    0.53048780 T T T
    0.88888889    0.88888889    0.53048780 T T T
    0.00000000    0.00000000    0.53658537 T T T
    0.33333333    0.00000000    0.53658537 T T T
    0.66666667    0.00000000    0.53658537 T T T
    0.00000000    0.33333333    0.53658537 T T T
    0.33333333    0.33333333    0.53658537 T T T
    0.66666667    0.33333333    0.53658537 T T T
    0.00000000    0.66666667    0.53658537 T T T
    0.33333333    0.66666667    0.53658537 T T T
    0.66666667    0.66666667    0.53658537 T T T
    0.11111111    0.11111111    0.54268293 T T T
    0.44444444    0.11111111    0.54268293 T T T
    0.77777778    0.11111111    0.54268293 T T T
    0.11111111    0.44444444    0.54268293 T T T
    0.44444444    0.44444444    0.54268293 T T T
    0.77777778    0.44444444    0.54268293 T T T
    0.11111111    0.77777778    0.54268293 T T T
    0.44444444    0.77777778    0.54268293 T T T
    0.77777778    0.77777778    0.54268293 T T T
    0.22222222    0.22222222    0.54878049 T T T
    0.55555556    0.22222222    0.54878049 T T T
    0.88888889    0.22222222    0.54878049 T T T
    0.22222222    0.55555556    0.54878049 T T T
    0.55555556    0.55555556    0.54878049 T T T
    0.88888889    0.55555556    0.54878049 T T T
    0.22222222    0.88888889    0.54878049 T T T
    0.55555556    0.88888889    0.54878049 T T T
    0.88888889    0.88888889    0.54878049 T T T
    0.00000000    0.00000000    0.55487805 T T T
    0.33333333    0.00000000    0.55487805 T T T
    0.66666667    0.00000000    0.55487805 T T T
    0.00000000    0.33333333    0.55487805 T T T
    0.33333333    0.33333333    0.55487805 T T T
    0.66666667    0.33333333    0.55487805 T T T
    0.00000000    0.66666667    0.55487805 T T T
    0.33333333    0.66666667    0.55487805 T T T
    0.66666667    0.66666667    0.55487805 T T T
    0.11111111    0.11111111    0.56097561 T T T
    0.44444444    0.11111111    0.56097561 T T T
    0.77777778    0.11111111    0.56097561 T T T
    0.11111111    0.44444444    0.56097561 T T T
    0.44444444    0.44444444    0.56097561 T T T
    0.77777778    0.44444444    0.56097561 T T T
    0.11111111    0.77777778    0.56097561 T T T
    0.44444444    0.77777778    0.56097561 T T T
    0.77777778    0.77777778    0.56097561 T T T
    0.22222222    0.22222222    0.56707317 T T T
    0.55555556    0.22222222    0.56707317 T T T
    0.88888889    0.22222222    0.56707317 T T T
    0.22222222    0.55555556    0.56707317 T T T
    0.55555556    0.55555556    0.56707317 T T T
    0.88888889    0.55555556    0.56707317 T T T
    0.22222222    0.88888889    0.56707317 T T T
    0.55555556    0.88888889    0.56707317 T T T
    0.88888889    0.88888889    0.56707317 T T T
    0.00000000    0.00000000    0.57317073 T T T
    0.33333333    0.00000000    0.57317073 T T T
    0.66666667    0.00000000    0.57317073 T T T
    0.00000000    0.33333333    0.57317073 T T T
    0.33333333    0.33333333    0.57317073 T T T
    0.66666667    0.33333333    0.57317073 T T T
    0.00000000    0.66666667    0.57317073 T T T
    0.33333333    0.66666667    0.57317073 T T T
    0.66666667    0.66666667    0.57317073 T T T
    0.11111111    0.11111111    0.57926829 T T T
    0.44444444    0.11111111    0.57926829 T T T
    0.77777778    0.11111111    0.57926829 T T T
    0.11111111    0.44444444    0.57926829 T T T
    0.44444444    0.44444444    0.57926829 T T T
    0.77777778    0.44444444    0.57926829 T T T
    0.11111111    0.77777778    0.57926829 T T T
    0.44444444    0.77777778    0.57926829 T T T
    0.77777778    0.77777778    0.57926829 T T T
    0.22222222    0.22222222    0.58536585 T T T
    0.55555556    0.22222222    0.58536585 T T T
    0.88888889    0.22222222    0.58536585 T T T
    0.22222222    0.55555556    0.58536585 T T T
    0.55555556    0.55555556    0.58536585 T T T
    0.88888889    0.55555556    0.58536585 T T T
    0.22222222    0.88888889    0.58536585 T T T
    0.55555556    0.88888889    0.58536585 T T T
    0.88888889    0.88888889    0.58536585 T T T
    0.00000000    0.00000000    0.59146341 T T T
    0.33333333    0.00000000    0.59146341 T T T
    0.66666667    0.00000000    0.59146341 T T T
    0.00000000    0.33333333    0.59146341 T T T
    0.33333333    0.33333333    0.59146341 T T T
    0.66666667    0.33333333    0.59146341 T T T
    0.00000000    0.66666667    0.59146341 T T T
    0.33333333    0.66666667    0.59146341 T T T
    0.66666667    0.66666667    0.59146341 T T T
    0.11111111    0.11111111    0.59756098 T T T
    0.44444444    0.11111111    0.59756098 T T T
    0.77777778    0.11111111    0.59756098 T T T
    0.11111111    0.44444444    0.59756098 T T T
    0.44444444    0.44444444    0.59756098 T T T
    0.77777778    0.44444444    0.59756098 T T T
    0.11111111    0.77777778    0.59756098 T T T
    0.44444444    0.77777778    0.59756098 T T T
    0.77777778    0.77777778    0.59756098 T T T
    0.22222222    0.22222222    0.60365854 T T T
    0.55555556    0.22222222    0.60365854 T T T
    0.88888889    0.22222222    0.60365854 T T T
    0.22222222    0.55555556    0.60365854 T T T
    0.55555556    0.55555556    0.60365854 T T T
    0.88888889    0.55555556    0.60365854 T T T
    0.22222222    0.88888889    0.60365854 T T T
    0.55555556    0.88888889    0.60365854 T T T
    0.88888889    0.88888889    0.60365854 T T T
    0.00000000    0.00000000    0.60975610 T T T
    0.33333333    0.00000000    0.60975610 T T T
    0.66666667    0.00000000    0.60975610 T T T
    0.00000000    0.33333333    0.60975610 T T T
    0.33333333    0.33333333    0.60975610 T T T
    0.66666667    0.33333333    0.60975610 T T T
    0.00000000    0.66666667    0.60975610 T T T
    0.33333333    0.66666667    0.60975610 T T T
    0.66666667    0.66666667    0.60975610 T T T
    0.11111111    0.11111111    0.61585366 T T T
    0.44444444    0.11111111    0.61585366 T T T
    0.77777778    0.11111111    0.61585366 T T T
    0.11111111    0.44444444    0.61585366 T T T
    0.44444444    0.44444444    0.61585366 T T T
    0.77777778    0.44444444    0.61585366 T T T
    0.11111111    0.77777778    0.61585366 T T T
    0.44444444    0.77777778    0.61585366 T T T
    0.77777778    0.77777778    0.61585366 T T T
    0.22222222    0.22222222    0.62195122 T T T
    0.55555556    0.22222222    0.62195122 T T T
    0.88888889    0.22222222    0.62195122 T T T
    0.22222222    0.55555556    0.62195122 T T T
    0.55555556    0.55555556    0.62195122 T T T
    0.88888889    0.55555556    0.62195122 T T T
    0.22222222    0.88888889    0.62195122 T T T
    0.55555556    0.88888889    0.62195122 T T T
    0.88888889    0.88888889    0.62195122 T T T
    0.00000000    0.00000000    0.62804878 T T T
    0.33333333    0.00000000    0.62804878 T T T
    0.66666667    0.00000000    0.62804878 T T T
    0.00000000    0.33333333    0.62804878 T T T
    0.33333333    0.33333333    0.62804878 T T T
    0.66666667    0.33333333    0.62804878 T T T
    0.00000000    0.66666667    0.62804878 T T T
    0.33333333    0.66666667    0.62804878 T T T
    0.66666667    0.66666667    0.62804878 T T T
    0.11111111    0.11111111    0.63414634 T T T
    0.44444444    0.11111111    0.63414634 T T T
    0.77777778    0.11111111    0.63414634 T T T
    0.11111111    0.44444444    0.63414634 T T T
    0.44444444    0.44444444    0.63414634 T T T
    0.77777778    0.44444444    0.63414634 T T T
    0.11111111    0.77777778    0.63414634 T T T
    0.44444444    0.77777778    0.63414634 T T T
    0.77777778    0.77777778    0.63414634 T T T
    0.22222222    0.22222222    0.64024390 T T T
    0.55555556    0.22222222    0.64024390 T T T
    0.88888889    0.22222222    0.64024390 T T T
    0.22222222    0.55555556    0.64024390 T T T
    0.55555556    0.55555556    0.64024390 T T T
    0.88888889    0.55555556    0.64024390 T T T
    0.22222222    0.88888889    0.64024390 T T T
    0.55555556    0.88888889    0.64024390 T T T
    0.88888889    0.88888889    0.64024390 T T T
    0.00000000    0.00000000    0.64634146 T T T
    0.33333333    0.00000000    0.64634146 T T T
    0.66666667    0.00000000    0.64634146 T T T
    0.00000000    0.33333333    0.64634146 T T T
    0.33333333    0.33333333    0.64634146 T T T
    0.66666667    0.33333333    0.64634146 T T T
    0.00000000    0.66666667    0.64634146 T T T
    0.33333333    0.66666667    0.64634146 T T T
    0.66666667    0.66666667    0.64634146 T T T
    0.11111111    0.11111111    0.65243902 T T T
    0.44444444    0.11111111    0.65243902 T T T
    0.77777778    0.11111111    0.65243902 T T T
    0.11111111    0.44444444    0.65243902 T T T
    0.44444444    0.44444444    0.65243902 T T T
    0.77777778    0.44444444    0.65243902 T T T
    0.11111111    0.77777778    0.65243902 T T T
    0.44444444    0.77777778    0.65243902 T T T
    0.77777778    0.77777778    0.65243902 T T T
    0.22222222    0.22222222    0.65853659 T T T
    0.55555556    0.22222222    0.65853659 T T T
    0.88888889    0.22222222    0.65853659 T T T
    0.22222222    0.55555556    0.65853659 T T T
    0.55555556    0.55555556    0.65853659 T T T
    0.88888889    0.55555556    0.65853659 T T T
    0.22222222    0.88888889    0.65853659 T T T
    0.55555556    0.88888889    0.65853659 T T T
    0.88888889    0.88888889    0.65853659 T T T
    0.00000000    0.00000000    0.66463415 T T T
    0.33333333    0.00000000    0.66463415 T T T
    0.66666667    0.00000000    0.66463415 T T T
    0.00000000    0.33333333    0.66463415 T T T
    0.33333333    0.33333333    0.66463415 T T T
    0.66666667    0.33333333    0.66463415 T T T
    0.00000000    0.66666667    0.66463415 T T T
    0.33333333    0.66666667    0.66463415 T T T
    0.66666667    0.66666667    0.66463415 T T T
    0.11111111    0.11111111    0.67073171 T T T
    0.44444444    0.11111111    0.67073171 T T T
    0.77777778    0.11111111    0.67073171 T T T
    0.11111111    0.44444444    0.67073171 T T T
    0.44444444    0.44444444    0.67073171 T T T
    0.77777778    0.44444444    0.67073171 T T T
    0.11111111    0.77777778    0.67073171 T T T
    0.44444444    0.77777778    0.67073171 T T T
    0.77777778    0.77777778    0.67073171 T T T
    0.22222222    0.22222222    0.67682927 T T T
    0.55555556    0.22222222    0.67682927 T T T
    0.88888889    0.22222222    0.67682927 T T T
    0.22222222    0.55555556    0.67682927 T T T
    0.55555556    0.55555556    0.67682927 T T T
    0.88888889    0.55555556    0.67682927 T T T
    0.22222222    0.88888889    0.67682927 T T T
    0.55555556    0.88888889    0.67682927 T T T
    0.88888889    0.88888889    0.67682927 T T T
    0.00000000    0.00000000    0.68292683 T T T
    0.33333333    0.00000000    0.68292683 T T T
    0.66666667    0.00000000    0.68292683 T T T
    0.00000000    0.33333333    0.68292683 T T T
    0.33333333    0.33333333    0.68292683 T T T
    0.66666667    0.33333333    0.68292683 T T T
    0.00000000    0.66666667    0.68292683 T T T
    0.33333333    0.66666667    0.68292683 T T T
    0.66666667    0.66666667    0.68292683 T T T
    0.11111111    0.11111111    0.68902439 T T T
    0.44444444    0.11111111    0.68902439 T T T
    0.77777778    0.11111111    0.68902439 T T T
    0.11111111    0.44444444    0.68902439 T T T
    0.44444444    0.44444444    0.68902439 T T T
    0.77777778    0.44444444    0.68902439 T T T
    0.11111111    0.77777778    0.68902439 T T T
    0.44444444    0.77777778    0.68902439 T T T
    0.77777778    0.77777778    0.68902439 T T T
    0.22222222    0.22222222    0.69512195 T T T
    0.55555556    0.22222222    0.69512195 T T T
    0.88888889    0.22222222    0.69512195 T T T
    0.22222222    0.55555556    0.69512195 T T T
    0.55555556    0.55555556    0.69512195 T T T
    0.88888889    0.55555556    0.69512195 T T T
    0.22222222    0.88888889    0.69512195 T T T
    0.55555556    0.88888889    0.69512195 T T T
    0.88888889    0.88888889    0.69512195 T T T
    0.00000000    0.00000000    0.70121951 T T T
    0.33333333    0.00000000    0.70121951 T T T
    0.66666667    0.00000000    0.70121951 T T T
    0.00000000    0.33333333    0.70121951 T T T
    0.33333333    0.33333333    0.70121951 T T T
    0.66666667    0.33333333    0.70121951 T T T
    0.00000000    0.66666667    0.70121951 T T T
    0.33333333    0.66666667    0.70121951 T T T
    0.66666667    0.66666667    0.70121951 T T T
    0.11111111    0.11111111    0.70731707 T T T
    0.44444444    0.11111111    0.70731707 T T T
    0.77777778    0.11111111    0.70731707 T T T
    0.11111111    0.44444444    0.70731707 T T T
    0.44444444    0.44444444    0.70731707 T T T
    0.77777778    0.44444444    0.70731707 T T T
    0.11111111    0.77777778    0.70731707 T T T
    0.44444444    0.77777778    0.70731707 T T T
    0.77777778    0.77777778    0.70731707 T T T
    0.22222222    0.22222222    0.71341463 T T T
    0.55555556    0.22222222    0.71341463 T T T
    0.88888889    0.22222222    0.71341463 T T T
    0.22222222    0.55555556    0.71341463 T T T
    0.55555556    0.55555556    0.71341463 T T T
    0.88888889    0.55555556    0.71341463 T T T
    0.22222222    0.88888889    0.71341463 T T T
    0.55555556    0.88888889    0.71341463 T T T
    0.88888889    0.88888889    0.71341463 T T T
    0.00000000    0.00000000    0.71951220 T T T
    0.33333333    0.00000000    0.71951220 T T T
    0.66666667    0.00000000    0.71951220 T T T
    0.00000000    0.33333333    0.71951220 T T T
    0.33333333    0.33333333    0.71951220 T T T
    0.66666667    0.33333333    0.71951220 T T T
    0.00000000    0.66666667    0.71951220 T T T
    0.33333333    0.66666667    0.71951220 T T T
    0.66666667    0.66666667    0.71951220 T T T
    0.11111111    0.11111111    0.72560976 T T T
    0.44444444    0.11111111    0.72560976 T T T
    0.77777778    0.11111111    0.72560976 T T T
    0.11111111    0.44444444    0.72560976 T T T
    0.44444444    0.44444444    0.72560976 T T T
    0.77777778    0.44444444    0.72560976 T T T
    0.11111111    0.77777778    0.72560976 T T T
    0.44444444    0.77777778    0.72560976 T T T
    0.77777778    0.77777778    0.72560976 T T T
    0.22222222    0.22222222    0.73170732 T T T
    0.55555556    0.22222222    0.73170732 T T T
    0.88888889    0.22222222    0.73170732 T T T
    0.22222222    0.55555556    0.73170732 T T T
    0.55555556    0.55555556    0.73170732 T T T
    0.88888889    0.55555556    0.73170732 T T T
    0.22222222    0.88888889    0.73170732 T T T
    0.55555556    0.88888889    0.73170732 T T T
    0.88888889    0.88888889    0.73170732 T T T
    0.00000000    0.00000000    0.73780488 T T T
    0.33333333    0.00000000    0.73780488 T T T
    0.66666667    0.00000000    0.73780488 T T T
    0.00000000    0.33333333    0.73780488 T T T
    0.33333333    0.33333333    0.73780488 T T T
    0.66666667    0.33333333    0.73780488 T T T
    0.00000000    0.66666667    0.73780488 T T T
    0.33333333    0.66666667    0.73780488 T T T
    0.66666667    0.66666667    0.73780488 T T T
    0.11111111    0.11111111    0.74390244 T T T
    0.44444444    0.11111111    0.74390244 T T T
    0.77777778    0.11111111    0.74390244 T T T
    0.11111111    0.44444444    0.74390244 T T T
    0.44444444    0.44444444    0.74390244 T T T
    0.77777778    0.44444444    0.74390244 T T T
    0.11111111    0.77777778    0.74390244 T T T
    0.44444444    0.77777778    0.74390244 T T T
    0.77777778    0.77777778    0.74390244 T T T
    0.00000000    0.00000000    0.75000000 T T T
    0.33333333    0.00000000    0.75000000 T T T
    0.66666667    0.00000000    0.75000000 T T T
    0.00000000    0.33333333    0.75000000 T T T
    0.33333333    0.33333333    0.75000000 T T T
    0.66666667    0.33333333    0.75000000 T T T
    0.00000000    0.66666667    0.75000000 T T T
    0.33333333    0.66666667    0.75000000 T T T
    0.66666667    0.66666667    0.75000000 T T T
    0.22222222    0.22222222    0.75609756 T T T
    0.55555556    0.22222222    0.75609756 T T T
    0.88888889    0.22222222    0.75609756 T T T
    0.22222222    0.55555556    0.75609756 T T T
    0.55555556    0.55555556    0.75609756 T T T
    0.88888889    0.55555556    0.75609756 T T T
    0.22222222    0.88888889    0.75609756 T T T
    0.55555556    0.88888889    0.75609756 T T T
    0.88888889    0.88888889    0.75609756 T T T
    0.11111111    0.11111111    0.76219512 T T T
    0.44444444    0.11111111    0.76219512 T T T
    0.77777778    0.11111111    0.76219512 T T T
    0.11111111    0.44444444    0.76219512 T T T
    0.44444444    0.44444444    0.76219512 T T T
    0.77777778    0.44444444    0.76219512 T T T
    0.11111111    0.77777778    0.76219512 T T T
    0.44444444    0.77777778    0.76219512 T T T
    0.77777778    0.77777778    0.76219512 T T T
    0.00000000    0.00000000    0.76829268 T T T
    0.33333333    0.00000000    0.76829268 T T T
    0.66666667    0.00000000    0.76829268 T T T
    0.00000000    0.33333333    0.76829268 T T T
    0.33333333    0.33333333    0.76829268 T T T
    0.66666667    0.33333333    0.76829268 T T T
    0.00000000    0.66666667    0.76829268 T T T
    0.33333333    0.66666667    0.76829268 T T T
    0.66666667    0.66666667    0.76829268 T T T
    0.22222222    0.22222222    0.77439024 T T T
    0.55555556    0.22222222    0.77439024 T T T
    0.88888889    0.22222222    0.77439024 T T T
    0.22222222    0.55555556    0.77439024 T T T
    0.55555556    0.55555556    0.77439024 T T T
    0.88888889    0.55555556    0.77439024 T T T
    0.22222222    0.88888889    0.77439024 T T T
    0.55555556    0.88888889    0.77439024 T T T
    0.88888889    0.88888889    0.77439024 T T T
    0.11111111    0.11111111    0.78048780 T T T
    0.44444444    0.11111111    0.78048780 T T T
    0.77777778    0.11111111    0.78048780 T T T
    0.11111111    0.44444444    0.78048780 T T T
    0.44444444    0.44444444    0.78048780 T T T
    0.77777778    0.44444444    0.78048780 T T T
    0.11111111    0.77777778    0.78048780 T T T
    0.44444444    0.77777778    0.78048780 T T T
    0.77777778    0.77777778    0.78048780 T T T
    0.00000000    0.00000000    0.78658537 T T T
    0.33333333    0.00000000    0.78658537 T T T
    0.66666667    0.00000000    0.78658537 T T T
    0.00000000    0.33333333    0.78658537 T T T
    0.33333333    0.33333333    0.78658537 T T T
    0.66666667    0.33333333    0.78658537 T T T
    0.00000000    0.66666667    0.78658537 T T T
    0.33333333    0.66666667    0.78658537 T T T
    0.66666667    0.66666667    0.78658537 T T T
    0.22222222    0.22222222    0.79268293 T T T
    0.55555556    0.22222222    0.79268293 T T T
    0.88888889    0.22222222    0.79268293 T T T
    0.22222222    0.55555556    0.79268293 T T T
    0.55555556    0.55555556    0.79268293 T T T
    0.88888889    0.55555556    0.79268293 T T T
    0.22222222    0.88888889    0.79268293 T T T
    0.55555556    0.88888889    0.79268293 T T T
    0.88888889    0.88888889    0.79268293 T T T
    0.11111111    0.11111111    0.79878049 T T T
    0.44444444    0.11111111    0.79878049 T T T
    0.77777778    0.11111111    0.79878049 T T T
    0.11111111    0.44444444    0.79878049 T T T
    0.44444444    0.44444444    0.79878049 T T T
    0.77777778    0.44444444    0.79878049 T T T
    0.11111111    0.77777778    0.79878049 T T T
    0.44444444    0.77777778    0.79878049 T T T
    0.77777778    0.77777778    0.79878049 T T T
    0.00000000    0.00000000    0.80487805 T T T
    0.33333333    0.00000000    0.80487805 T T T
    0.66666667    0.00000000    0.80487805 T T T
    0.00000000    0.33333333    0.80487805 T T T
    0.33333333    0.33333333    0.80487805 T T T
    0.66666667    0.33333333    0.80487805 T T T
    0.00000000    0.66666667    0.80487805 T T T
    0.33333333    0.66666667    0.80487805 T T T
    0.66666667    0.66666667    0.80487805 T T T
    0.22222222    0.22222222    0.81097561 T T T
    0.55555556    0.22222222    0.81097561 T T T
    0.88888889    0.22222222    0.81097561 T T T
    0.22222222    0.55555556    0.81097561 T T T
    0.55555556    0.55555556    0.81097561 T T T
    0.88888889    0.55555556    0.81097561 T T T
    0.22222222    0.88888889    0.81097561 T T T
    0.55555556    0.88888889    0.81097561 T T T
    0.88888889    0.88888889    0.81097561 T T T
    0.11111111    0.11111111    0.81707317 T T T
    0.44444444    0.11111111    0.81707317 T T T
    0.77777778    0.11111111    0.81707317 T T T
    0.11111111    0.44444444    0.81707317 T T T
    0.44444444    0.44444444    0.81707317 T T T
    0.77777778    0.44444444    0.81707317 T T T
    0.11111111    0.77777778    0.81707317 T T T
    0.44444444    0.77777778    0.81707317 T T T
    0.77777778    0.77777778    0.81707317 T T T
    0.00000000    0.00000000    0.82317073 T T T
    0.33333333    0.00000000    0.82317073 T T T
    0.66666667    0.00000000    0.82317073 T T T
    0.00000000    0.33333333    0.82317073 T T T
    0.33333333    0.33333333    0.82317073 T T T
    0.66666667    0.33333333    0.82317073 T T T
    0.00000000    0.66666667    0.82317073 T T T
    0.33333333    0.66666667    0.82317073 T T T
    0.66666667    0.66666667    0.82317073 T T T
    0.22222222    0.22222222    0.82926829 T T T
    0.55555556    0.22222222    0.82926829 T T T
    0.88888889    0.22222222    0.82926829 T T T
    0.22222222    0.55555556    0.82926829 T T T
    0.55555556    0.55555556    0.82926829 T T T
    0.88888889    0.55555556    0.82926829 T T T
    0.22222222    0.88888889    0.82926829 T T T
    0.55555556    0.88888889    0.82926829 T T T
    0.88888889    0.88888889    0.82926829 T T T
    0.11111111    0.11111111    0.83536585 T T T
    0.44444444    0.11111111    0.83536585 T T T
    0.77777778    0.11111111    0.83536585 T T T
    0.11111111    0.44444444    0.83536585 T T T
    0.44444444    0.44444444    0.83536585 T T T
    0.77777778    0.44444444    0.83536585 T T T
    0.11111111    0.77777778    0.83536585 T T T
    0.44444444    0.77777778    0.83536585 T T T
    0.77777778    0.77777778    0.83536585 T T T
    0.00000000    0.00000000    0.84146341 T T T
    0.33333333    0.00000000    0.84146341 T T T
    0.66666667    0.00000000    0.84146341 T T T
    0.00000000    0.33333333    0.84146341 T T T
    0.33333333    0.33333333    0.84146341 T T T
    0.66666667    0.33333333    0.84146341 T T T
    0.00000000    0.66666667    0.84146341 T T T
    0.33333333    0.66666667    0.84146341 T T T
    0.66666667    0.66666667    0.84146341 T T T
    0.22222222    0.22222222    0.84756098 T T T
    0.55555556    0.22222222    0.84756098 T T T
    0.88888889    0.22222222    0.84756098 T T T
    0.22222222    0.55555556    0.84756098 T T T
    0.55555556    0.55555556    0.84756098 T T T
    0.88888889    0.55555556    0.84756098 T T T
    0.22222222    0.88888889    0.84756098 T T T
    0.55555556    0.88888889    0.84756098 T T T
    0.88888889    0.88888889    0.84756098 T T T
    0.11111111    0.11111111    0.85365854 T T T
    0.44444444    0.11111111    0.85365854 T T T
    0.77777778    0.11111111    0.85365854 T T T
    0.11111111    0.44444444    0.85365854 T T T
    0.44444444    0.44444444    0.85365854 T T T
    0.77777778    0.44444444    0.85365854 T T T
    0.11111111    0.77777778    0.85365854 T T T
    0.44444444    0.77777778    0.85365854 T T T
    0.77777778    0.77777778    0.85365854 T T T
    0.00000000    0.00000000    0.85975610 T T T
    0.33333333    0.00000000    0.85975610 T T T
    0.66666667    0.00000000    0.85975610 T T T
    0.00000000    0.33333333    0.85975610 T T T
    0.33333333    0.33333333    0.85975610 T T T
    0.66666667    0.33333333    0.85975610 T T T
    0.00000000    0.66666667    0.85975610 T T T
    0.33333333    0.66666667    0.85975610 T T T
    0.66666667    0.66666667    0.85975610 T T T
    0.22222222    0.22222222    0.86585366 T T T
    0.55555556    0.22222222    0.86585366 T T T
    0.88888889    0.22222222    0.86585366 T T T
    0.22222222    0.55555556    0.86585366 T T T
    0.55555556    0.55555556    0.86585366 T T T
    0.88888889    0.55555556    0.86585366 T T T
    0.22222222    0.88888889    0.86585366 T T T
    0.55555556    0.88888889    0.86585366 T T T
    0.88888889    0.88888889    0.86585366 T T T
    0.11111111    0.11111111    0.87195122 T T T
    0.44444444    0.11111111    0.87195122 T T T
    0.77777778    0.11111111    0.87195122 T T T
    0.11111111    0.44444444    0.87195122 T T T
    0.44444444    0.44444444    0.87195122 T T T
    0.77777778    0.44444444    0.87195122 T T T
    0.11111111    0.77777778    0.87195122 T T T
    0.44444444    0.77777778    0.87195122 T T T
    0.77777778    0.77777778    0.87195122 T T T
    0.00000000    0.00000000    0.87804878 T T T
    0.33333333    0.00000000    0.87804878 T T T
    0.66666667    0.00000000    0.87804878 T T T
    0.00000000    0.33333333    0.87804878 T T T
    0.33333333    0.33333333    0.87804878 T T T
    0.66666667    0.33333333    0.87804878 T T T
    0.00000000    0.66666667    0.87804878 T T T
    0.33333333    0.66666667    0.87804878 T T T
    0.66666667    0.66666667    0.87804878 T T T
    0.22222222    0.22222222    0.88414634 T T T
    0.55555556    0.22222222    0.88414634 T T T
    0.88888889    0.22222222    0.88414634 T T T
    0.22222222    0.55555556    0.88414634 T T T
    0.55555556    0.55555556    0.88414634 T T T
    0.88888889    0.55555556    0.88414634 T T T
    0.22222222    0.88888889    0.88414634 T T T
    0.55555556    0.88888889    0.88414634 T T T
    0.88888889    0.88888889    0.88414634 T T T
    0.11111111    0.11111111    0.89024390 T T T
    0.44444444    0.11111111    0.89024390 T T T
    0.77777778    0.11111111    0.89024390 T T T
    0.11111111    0.44444444    0.89024390 T T T
    0.44444444    0.44444444    0.89024390 T T T
    0.77777778    0.44444444    0.89024390 T T T
    0.11111111    0.77777778    0.89024390 T T T
    0.44444444    0.77777778    0.89024390 T T T
    0.77777778    0.77777778    0.89024390 T T T
    0.00000000    0.00000000    0.89634146 T T T
    0.33333333    0.00000000    0.89634146 T T T
    0.66666667    0.00000000    0.89634146 T T T
    0.00000000    0.33333333    0.89634146 T T T
    0.33333333    0.33333333    0.89634146 T T T
    0.66666667    0.33333333    0.89634146 T T T
    0.00000000    0.66666667    0.89634146 T T T
    0.33333333    0.66666667    0.89634146 T T T
    0.66666667    0.66666667    0.89634146 T T T
    0.22222222    0.22222222    0.90243902 T T T
    0.55555556    0.22222222    0.90243902 T T T
    0.88888889    0.22222222    0.90243902 T T T
    0.22222222    0.55555556    0.90243902 T T T
    0.55555556    0.55555556    0.90243902 T T T
    0.88888889    0.55555556    0.90243902 T T T
    0.22222222    0.88888889    0.90243902 T T T
    0.55555556    0.88888889    0.90243902 T T T
    0.88888889    0.88888889    0.90243902 T T T
    0.11111111    0.11111111    0.90853659 T T T
    0.44444444    0.11111111    0.90853659 T T T
    0.77777778    0.11111111    0.90853659 T T T
    0.11111111    0.44444444    0.90853659 T T T
    0.44444444    0.44444444    0.90853659 T T T
    0.77777778    0.44444444    0.90853659 T T T
    0.11111111    0.77777778    0.90853659 T T T
    0.44444444    0.77777778    0.90853659 T T T
    0.77777778    0.77777778    0.90853659 T T T
    0.00000000    0.00000000    0.91463415 T T T
    0.33333333    0.00000000    0.91463415 T T T
    0.66666667    0.00000000    0.91463415 T T T
    0.00000000    0.33333333    0.91463415 T T T
    0.33333333    0.33333333    0.91463415 T T T
    0.66666667    0.33333333    0.91463415 T T T
    0.00000000    0.66666667    0.91463415 T T T
    0.33333333    0.66666667    0.91463415 T T T
    0.66666667    0.66666667    0.91463415 T T T
    0.22222222    0.22222222    0.92073171 T T T
    0.55555556    0.22222222    0.92073171 T T T
    0.88888889    0.22222222    0.92073171 T T T
    0.22222222    0.55555556    0.92073171 T T T
    0.55555556    0.55555556    0.92073171 T T T
    0.88888889    0.55555556    0.92073171 T T T
    0.22222222    0.88888889    0.92073171 T T T
    0.55555556    0.88888889    0.92073171 T T T
    0.88888889    0.88888889    0.92073171 T T T
    0.11111111    0.11111111    0.92682927 T T T
    0.44444444    0.11111111    0.92682927 T T T
    0.77777778    0.11111111    0.92682927 T T T
    0.11111111    0.44444444    0.92682927 T T T
    0.44444444    0.44444444    0.92682927 T T T
    0.77777778    0.44444444    0.92682927 T T T
    0.11111111    0.77777778    0.92682927 T T T
    0.44444444    0.77777778    0.92682927 T T T
    0.77777778    0.77777778    0.92682927 T T T
    0.00000000    0.00000000    0.93292683 T T T
    0.33333333    0.00000000    0.93292683 T T T
    0.66666667    0.00000000    0.93292683 T T T
    0.00000000    0.33333333    0.93292683 T T T
    0.33333333    0.33333333    0.93292683 T T T
    0.66666667    0.33333333    0.93292683 T T T
    0.00000000    0.66666667    0.93292683 T T T
    0.33333333    0.66666667    0.93292683 T T T
    0.66666667    0.66666667    0.93292683 T T T
    0.22222222    0.22222222    0.93902439 T T T
    0.55555556    0.22222222    0.93902439 T T T
    0.88888889    0.22222222    0.93902439 T T T
    0.22222222    0.55555556    0.93902439 T T T
    0.55555556    0.55555556    0.93902439 T T T
    0.88888889    0.55555556    0.93902439 T T T
    0.22222222    0.88888889    0.93902439 T T T
    0.55555556    0.88888889    0.93902439 T T T
    0.88888889    0.88888889    0.93902439 T T T
    0.11111111    0.11111111    0.94512195 T T T
    0.44444444    0.11111111    0.94512195 T T T
    0.77777778    0.11111111    0.94512195 T T T
    0.11111111    0.44444444    0.94512195 T T T
    0.44444444    0.44444444    0.94512195 T T T
    0.77777778    0.44444444    0.94512195 T T T
    0.11111111    0.77777778    0.94512195 T T T
    0.44444444    0.77777778    0.94512195 T T T
    0.77777778    0.77777778    0.94512195 T T T
    0.00000000    0.00000000    0.95121951 T T T
    0.33333333    0.00000000    0.95121951 T T T
    0.66666667    0.00000000    0.95121951 T T T
    0.00000000    0.33333333    0.95121951 T T T
    0.33333333    0.33333333    0.95121951 T T T
    0.66666667    0.33333333    0.95121951 T T T
    0.00000000    0.66666667    0.95121951 T T T
    0.33333333    0.66666667    0.95121951 T T T
    0.66666667    0.66666667    0.95121951 T T T
    0.22222222    0.22222222    0.95731707 T T T
    0.55555556    0.22222222    0.95731707 T T T
    0.88888889    0.22222222    0.95731707 T T T
    0.22222222    0.55555556    0.95731707 T T T
    0.55555556    0.55555556    0.95731707 T T T
    0.88888889    0.55555556    0.95731707 T T T
    0.22222222    0.88888889    0.95731707 T T T
    0.55555556    0.88888889    0.95731707 T T T
    0.88888889    0.88888889    0.95731707 T T T
    0.11111111    0.11111111    0.96341463 T T T
    0.44444444    0.11111111    0.96341463 T T T
    0.77777778    0.11111111    0.96341463 T T T
    0.11111111    0.44444444    0.96341463 T T T
    0.44444444    0.44444444    0.96341463 T T T
    0.77777778    0.44444444    0.96341463 T T T
    0.11111111    0.77777778    0.96341463 T T T
    0.44444444    0.77777778    0.96341463 T T T
    0.77777778    0.77777778    0.96341463 T T T
    0.00000000    0.00000000    0.96951220 T T T
    0.33333333    0.00000000    0.96951220 T T T
    0.66666667    0.00000000    0.96951220 T T T
    0.00000000    0.33333333    0.96951220 T T T
    0.33333333    0.33333333    0.96951220 T T T
    0.66666667    0.33333333    0.96951220 T T T
    0.00000000    0.66666667    0.96951220 T T T
    0.33333333    0.66666667    0.96951220 T T T
    0.66666667    0.66666667    0.96951220 T T T
    0.22222222    0.22222222    0.97560976 T T T
    0.55555556    0.22222222    0.97560976 T T T
    0.88888889    0.22222222    0.97560976 T T T
    0.22222222    0.55555556    0.97560976 T T T
    0.55555556    0.55555556    0.97560976 T T T
    0.88888889    0.55555556    0.97560976 T T T
    0.22222222    0.88888889    0.97560976 T T T
    0.55555556    0.88888889    0.97560976 T T T
    0.88888889    0.88888889    0.97560976 T T T
    0.11111111    0.11111111    0.98170732 T T T
    0.44444444    0.11111111    0.98170732 T T T
    0.77777778    0.11111111    0.98170732 T T T
    0.11111111    0.44444444    0.98170732 T T T
    0.44444444    0.44444444    0.98170732 T T T
    0.77777778    0.44444444    0.98170732 T T T
    0.11111111    0.77777778    0.98170732 T T T
    0.44444444    0.77777778    0.98170732 T T T
    0.77777778    0.77777778    0.98170732 T T T
    0.00000000    0.00000000    0.98780488 T T T
    0.33333333    0.00000000    0.98780488 T T T
    0.66666667    0.00000000    0.98780488 T T T
    0.00000000    0.33333333    0.98780488 T T T
    0.33333333    0.33333333    0.98780488 T T T
    0.66666667    0.33333333    0.98780488 T T T
    0.00000000    0.66666667    0.98780488 T T T
    0.33333333    0.66666667    0.98780488 T T T
    0.66666667    0.66666667    0.98780488 T T T
    0.22222222    0.22222222    0.99390244 F F F
    0.55555556    0.22222222    0.99390244 F F F
    0.88888889    0.22222222    0.99390244 F F F
    0.22222222    0.55555556    0.99390244 F F F
    0.55555556    0.55555556    0.99390244 F F F
    0.88888889    0.55555556    0.99390244 F F F
    0.22222222    0.88888889    0.99390244 F F F
    0.55555556    0.88888889    0.99390244 F F F
    0.88888889    0.88888889    0.99390244 F F F
