Generated generic
1.0
   30.67429217    0.00000000    0.00000000
   15.33714608   26.56471626    0.00000000
    0.00000000    0.00000000   25.04509091
 Cu
 1496
Selective dynamics
Direct
    0.02777778    0.02777778    0.00000000 T T T
    0.11111111    0.02777778    0.00000000 T T T
    0.19444444    0.02777778    0.00000000 T T T
    0.27777778    0.02777778    0.00000000 T T T
    0.36111111    0.02777778    0.00000000 T T T
    0.44444444    0.02777778    0.00000000 T T T
    0.52777778    0.02777778    0.00000000 T T T
    0.61111111    0.02777778    0.00000000 T T T
    0.69444444    0.02777778    0.00000000 T T T
    0.77777778    0.02777778    0.00000000 T T T
    0.86111111    0.02777778    0.00000000 T T T
    0.94444444    0.02777778    0.00000000 T T T
    0.02777778    0.11111111    0.00000000 T T T
    0.11111111    0.11111111    0.00000000 T T T
    0.19444444    0.11111111    0.00000000 T T T
    0.27777778    0.11111111    0.00000000 T T T
    0.36111111    0.11111111    0.00000000 T T T
    0.44444444    0.11111111    0.00000000 T T T
    0.52777778    0.11111111    0.00000000 T T T
    0.61111111    0.11111111    0.00000000 T T T
    0.69444444    0.11111111    0.00000000 T T T
    0.77777778    0.11111111    0.00000000 T T T
    0.86111111    0.11111111    0.00000000 T T T
    0.94444444    0.11111111    0.00000000 T T T
    0.02777778    0.19444444    0.00000000 T T T
    0.11111111    0.19444444    0.00000000 T T T
    0.19444444    0.19444444    0.00000000 T T T
    0.27777778    0.19444444    0.00000000 T T T
    0.36111111    0.19444444    0.00000000 T T T
    0.44444444    0.19444444    0.00000000 T T T
    0.52777778    0.19444444    0.00000000 T T T
    0.61111111    0.19444444    0.00000000 T T T
    0.69444444    0.19444444    0.00000000 T T T
    0.77777778    0.19444444    0.00000000 T T T
    0.86111111    0.19444444    0.00000000 T T T
    0.94444444    0.19444444    0.00000000 T T T
    0.02777778    0.27777778    0.00000000 T T T
    0.11111111    0.27777778    0.00000000 T T T
    0.19444444    0.27777778    0.00000000 T T T
    0.27777778    0.27777778    0.00000000 T T T
    0.36111111    0.27777778    0.00000000 T T T
    0.44444444    0.27777778    0.00000000 T T T
    0.52777778    0.27777778    0.00000000 T T T
    0.61111111    0.27777778    0.00000000 T T T
    0.69444444    0.27777778    0.00000000 T T T
    0.77777778    0.27777778    0.00000000 T T T
    0.86111111    0.27777778    0.00000000 T T T
    0.94444444    0.27777778    0.00000000 T T T
    0.02777778    0.36111111    0.00000000 T T T
    0.11111111    0.36111111    0.00000000 T T T
    0.19444444    0.36111111    0.00000000 T T T
    0.27777778    0.36111111    0.00000000 T T T
    0.36111111    0.36111111    0.00000000 T T T
    0.44444444    0.36111111    0.00000000 T T T
    0.52777778    0.36111111    0.00000000 T T T
    0.61111111    0.36111111    0.00000000 T T T
    0.69444444    0.36111111    0.00000000 T T T
    0.77777778    0.36111111    0.00000000 T T T
    0.86111111    0.36111111    0.00000000 T T T
    0.94444444    0.36111111    0.00000000 T T T
    0.02777778    0.44444444    0.00000000 T T T
    0.11111111    0.44444444    0.00000000 T T T
    0.19444444    0.44444444    0.00000000 T T T
    0.27777778    0.44444444    0.00000000 T T T
    0.36111111    0.44444444    0.00000000 T T T
    0.44444444    0.44444444    0.00000000 T T T
    0.52777778    0.44444444    0.00000000 T T T
    0.61111111    0.44444444    0.00000000 T T T
    0.69444444    0.44444444    0.00000000 T T T
    0.77777778    0.44444444    0.00000000 T T T
    0.86111111    0.44444444    0.00000000 T T T
    0.94444444    0.44444444    0.00000000 T T T
    0.06481481    0.28703704    0.72223271 T T T
    0.09259259    0.31481481    0.63889817 T T T
    0.12037037    0.34259259    0.55556362 T T T
    0.14814815    0.37037037    0.47222908 T T T
    0.17592593    0.39814815    0.38889454 T T T
    0.20370370    0.42592593    0.30555999 T T T
    0.23148148    0.45370370    0.22222545 T T T
    0.25925926    0.48148148    0.13889091 T T T
    0.28703704    0.50925926    0.05555636 T T T
    0.31481481    0.53703704    0.97222182 T T T
    0.34259259    0.56481481    0.88888728 T T T
    0.37037037    0.59259259    0.80555273 T T T
    0.01851852    0.37962963    0.69445453 T T T
    0.04629630    0.40740741    0.61111999 T T T
    0.07407407    0.43518519    0.52778544 T T T
    0.10185185    0.46296296    0.44445090 T T T
    0.12962963    0.49074074    0.36111636 T T T
    0.15740741    0.51851852    0.27778181 T T T
    0.18518519    0.54629630    0.19444727 T T T
    0.21296296    0.57407407    0.11111272 T T T
    0.24074074    0.60185185    0.02777818 T T T
    0.26851852    0.62962963    0.94444364 T T T
    0.29629630    0.65740741    0.86110909 T T T
    0.32407407    0.68518519    0.77777455 T T T
    0.97222222    0.47222222    0.66667635 T T T
    1.00000000    0.50000000    0.58334181 T T T
    0.02777778    0.52777778    0.50000726 T T T
    0.05555556    0.55555556    0.41667272 T T T
    0.08333333    0.58333333    0.33333817 T T T
    0.11111111    0.61111111    0.25000363 T T T
    0.13888889    0.63888889    0.16666909 T T T
    0.16666667    0.66666667    0.08333454 T T T
    0.19444444    0.69444444    1.00000000 T T T
    0.22222222    0.72222222    0.91666546 T T T
    0.25000000    0.75000000    0.83333091 T T T
    0.27777778    0.77777778    0.74999637 T T T
    0.92592593    0.56481481    0.63889817 T T T
    0.95370370    0.59259259    0.55556362 T T T
    0.98148148    0.62037037    0.47222908 T T T
    0.00925926    0.64814815    0.38889454 T T T
    0.03703704    0.67592593    0.30555999 T T T
    0.06481481    0.70370370    0.22222545 T T T
    0.09259259    0.73148148    0.13889091 T T T
    0.12037037    0.75925926    0.05555636 T T T
    0.14814815    0.78703704    0.97222182 T T T
    0.17592593    0.81481481    0.88888728 T T T
    0.20370370    0.84259259    0.80555273 T T T
    0.23148148    0.87037037    0.72221819 T T T
    0.87962963    0.65740741    0.61111999 T T T
    0.90740741    0.68518519    0.52778544 T T T
    0.93518519    0.71296296    0.44445090 T T T
    0.96296296    0.74074074    0.36111636 T T T
    0.99074074    0.76851852    0.27778181 T T T
    0.01851852    0.79629630    0.19444727 T T T
    0.04629630    0.82407407    0.11111272 T T T
    0.07407407    0.85185185    0.02777818 T T T
    0.10185185    0.87962963    0.94444364 T T T
    0.12962963    0.90740741    0.86110909 T T T
    0.15740741    0.93518519    0.77777455 T T T
    0.18518519    0.96296296    0.69444001 F F F
    0.02777778    0.94444444    0.00000000 T T T
    0.11111111    0.94444444    0.00000000 T T T
    0.19444444    0.94444444    0.00000000 T T T
    0.27777778    0.94444444    0.00000000 T T T
    0.36111111    0.94444444    0.00000000 T T T
    0.44444444    0.94444444    0.00000000 T T T
    0.52777778    0.94444444    0.00000000 T T T
    0.61111111    0.94444444    0.00000000 T T T
    0.69444444    0.94444444    0.00000000 T T T
    0.77777778    0.94444444    0.00000000 T T T
    0.86111111    0.94444444    0.00000000 T T T
    0.94444444    0.94444444    0.00000000 T T T
    0.97222222    0.05555556    0.08333454 T T T
    0.05555556    0.05555556    0.08333454 T T T
    0.13888889    0.05555556    0.08333454 T T T
    0.22222222    0.05555556    0.08333454 T T T
    0.30555556    0.05555556    0.08333454 T T T
    0.38888889    0.05555556    0.08333454 T T T
    0.47222222    0.05555556    0.08333454 T T T
    0.55555556    0.05555556    0.08333454 T T T
    0.63888889    0.05555556    0.08333454 T T T
    0.72222222    0.05555556    0.08333454 T T T
    0.80555556    0.05555556    0.08333454 T T T
    0.88888889    0.05555556    0.08333454 T T T
    0.97222222    0.13888889    0.08333454 T T T
    0.05555556    0.13888889    0.08333454 T T T
    0.13888889    0.13888889    0.08333454 T T T
    0.22222222    0.13888889    0.08333454 T T T
    0.30555556    0.13888889    0.08333454 T T T
    0.38888889    0.13888889    0.08333454 T T T
    0.47222222    0.13888889    0.08333454 T T T
    0.55555556    0.13888889    0.08333454 T T T
    0.63888889    0.13888889    0.08333454 T T T
    0.72222222    0.13888889    0.08333454 T T T
    0.80555556    0.13888889    0.08333454 T T T
    0.88888889    0.13888889    0.08333454 T T T
    0.97222222    0.22222222    0.08333454 T T T
    0.05555556    0.22222222    0.08333454 T T T
    0.13888889    0.22222222    0.08333454 T T T
    0.22222222    0.22222222    0.08333454 T T T
    0.30555556    0.22222222    0.08333454 T T T
    0.38888889    0.22222222    0.08333454 T T T
    0.47222222    0.22222222    0.08333454 T T T
    0.55555556    0.22222222    0.08333454 T T T
    0.63888889    0.22222222    0.08333454 T T T
    0.72222222    0.22222222    0.08333454 T T T
    0.80555556    0.22222222    0.08333454 T T T
    0.88888889    0.22222222    0.08333454 T T T
    0.97222222    0.30555556    0.08333454 T T T
    0.05555556    0.30555556    0.08333454 T T T
    0.13888889    0.30555556    0.08333454 T T T
    0.22222222    0.30555556    0.08333454 T T T
    0.30555556    0.30555556    0.08333454 T T T
    0.38888889    0.30555556    0.08333454 T T T
    0.47222222    0.30555556    0.08333454 T T T
    0.55555556    0.30555556    0.08333454 T T T
    0.63888889    0.30555556    0.08333454 T T T
    0.72222222    0.30555556    0.08333454 T T T
    0.80555556    0.30555556    0.08333454 T T T
    0.88888889    0.30555556    0.08333454 T T T
    0.97222222    0.38888889    0.08333454 T T T
    0.05555556    0.38888889    0.08333454 T T T
    0.13888889    0.38888889    0.08333454 T T T
    0.22222222    0.38888889    0.08333454 T T T
    0.30555556    0.38888889    0.08333454 T T T
    0.38888889    0.38888889    0.08333454 T T T
    0.47222222    0.38888889    0.08333454 T T T
    0.55555556    0.38888889    0.08333454 T T T
    0.63888889    0.38888889    0.08333454 T T T
    0.72222222    0.38888889    0.08333454 T T T
    0.80555556    0.38888889    0.08333454 T T T
    0.88888889    0.38888889    0.08333454 T T T
    0.12654321    0.21913580    0.84260483 T T T
    0.15432099    0.24691358    0.75927029 T T T
    0.18209877    0.27469136    0.67593574 T T T
    0.20987654    0.30246914    0.59260120 T T T
    0.23765432    0.33024691    0.50926666 T T T
    0.26543210    0.35802469    0.42593211 T T T
    0.29320988    0.38580247    0.34259757 T T T
    0.32098765    0.41358025    0.25926302 T T T
    0.34876543    0.44135802    0.17592848 T T T
    0.37654321    0.46913580    0.09259394 T T T
    0.43209877    0.52469136    0.92592485 T T T
    0.08024691    0.31172840    0.81482665 T T T
    0.10802469    0.33950617    0.73149211 T T T
    0.13580247    0.36728395    0.64815756 T T T
    0.16358025    0.39506173    0.56482302 T T T
    0.19135802    0.42283951    0.48148847 T T T
    0.21913580    0.45061728    0.39815393 T T T
    0.24691358    0.47839506    0.31481939 T T T
    0.27469136    0.50617284    0.23148484 T T T
    0.30246914    0.53395062    0.14815030 T T T
    0.33024691    0.56172840    0.06481576 T T T
    0.35802469    0.58950617    0.98148121 T T T
    0.38580247    0.61728395    0.89814667 T T T
    0.03395062    0.40432099    0.78704847 T T T
    0.06172840    0.43209877    0.70371392 T T T
    0.08950617    0.45987654    0.62037938 T T T
    0.11728395    0.48765432    0.53704484 T T T
    0.14506173    0.51543210    0.45371029 T T T
    0.17283951    0.54320988    0.37037575 T T T
    0.20061728    0.57098765    0.28704121 T T T
    0.22839506    0.59876543    0.20370666 T T T
    0.25617284    0.62654321    0.12037212 T T T
    0.28395062    0.65432099    0.03703757 T T T
    0.31172840    0.68209877    0.95370303 T T T
    0.33950617    0.70987654    0.87036849 T T T
    0.98765432    0.49691358    0.75927029 T T T
    0.01543210    0.52469136    0.67593574 T T T
    0.04320988    0.55246914    0.59260120 T T T
    0.07098765    0.58024691    0.50926666 T T T
    0.09876543    0.60802469    0.42593211 T T T
    0.12654321    0.63580247    0.34259757 T T T
    0.15432099    0.66358025    0.25926302 T T T
    0.18209877    0.69135802    0.17592848 T T T
    0.20987654    0.71913580    0.09259394 T T T
    0.23765432    0.74691358    0.00925939 T T T
    0.26543210    0.77469136    0.92592485 T T T
    0.29320988    0.80246914    0.84259031 T T T
    0.94135802    0.58950617    0.73149211 T T T
    0.96913580    0.61728395    0.64815756 T T T
    0.99691358    0.64506173    0.56482302 T T T
    0.02469136    0.67283951    0.48148847 T T T
    0.05246914    0.70061728    0.39815393 T T T
    0.08024691    0.72839506    0.31481939 T T T
    0.10802469    0.75617284    0.23148484 T T T
    0.13580247    0.78395062    0.14815030 T T T
    0.16358025    0.81172840    0.06481576 T T T
    0.19135802    0.83950617    0.98148121 T T T
    0.21913580    0.86728395    0.89814667 T T T
    0.24691358    0.89506173    0.81481213 T T T
    0.97222222    0.88888889    0.08333454 T T T
    0.13888889    0.88888889    0.08333454 T T T
    0.22222222    0.88888889    0.08333454 T T T
    0.30555556    0.88888889    0.08333454 T T T
    0.38888889    0.88888889    0.08333454 T T T
    0.47222222    0.88888889    0.08333454 T T T
    0.55555556    0.88888889    0.08333454 T T T
    0.63888889    0.88888889    0.08333454 T T T
    0.72222222    0.88888889    0.08333454 T T T
    0.80555556    0.88888889    0.08333454 T T T
    0.88888889    0.88888889    0.08333454 T T T
    0.97222222    0.97222222    0.08333454 T T T
    0.05555556    0.97222222    0.08333454 T T T
    0.13888889    0.97222222    0.08333454 T T T
    0.22222222    0.97222222    0.08333454 T T T
    0.30555556    0.97222222    0.08333454 T T T
    0.38888889    0.97222222    0.08333454 T T T
    0.47222222    0.97222222    0.08333454 T T T
    0.55555556    0.97222222    0.08333454 T T T
    0.63888889    0.97222222    0.08333454 T T T
    0.72222222    0.97222222    0.08333454 T T T
    0.80555556    0.97222222    0.08333454 T T T
    0.88888889    0.97222222    0.08333454 T T T
    0.00000000    0.00000000    0.16666909 T T T
    0.08333333    0.00000000    0.16666909 T T T
    0.16666667    0.00000000    0.16666909 T T T
    0.25000000    0.00000000    0.16666909 T T T
    0.33333333    0.00000000    0.16666909 T T T
    0.41666667    0.00000000    0.16666909 T T T
    0.50000000    0.00000000    0.16666909 T T T
    0.58333333    0.00000000    0.16666909 T T T
    0.66666667    0.00000000    0.16666909 T T T
    0.75000000    0.00000000    0.16666909 T T T
    0.83333333    0.00000000    0.16666909 T T T
    0.91666667    0.00000000    0.16666909 T T T
    0.00000000    0.08333333    0.16666909 T T T
    0.08333333    0.08333333    0.16666909 T T T
    0.16666667    0.08333333    0.16666909 T T T
    0.25000000    0.08333333    0.16666909 T T T
    0.33333333    0.08333333    0.16666909 T T T
    0.41666667    0.08333333    0.16666909 T T T
    0.50000000    0.08333333    0.16666909 T T T
    0.58333333    0.08333333    0.16666909 T T T
    0.66666667    0.08333333    0.16666909 T T T
    0.75000000    0.08333333    0.16666909 T T T
    0.83333333    0.08333333    0.16666909 T T T
    0.91666667    0.08333333    0.16666909 T T T
    0.00000000    0.16666667    0.16666909 T T T
    0.08333333    0.16666667    0.16666909 T T T
    0.16666667    0.16666667    0.16666909 T T T
    0.25000000    0.16666667    0.16666909 T T T
    0.33333333    0.16666667    0.16666909 T T T
    0.41666667    0.16666667    0.16666909 T T T
    0.50000000    0.16666667    0.16666909 T T T
    0.58333333    0.16666667    0.16666909 T T T
    0.66666667    0.16666667    0.16666909 T T T
    0.75000000    0.16666667    0.16666909 T T T
    0.83333333    0.16666667    0.16666909 T T T
    0.91666667    0.16666667    0.16666909 T T T
    0.00000000    0.25000000    0.16666909 T T T
    0.08333333    0.25000000    0.16666909 T T T
    0.16666667    0.25000000    0.16666909 T T T
    0.25000000    0.25000000    0.16666909 T T T
    0.33333333    0.25000000    0.16666909 T T T
    0.41666667    0.25000000    0.16666909 T T T
    0.50000000    0.25000000    0.16666909 T T T
    0.58333333    0.25000000    0.16666909 T T T
    0.66666667    0.25000000    0.16666909 T T T
    0.75000000    0.25000000    0.16666909 T T T
    0.83333333    0.25000000    0.16666909 T T T
    0.91666667    0.25000000    0.16666909 T T T
    0.00000000    0.33333333    0.16666909 T T T
    0.08333333    0.33333333    0.16666909 T T T
    0.16666667    0.33333333    0.16666909 T T T
    0.25000000    0.33333333    0.16666909 T T T
    0.33333333    0.33333333    0.16666909 T T T
    0.41666667    0.33333333    0.16666909 T T T
    0.50000000    0.33333333    0.16666909 T T T
    0.58333333    0.33333333    0.16666909 T T T
    0.66666667    0.33333333    0.16666909 T T T
    0.75000000    0.33333333    0.16666909 T T T
    0.83333333    0.33333333    0.16666909 T T T
    0.91666667    0.33333333    0.16666909 T T T
    0.21604938    0.17901235    0.87964241 T T T
    0.24382716    0.20679012    0.79630786 T T T
    0.27160494    0.23456790    0.71297332 T T T
    0.29938272    0.26234568    0.62963877 T T T
    0.32716049    0.29012346    0.54630423 T T T
    0.35493827    0.31790123    0.46296969 T T T
    0.38271605    0.34567901    0.37963514 T T T
    0.41049383    0.37345679    0.29630060 T T T
    0.43827160    0.40123457    0.21296606 T T T
    0.16975309    0.27160494    0.85186422 T T T
    0.19753086    0.29938272    0.76852968 T T T
    0.22530864    0.32716049    0.68519514 T T T
    0.25308642    0.35493827    0.60186059 T T T
    0.28086420    0.38271605    0.51852605 T T T
    0.30864198    0.41049383    0.43519151 T T T
    0.33641975    0.43827160    0.35185696 T T T
    0.36419753    0.46604938    0.26852242 T T T
    0.39197531    0.49382716    0.18518787 T T T
    0.41975309    0.52160494    0.10185333 T T T
    0.44753086    0.54938272    0.01851879 T T T
    0.47530864    0.57716049    0.93518424 T T T
    0.12345679    0.36419753    0.82408604 T T T
    0.15123457    0.39197531    0.74075150 T T T
    0.17901235    0.41975309    0.65741696 T T T
    0.20679012    0.44753086    0.57408241 T T T
    0.23456790    0.47530864    0.49074787 T T T
    0.26234568    0.50308642    0.40741332 T T T
    0.29012346    0.53086420    0.32407878 T T T
    0.31790123    0.55864198    0.24074424 T T T
    0.34567901    0.58641975    0.15740969 T T T
    0.37345679    0.61419753    0.07407515 T T T
    0.40123457    0.64197531    0.99074061 T T T
    0.42901235    0.66975309    0.90740606 T T T
    0.07716049    0.45679012    0.79630786 T T T
    0.10493827    0.48456790    0.71297332 T T T
    0.13271605    0.51234568    0.62963877 T T T
    0.16049383    0.54012346    0.54630423 T T T
    0.18827160    0.56790123    0.46296969 T T T
    0.21604938    0.59567901    0.37963514 T T T
    0.24382716    0.62345679    0.29630060 T T T
    0.27160494    0.65123457    0.21296606 T T T
    0.29938272    0.67901235    0.12963151 T T T
    0.32716049    0.70679012    0.04629697 T T T
    0.35493827    0.73456790    0.96296243 T T T
    0.38271605    0.76234568    0.87962788 T T T
    0.03086420    0.54938272    0.76852968 T T T
    0.05864198    0.57716049    0.68519514 T T T
    0.08641975    0.60493827    0.60186059 T T T
    0.11419753    0.63271605    0.51852605 T T T
    0.14197531    0.66049383    0.43519151 T T T
    0.16975309    0.68827160    0.35185696 T T T
    0.19753086    0.71604938    0.26852242 T T T
    0.22530864    0.74382716    0.18518787 T T T
    0.25308642    0.77160494    0.10185333 T T T
    0.28086420    0.79938272    0.01851879 T T T
    0.30864198    0.82716049    0.93518424 T T T
    0.33641975    0.85493827    0.85184970 T T T
    0.16666667    0.83333333    0.16666909 T T T
    0.25000000    0.83333333    0.16666909 T T T
    0.33333333    0.83333333    0.16666909 T T T
    0.41666667    0.83333333    0.16666909 T T T
    0.50000000    0.83333333    0.16666909 T T T
    0.58333333    0.83333333    0.16666909 T T T
    0.66666667    0.83333333    0.16666909 T T T
    0.75000000    0.83333333    0.16666909 T T T
    0.83333333    0.83333333    0.16666909 T T T
    0.91666667    0.83333333    0.16666909 T T T
    0.00000000    0.91666667    0.16666909 T T T
    0.08333333    0.91666667    0.16666909 T T T
    0.16666667    0.91666667    0.16666909 T T T
    0.25000000    0.91666667    0.16666909 T T T
    0.33333333    0.91666667    0.16666909 T T T
    0.41666667    0.91666667    0.16666909 T T T
    0.50000000    0.91666667    0.16666909 T T T
    0.58333333    0.91666667    0.16666909 T T T
    0.66666667    0.91666667    0.16666909 T T T
    0.75000000    0.91666667    0.16666909 T T T
    0.83333333    0.91666667    0.16666909 T T T
    0.91666667    0.91666667    0.16666909 T T T
    0.02777778    0.02777778    0.25000363 T T T
    0.11111111    0.02777778    0.25000363 T T T
    0.19444444    0.02777778    0.25000363 T T T
    0.27777778    0.02777778    0.25000363 T T T
    0.36111111    0.02777778    0.25000363 T T T
    0.44444444    0.02777778    0.25000363 T T T
    0.52777778    0.02777778    0.25000363 T T T
    0.61111111    0.02777778    0.25000363 T T T
    0.69444444    0.02777778    0.25000363 T T T
    0.77777778    0.02777778    0.25000363 T T T
    0.86111111    0.02777778    0.25000363 T T T
    0.94444444    0.02777778    0.25000363 T T T
    0.02777778    0.11111111    0.25000363 T T T
    0.11111111    0.11111111    0.25000363 T T T
    0.19444444    0.11111111    0.25000363 T T T
    0.27777778    0.11111111    0.25000363 T T T
    0.36111111    0.11111111    0.25000363 T T T
    0.44444444    0.11111111    0.25000363 T T T
    0.52777778    0.11111111    0.25000363 T T T
    0.61111111    0.11111111    0.25000363 T T T
    0.69444444    0.11111111    0.25000363 T T T
    0.77777778    0.11111111    0.25000363 T T T
    0.86111111    0.11111111    0.25000363 T T T
    0.94444444    0.11111111    0.25000363 T T T
    0.02777778    0.19444444    0.25000363 T T T
    0.11111111    0.19444444    0.25000363 T T T
    0.19444444    0.19444444    0.25000363 T T T
    0.27777778    0.19444444    0.25000363 T T T
    0.36111111    0.19444444    0.25000363 T T T
    0.44444444    0.19444444    0.25000363 T T T
    0.52777778    0.19444444    0.25000363 T T T
    0.61111111    0.19444444    0.25000363 T T T
    0.69444444    0.19444444    0.25000363 T T T
    0.77777778    0.19444444    0.25000363 T T T
    0.86111111    0.19444444    0.25000363 T T T
    0.94444444    0.19444444    0.25000363 T T T
    0.02777778    0.27777778    0.25000363 T T T
    0.11111111    0.27777778    0.25000363 T T T
    0.19444444    0.27777778    0.25000363 T T T
    0.27777778    0.27777778    0.25000363 T T T
    0.36111111    0.27777778    0.25000363 T T T
    0.44444444    0.27777778    0.25000363 T T T
    0.52777778    0.27777778    0.25000363 T T T
    0.61111111    0.27777778    0.25000363 T T T
    0.69444444    0.27777778    0.25000363 T T T
    0.77777778    0.27777778    0.25000363 T T T
    0.86111111    0.27777778    0.25000363 T T T
    0.94444444    0.27777778    0.25000363 T T T
    0.02777778    0.36111111    0.25000363 T T T
    0.11111111    0.36111111    0.25000363 T T T
    0.19444444    0.36111111    0.25000363 T T T
    0.27777778    0.36111111    0.25000363 T T T
    0.52777778    0.36111111    0.25000363 T T T
    0.61111111    0.36111111    0.25000363 T T T
    0.69444444    0.36111111    0.25000363 T T T
    0.77777778    0.36111111    0.25000363 T T T
    0.86111111    0.36111111    0.25000363 T T T
    0.94444444    0.36111111    0.25000363 T T T
    0.25925926    0.23148148    0.88890180 T T T
    0.28703704    0.25925926    0.80556726 T T T
    0.31481481    0.28703704    0.72223271 T T T
    0.34259259    0.31481481    0.63889817 T T T
    0.37037037    0.34259259    0.55556362 T T T
    0.39814815    0.37037037    0.47222908 T T T
    0.42592593    0.39814815    0.38889454 T T T
    0.45370370    0.42592593    0.30555999 T T T
    0.48148148    0.45370370    0.22222545 T T T
    0.50925926    0.48148148    0.13889091 T T T
    0.53703704    0.50925926    0.05555636 T T T
    0.56481481    0.53703704    0.97222182 T T T
    0.21296296    0.32407407    0.86112362 T T T
    0.24074074    0.35185185    0.77778907 T T T
    0.26851852    0.37962963    0.69445453 T T T
    0.29629630    0.40740741    0.61111999 T T T
    0.32407407    0.43518519    0.52778544 T T T
    0.35185185    0.46296296    0.44445090 T T T
    0.37962963    0.49074074    0.36111636 T T T
    0.40740741    0.51851852    0.27778181 T T T
    0.43518519    0.54629630    0.19444727 T T T
    0.46296296    0.57407407    0.11111272 T T T
    0.49074074    0.60185185    0.02777818 T T T
    0.51851852    0.62962963    0.94444364 T T T
    0.16666667    0.41666667    0.83334544 T T T
    0.19444444    0.44444444    0.75001089 T T T
    0.22222222    0.47222222    0.66667635 T T T
    0.25000000    0.50000000    0.58334181 T T T
    0.27777778    0.52777778    0.50000726 T T T
    0.30555556    0.55555556    0.41667272 T T T
    0.33333333    0.58333333    0.33333817 T T T
    0.36111111    0.61111111    0.25000363 T T T
    0.38888889    0.63888889    0.16666909 T T T
    0.41666667    0.66666667    0.08333454 T T T
    0.44444444    0.69444444    1.00000000 T T T
    0.47222222    0.72222222    0.91666546 T T T
    0.12037037    0.50925926    0.80556726 T T T
    0.14814815    0.53703704    0.72223271 T T T
    0.17592593    0.56481481    0.63889817 T T T
    0.20370370    0.59259259    0.55556362 T T T
    0.23148148    0.62037037    0.47222908 T T T
    0.25925926    0.64814815    0.38889454 T T T
    0.28703704    0.67592593    0.30555999 T T T
    0.31481481    0.70370370    0.22222545 T T T
    0.34259259    0.73148148    0.13889091 T T T
    0.37037037    0.75925926    0.05555636 T T T
    0.39814815    0.78703704    0.97222182 T T T
    0.42592593    0.81481481    0.88888728 T T T
    0.07407407    0.60185185    0.77778907 T T T
    0.10185185    0.62962963    0.69445453 T T T
    0.12962963    0.65740741    0.61111999 T T T
    0.15740741    0.68518519    0.52778544 T T T
    0.18518519    0.71296296    0.44445090 T T T
    0.21296296    0.74074074    0.36111636 T T T
    0.24074074    0.76851852    0.27778181 T T T
    0.29629630    0.82407407    0.11111272 T T T
    0.35185185    0.87962963    0.94444364 T T T
    0.37962963    0.90740741    0.86110909 T T T
    0.02777778    0.86111111    0.25000363 T T T
    0.11111111    0.86111111    0.25000363 T T T
    0.19444444    0.86111111    0.25000363 T T T
    0.27777778    0.86111111    0.25000363 T T T
    0.36111111    0.86111111    0.25000363 T T T
    0.44444444    0.86111111    0.25000363 T T T
    0.52777778    0.86111111    0.25000363 T T T
    0.61111111    0.86111111    0.25000363 T T T
    0.69444444    0.86111111    0.25000363 T T T
    0.77777778    0.86111111    0.25000363 T T T
    0.86111111    0.86111111    0.25000363 T T T
    0.94444444    0.86111111    0.25000363 T T T
    0.02777778    0.94444444    0.25000363 T T T
    0.11111111    0.94444444    0.25000363 T T T
    0.19444444    0.94444444    0.25000363 T T T
    0.27777778    0.94444444    0.25000363 T T T
    0.36111111    0.94444444    0.25000363 T T T
    0.44444444    0.94444444    0.25000363 T T T
    0.52777778    0.94444444    0.25000363 T T T
    0.61111111    0.94444444    0.25000363 T T T
    0.69444444    0.94444444    0.25000363 T T T
    0.77777778    0.94444444    0.25000363 T T T
    0.86111111    0.94444444    0.25000363 T T T
    0.94444444    0.94444444    0.25000363 T T T
    0.97222222    0.05555556    0.33333817 T T T
    0.05555556    0.05555556    0.33333817 T T T
    0.13888889    0.05555556    0.33333817 T T T
    0.22222222    0.05555556    0.33333817 T T T
    0.30555556    0.05555556    0.33333817 T T T
    0.38888889    0.05555556    0.33333817 T T T
    0.47222222    0.05555556    0.33333817 T T T
    0.55555556    0.05555556    0.33333817 T T T
    0.63888889    0.05555556    0.33333817 T T T
    0.72222222    0.05555556    0.33333817 T T T
    0.80555556    0.05555556    0.33333817 T T T
    0.88888889    0.05555556    0.33333817 T T T
    0.97222222    0.13888889    0.33333817 T T T
    0.05555556    0.13888889    0.33333817 T T T
    0.13888889    0.13888889    0.33333817 T T T
    0.22222222    0.13888889    0.33333817 T T T
    0.30555556    0.13888889    0.33333817 T T T
    0.38888889    0.13888889    0.33333817 T T T
    0.47222222    0.13888889    0.33333817 T T T
    0.55555556    0.13888889    0.33333817 T T T
    0.63888889    0.13888889    0.33333817 T T T
    0.72222222    0.13888889    0.33333817 T T T
    0.80555556    0.13888889    0.33333817 T T T
    0.88888889    0.13888889    0.33333817 T T T
    0.97222222    0.22222222    0.33333817 T T T
    0.05555556    0.22222222    0.33333817 T T T
    0.13888889    0.22222222    0.33333817 T T T
    0.22222222    0.22222222    0.33333817 T T T
    0.30555556    0.22222222    0.33333817 T T T
    0.38888889    0.22222222    0.33333817 T T T
    0.47222222    0.22222222    0.33333817 T T T
    0.55555556    0.22222222    0.33333817 T T T
    0.63888889    0.22222222    0.33333817 T T T
    0.72222222    0.22222222    0.33333817 T T T
    0.80555556    0.22222222    0.33333817 T T T
    0.88888889    0.22222222    0.33333817 T T T
    0.97222222    0.30555556    0.33333817 T T T
    0.05555556    0.30555556    0.33333817 T T T
    0.13888889    0.30555556    0.33333817 T T T
    0.22222222    0.30555556    0.33333817 T T T
    0.30555556    0.30555556    0.33333817 T T T
    0.47222222    0.30555556    0.33333817 T T T
    0.55555556    0.30555556    0.33333817 T T T
    0.63888889    0.30555556    0.33333817 T T T
    0.72222222    0.30555556    0.33333817 T T T
    0.80555556    0.30555556    0.33333817 T T T
    0.88888889    0.30555556    0.33333817 T T T
    0.34876543    0.19135802    0.92593937 T T T
    0.37654321    0.21913580    0.84260483 T T T
    0.40432099    0.24691358    0.75927029 T T T
    0.43209877    0.27469136    0.67593574 T T T
    0.45987654    0.30246914    0.59260120 T T T
    0.48765432    0.33024691    0.50926666 T T T
    0.51543210    0.35802469    0.42593211 T T T
    0.54320988    0.38580247    0.34259757 T T T
    0.59876543    0.44135802    0.17592848 T T T
    0.62654321    0.46913580    0.09259394 T T T
    0.30246914    0.28395062    0.89816119 T T T
    0.33024691    0.31172840    0.81482665 T T T
    0.35802469    0.33950617    0.73149211 T T T
    0.38580247    0.36728395    0.64815756 T T T
    0.41358025    0.39506173    0.56482302 T T T
    0.44135802    0.42283951    0.48148847 T T T
    0.46913580    0.45061728    0.39815393 T T T
    0.49691358    0.47839506    0.31481939 T T T
    0.52469136    0.50617284    0.23148484 T T T
    0.55246914    0.53395062    0.14815030 T T T
    0.58024691    0.56172840    0.06481576 T T T
    0.25617284    0.37654321    0.87038301 T T T
    0.28395062    0.40432099    0.78704847 T T T
    0.31172840    0.43209877    0.70371392 T T T
    0.33950617    0.45987654    0.62037938 T T T
    0.36728395    0.48765432    0.53704484 T T T
    0.39506173    0.51543210    0.45371029 T T T
    0.42283951    0.54320988    0.37037575 T T T
    0.45061728    0.57098765    0.28704121 T T T
    0.47839506    0.59876543    0.20370666 T T T
    0.50617284    0.62654321    0.12037212 T T T
    0.53395062    0.65432099    0.03703757 T T T
    0.18209877    0.44135802    0.92593937 T T T
    0.20987654    0.46913580    0.84260483 T T T
    0.23765432    0.49691358    0.75927029 T T T
    0.26543210    0.52469136    0.67593574 T T T
    0.29320988    0.55246914    0.59260120 T T T
    0.32098765    0.58024691    0.50926666 T T T
    0.34876543    0.60802469    0.42593211 T T T
    0.37654321    0.63580247    0.34259757 T T T
    0.40432099    0.66358025    0.25926302 T T T
    0.43209877    0.69135802    0.17592848 T T T
    0.45987654    0.71913580    0.09259394 T T T
    0.48765432    0.74691358    0.00925939 T T T
    0.13580247    0.53395062    0.89816119 T T T
    0.16358025    0.56172840    0.81482665 T T T
    0.19135802    0.58950617    0.73149211 T T T
    0.21913580    0.61728395    0.64815756 T T T
    0.24691358    0.64506173    0.56482302 T T T
    0.27469136    0.67283951    0.48148847 T T T
    0.30246914    0.70061728    0.39815393 T T T
    0.33024691    0.72839506    0.31481939 T T T
    0.35802469    0.75617284    0.23148484 T T T
    0.41358025    0.81172840    0.06481576 T T T
    0.44135802    0.83950617    0.98148121 T T T
    0.05555556    0.80555556    0.33333817 T T T
    0.13888889    0.80555556    0.33333817 T T T
    0.30555556    0.80555556    0.33333817 T T T
    0.38888889    0.80555556    0.33333817 T T T
    0.47222222    0.80555556    0.33333817 T T T
    0.55555556    0.80555556    0.33333817 T T T
    0.63888889    0.80555556    0.33333817 T T T
    0.72222222    0.80555556    0.33333817 T T T
    0.80555556    0.80555556    0.33333817 T T T
    0.88888889    0.80555556    0.33333817 T T T
    0.97222222    0.88888889    0.33333817 T T T
    0.05555556    0.88888889    0.33333817 T T T
    0.13888889    0.88888889    0.33333817 T T T
    0.22222222    0.88888889    0.33333817 T T T
    0.30555556    0.88888889    0.33333817 T T T
    0.38888889    0.88888889    0.33333817 T T T
    0.47222222    0.88888889    0.33333817 T T T
    0.55555556    0.88888889    0.33333817 T T T
    0.63888889    0.88888889    0.33333817 T T T
    0.72222222    0.88888889    0.33333817 T T T
    0.80555556    0.88888889    0.33333817 T T T
    0.88888889    0.88888889    0.33333817 T T T
    0.97222222    0.97222222    0.33333817 T T T
    0.05555556    0.97222222    0.33333817 T T T
    0.13888889    0.97222222    0.33333817 T T T
    0.22222222    0.97222222    0.33333817 T T T
    0.30555556    0.97222222    0.33333817 T T T
    0.38888889    0.97222222    0.33333817 T T T
    0.47222222    0.97222222    0.33333817 T T T
    0.55555556    0.97222222    0.33333817 T T T
    0.63888889    0.97222222    0.33333817 T T T
    0.72222222    0.97222222    0.33333817 T T T
    0.80555556    0.97222222    0.33333817 T T T
    0.88888889    0.97222222    0.33333817 T T T
    0.00000000    0.00000000    0.41667272 T T T
    0.08333333    0.00000000    0.41667272 T T T
    0.16666667    0.00000000    0.41667272 T T T
    0.25000000    0.00000000    0.41667272 T T T
    0.33333333    0.00000000    0.41667272 T T T
    0.41666667    0.00000000    0.41667272 T T T
    0.50000000    0.00000000    0.41667272 T T T
    0.58333333    0.00000000    0.41667272 T T T
    0.66666667    0.00000000    0.41667272 T T T
    0.75000000    0.00000000    0.41667272 T T T
    0.83333333    0.00000000    0.41667272 T T T
    0.91666667    0.00000000    0.41667272 T T T
    0.00000000    0.08333333    0.41667272 T T T
    0.08333333    0.08333333    0.41667272 T T T
    0.16666667    0.08333333    0.41667272 T T T
    0.25000000    0.08333333    0.41667272 T T T
    0.33333333    0.08333333    0.41667272 T T T
    0.41666667    0.08333333    0.41667272 T T T
    0.50000000    0.08333333    0.41667272 T T T
    0.58333333    0.08333333    0.41667272 T T T
    0.66666667    0.08333333    0.41667272 T T T
    0.75000000    0.08333333    0.41667272 T T T
    0.83333333    0.08333333    0.41667272 T T T
    0.91666667    0.08333333    0.41667272 T T T
    0.00000000    0.16666667    0.41667272 T T T
    0.08333333    0.16666667    0.41667272 T T T
    0.16666667    0.16666667    0.41667272 T T T
    0.25000000    0.16666667    0.41667272 T T T
    0.33333333    0.16666667    0.41667272 T T T
    0.41666667    0.16666667    0.41667272 T T T
    0.50000000    0.16666667    0.41667272 T T T
    0.58333333    0.16666667    0.41667272 T T T
    0.66666667    0.16666667    0.41667272 T T T
    0.75000000    0.16666667    0.41667272 T T T
    0.83333333    0.16666667    0.41667272 T T T
    0.91666667    0.16666667    0.41667272 T T T
    0.00000000    0.25000000    0.41667272 T T T
    0.08333333    0.25000000    0.41667272 T T T
    0.16666667    0.25000000    0.41667272 T T T
    0.25000000    0.25000000    0.41667272 T T T
    0.33333333    0.25000000    0.41667272 T T T
    0.41666667    0.25000000    0.41667272 T T T
    0.50000000    0.25000000    0.41667272 T T T
    0.58333333    0.25000000    0.41667272 T T T
    0.66666667    0.25000000    0.41667272 T T T
    0.75000000    0.25000000    0.41667272 T T T
    0.83333333    0.25000000    0.41667272 T T T
    0.91666667    0.25000000    0.41667272 T T T
    0.46604938    0.17901235    0.87964241 T T T
    0.49382716    0.20679012    0.79630786 T T T
    0.52160494    0.23456790    0.71297332 T T T
    0.54938272    0.26234568    0.62963877 T T T
    0.57716049    0.29012346    0.54630423 T T T
    0.60493827    0.31790123    0.46296969 T T T
    0.39197531    0.24382716    0.93519877 T T T
    0.41975309    0.27160494    0.85186422 T T T
    0.44753086    0.29938272    0.76852968 T T T
    0.47530864    0.32716049    0.68519514 T T T
    0.50308642    0.35493827    0.60186059 T T T
    0.53086420    0.38271605    0.51852605 T T T
    0.55864198    0.41049383    0.43519151 T T T
    0.58641975    0.43827160    0.35185696 T T T
    0.61419753    0.46604938    0.26852242 T T T
    0.64197531    0.49382716    0.18518787 T T T
    0.66975309    0.52160494    0.10185333 T T T
    0.34567901    0.33641975    0.90742059 T T T
    0.37345679    0.36419753    0.82408604 T T T
    0.40123457    0.39197531    0.74075150 T T T
    0.42901235    0.41975309    0.65741696 T T T
    0.45679012    0.44753086    0.57408241 T T T
    0.48456790    0.47530864    0.49074787 T T T
    0.51234568    0.50308642    0.40741332 T T T
    0.54012346    0.53086420    0.32407878 T T T
    0.56790123    0.55864198    0.24074424 T T T
    0.59567901    0.58641975    0.15740969 T T T
    0.62345679    0.61419753    0.07407515 T T T
    0.29938272    0.42901235    0.87964241 T T T
    0.32716049    0.45679012    0.79630786 T T T
    0.35493827    0.48456790    0.71297332 T T T
    0.38271605    0.51234568    0.62963877 T T T
    0.41049383    0.54012346    0.54630423 T T T
    0.43827160    0.56790123    0.46296969 T T T
    0.46604938    0.59567901    0.37963514 T T T
    0.49382716    0.62345679    0.29630060 T T T
    0.52160494    0.65123457    0.21296606 T T T
    0.54938272    0.67901235    0.12963151 T T T
    0.57716049    0.70679012    0.04629697 T T T
    0.22530864    0.49382716    0.93519877 T T T
    0.25308642    0.52160494    0.85186422 T T T
    0.28086420    0.54938272    0.76852968 T T T
    0.30864198    0.57716049    0.68519514 T T T
    0.33641975    0.60493827    0.60186059 T T T
    0.36419753    0.63271605    0.51852605 T T T
    0.39197531    0.66049383    0.43519151 T T T
    0.41975309    0.68827160    0.35185696 T T T
    0.44753086    0.71604938    0.26852242 T T T
    0.47530864    0.74382716    0.18518787 T T T
    0.50308642    0.77160494    0.10185333 T T T
    0.53086420    0.79938272    0.01851879 T T T
    0.08333333    0.75000000    0.41667272 T T T
    0.33333333    0.75000000    0.41667272 T T T
    0.41666667    0.75000000    0.41667272 T T T
    0.50000000    0.75000000    0.41667272 T T T
    0.58333333    0.75000000    0.41667272 T T T
    0.66666667    0.75000000    0.41667272 T T T
    0.75000000    0.75000000    0.41667272 T T T
    0.83333333    0.75000000    0.41667272 T T T
    0.00000000    0.83333333    0.41667272 T T T
    0.08333333    0.83333333    0.41667272 T T T
    0.16666667    0.83333333    0.41667272 T T T
    0.25000000    0.83333333    0.41667272 T T T
    0.33333333    0.83333333    0.41667272 T T T
    0.41666667    0.83333333    0.41667272 T T T
    0.50000000    0.83333333    0.41667272 T T T
    0.58333333    0.83333333    0.41667272 T T T
    0.66666667    0.83333333    0.41667272 T T T
    0.75000000    0.83333333    0.41667272 T T T
    0.83333333    0.83333333    0.41667272 T T T
    0.91666667    0.83333333    0.41667272 T T T
    0.00000000    0.91666667    0.41667272 T T T
    0.08333333    0.91666667    0.41667272 T T T
    0.16666667    0.91666667    0.41667272 T T T
    0.25000000    0.91666667    0.41667272 T T T
    0.33333333    0.91666667    0.41667272 T T T
    0.41666667    0.91666667    0.41667272 T T T
    0.50000000    0.91666667    0.41667272 T T T
    0.58333333    0.91666667    0.41667272 T T T
    0.66666667    0.91666667    0.41667272 T T T
    0.75000000    0.91666667    0.41667272 T T T
    0.83333333    0.91666667    0.41667272 T T T
    0.91666667    0.91666667    0.41667272 T T T
    0.02777778    0.02777778    0.50000726 T T T
    0.11111111    0.02777778    0.50000726 T T T
    0.19444444    0.02777778    0.50000726 T T T
    0.27777778    0.02777778    0.50000726 T T T
    0.36111111    0.02777778    0.50000726 T T T
    0.44444444    0.02777778    0.50000726 T T T
    0.52777778    0.02777778    0.50000726 T T T
    0.61111111    0.02777778    0.50000726 T T T
    0.69444444    0.02777778    0.50000726 T T T
    0.77777778    0.02777778    0.50000726 T T T
    0.86111111    0.02777778    0.50000726 T T T
    0.94444444    0.02777778    0.50000726 T T T
    0.02777778    0.11111111    0.50000726 T T T
    0.11111111    0.11111111    0.50000726 T T T
    0.19444444    0.11111111    0.50000726 T T T
    0.27777778    0.11111111    0.50000726 T T T
    0.36111111    0.11111111    0.50000726 T T T
    0.44444444    0.11111111    0.50000726 T T T
    0.52777778    0.11111111    0.50000726 T T T
    0.61111111    0.11111111    0.50000726 T T T
    0.69444444    0.11111111    0.50000726 T T T
    0.77777778    0.11111111    0.50000726 T T T
    0.86111111    0.11111111    0.50000726 T T T
    0.94444444    0.11111111    0.50000726 T T T
    0.02777778    0.19444444    0.50000726 T T T
    0.11111111    0.19444444    0.50000726 T T T
    0.19444444    0.19444444    0.50000726 T T T
    0.27777778    0.19444444    0.50000726 T T T
    0.36111111    0.19444444    0.50000726 T T T
    0.44444444    0.19444444    0.50000726 T T T
    0.52777778    0.19444444    0.50000726 T T T
    0.61111111    0.19444444    0.50000726 T T T
    0.69444444    0.19444444    0.50000726 T T T
    0.77777778    0.19444444    0.50000726 T T T
    0.86111111    0.19444444    0.50000726 T T T
    0.94444444    0.19444444    0.50000726 T T T
    0.02777778    0.27777778    0.50000726 T T T
    0.11111111    0.27777778    0.50000726 T T T
    0.19444444    0.27777778    0.50000726 T T T
    0.44444444    0.27777778    0.50000726 T T T
    0.69444444    0.27777778    0.50000726 T T T
    0.77777778    0.27777778    0.50000726 T T T
    0.86111111    0.27777778    0.50000726 T T T
    0.94444444    0.27777778    0.50000726 T T T
    0.50925926    0.23148148    0.88890180 T T T
    0.53703704    0.25925926    0.80556726 T T T
    0.56481481    0.28703704    0.72223271 T T T
    0.59259259    0.31481481    0.63889817 T T T
    0.62037037    0.34259259    0.55556362 T T T
    0.64814815    0.37037037    0.47222908 T T T
    0.67592593    0.39814815    0.38889454 T T T
    0.70370370    0.42592593    0.30555999 T T T
    0.73148148    0.45370370    0.22222545 T T T
    0.75925926    0.48148148    0.13889091 T T T
    0.46296296    0.32407407    0.86112362 T T T
    0.49074074    0.35185185    0.77778907 T T T
    0.51851852    0.37962963    0.69445453 T T T
    0.54629630    0.40740741    0.61111999 T T T
    0.57407407    0.43518519    0.52778544 T T T
    0.60185185    0.46296296    0.44445090 T T T
    0.62962963    0.49074074    0.36111636 T T T
    0.65740741    0.51851852    0.27778181 T T T
    0.68518519    0.54629630    0.19444727 T T T
    0.71296296    0.57407407    0.11111272 T T T
    0.38888889    0.38888889    0.91667998 T T T
    0.41666667    0.41666667    0.83334544 T T T
    0.44444444    0.44444444    0.75001089 T T T
    0.47222222    0.47222222    0.66667635 T T T
    0.50000000    0.50000000    0.58334181 T T T
    0.52777778    0.52777778    0.50000726 T T T
    0.55555556    0.55555556    0.41667272 T T T
    0.58333333    0.58333333    0.33333817 T T T
    0.61111111    0.61111111    0.25000363 T T T
    0.63888889    0.63888889    0.16666909 T T T
    0.66666667    0.66666667    0.08333454 T T T
    0.34259259    0.48148148    0.88890180 T T T
    0.37037037    0.50925926    0.80556726 T T T
    0.39814815    0.53703704    0.72223271 T T T
    0.42592593    0.56481481    0.63889817 T T T
    0.45370370    0.59259259    0.55556362 T T T
    0.48148148    0.62037037    0.47222908 T T T
    0.50925926    0.64814815    0.38889454 T T T
    0.53703704    0.67592593    0.30555999 T T T
    0.56481481    0.70370370    0.22222545 T T T
    0.59259259    0.73148148    0.13889091 T T T
    0.62037037    0.75925926    0.05555636 T T T
    0.35185185    0.62962963    0.69445453 T T T
    0.37962963    0.65740741    0.61111999 T T T
    0.40740741    0.68518519    0.52778544 T T T
    0.46296296    0.74074074    0.36111636 T T T
    0.54629630    0.82407407    0.11111272 T T T
    0.02777778    0.77777778    0.50000726 T T T
    0.11111111    0.77777778    0.50000726 T T T
    0.19444444    0.77777778    0.50000726 T T T
    0.27777778    0.77777778    0.50000726 T T T
    0.36111111    0.77777778    0.50000726 T T T
    0.44444444    0.77777778    0.50000726 T T T
    0.52777778    0.77777778    0.50000726 T T T
    0.61111111    0.77777778    0.50000726 T T T
    0.69444444    0.77777778    0.50000726 T T T
    0.77777778    0.77777778    0.50000726 T T T
    0.86111111    0.77777778    0.50000726 T T T
    0.94444444    0.77777778    0.50000726 T T T
    0.02777778    0.86111111    0.50000726 T T T
    0.11111111    0.86111111    0.50000726 T T T
    0.19444444    0.86111111    0.50000726 T T T
    0.27777778    0.86111111    0.50000726 T T T
    0.36111111    0.86111111    0.50000726 T T T
    0.44444444    0.86111111    0.50000726 T T T
    0.52777778    0.86111111    0.50000726 T T T
    0.61111111    0.86111111    0.50000726 T T T
    0.69444444    0.86111111    0.50000726 T T T
    0.77777778    0.86111111    0.50000726 T T T
    0.86111111    0.86111111    0.50000726 T T T
    0.94444444    0.86111111    0.50000726 T T T
    0.02777778    0.94444444    0.50000726 T T T
    0.11111111    0.94444444    0.50000726 T T T
    0.19444444    0.94444444    0.50000726 T T T
    0.27777778    0.94444444    0.50000726 T T T
    0.36111111    0.94444444    0.50000726 T T T
    0.44444444    0.94444444    0.50000726 T T T
    0.52777778    0.94444444    0.50000726 T T T
    0.61111111    0.94444444    0.50000726 T T T
    0.69444444    0.94444444    0.50000726 T T T
    0.77777778    0.94444444    0.50000726 T T T
    0.86111111    0.94444444    0.50000726 T T T
    0.94444444    0.94444444    0.50000726 T T T
    0.97222222    0.05555556    0.58334181 T T T
    0.05555556    0.05555556    0.58334181 T T T
    0.13888889    0.05555556    0.58334181 T T T
    0.22222222    0.05555556    0.58334181 T T T
    0.30555556    0.05555556    0.58334181 T T T
    0.38888889    0.05555556    0.58334181 T T T
    0.47222222    0.05555556    0.58334181 T T T
    0.55555556    0.05555556    0.58334181 T T T
    0.63888889    0.05555556    0.58334181 T T T
    0.72222222    0.05555556    0.58334181 T T T
    0.80555556    0.05555556    0.58334181 T T T
    0.88888889    0.05555556    0.58334181 T T T
    0.97222222    0.13888889    0.58334181 T T T
    0.05555556    0.13888889    0.58334181 T T T
    0.13888889    0.13888889    0.58334181 T T T
    0.22222222    0.13888889    0.58334181 T T T
    0.30555556    0.13888889    0.58334181 T T T
    0.38888889    0.13888889    0.58334181 T T T
    0.47222222    0.13888889    0.58334181 T T T
    0.55555556    0.13888889    0.58334181 T T T
    0.63888889    0.13888889    0.58334181 T T T
    0.72222222    0.13888889    0.58334181 T T T
    0.80555556    0.13888889    0.58334181 T T T
    0.88888889    0.13888889    0.58334181 T T T
    0.97222222    0.22222222    0.58334181 T T T
    0.05555556    0.22222222    0.58334181 T T T
    0.13888889    0.22222222    0.58334181 T T T
    0.22222222    0.22222222    0.58334181 T T T
    0.38888889    0.22222222    0.58334181 T T T
    0.47222222    0.22222222    0.58334181 T T T
    0.63888889    0.22222222    0.58334181 T T T
    0.72222222    0.22222222    0.58334181 T T T
    0.80555556    0.22222222    0.58334181 T T T
    0.88888889    0.22222222    0.58334181 T T T
    0.59876543    0.19135802    0.92593937 T T T
    0.62654321    0.21913580    0.84260483 T T T
    0.65432099    0.24691358    0.75927029 T T T
    0.68209877    0.27469136    0.67593574 T T T
    0.70987654    0.30246914    0.59260120 T T T
    0.76543210    0.35802469    0.42593211 T T T
    0.79320988    0.38580247    0.34259757 T T T
    0.55246914    0.28395062    0.89816119 T T T
    0.58024691    0.31172840    0.81482665 T T T
    0.60802469    0.33950617    0.73149211 T T T
    0.63580247    0.36728395    0.64815756 T T T
    0.66358025    0.39506173    0.56482302 T T T
    0.69135802    0.42283951    0.48148847 T T T
    0.71913580    0.45061728    0.39815393 T T T
    0.74691358    0.47839506    0.31481939 T T T
    0.77469136    0.50617284    0.23148484 T T T
    0.50617284    0.37654321    0.87038301 T T T
    0.53395062    0.40432099    0.78704847 T T T
    0.56172840    0.43209877    0.70371392 T T T
    0.58950617    0.45987654    0.62037938 T T T
    0.61728395    0.48765432    0.53704484 T T T
    0.64506173    0.51543210    0.45371029 T T T
    0.67283951    0.54320988    0.37037575 T T T
    0.70061728    0.57098765    0.28704121 T T T
    0.72839506    0.59876543    0.20370666 T T T
    0.43209877    0.44135802    0.92593937 T T T
    0.45987654    0.46913580    0.84260483 T T T
    0.48765432    0.49691358    0.75927029 T T T
    0.51543210    0.52469136    0.67593574 T T T
    0.54320988    0.55246914    0.59260120 T T T
    0.57098765    0.58024691    0.50926666 T T T
    0.59876543    0.60802469    0.42593211 T T T
    0.62654321    0.63580247    0.34259757 T T T
    0.65432099    0.66358025    0.25926302 T T T
    0.68209877    0.69135802    0.17592848 T T T
    0.44135802    0.58950617    0.73149211 T T T
    0.46913580    0.61728395    0.64815756 T T T
    0.49691358    0.64506173    0.56482302 T T T
    0.52469136    0.67283951    0.48148847 T T T
    0.58024691    0.72839506    0.31481939 T T T
    0.60802469    0.75617284    0.23148484 T T T
    0.97222222    0.72222222    0.58334181 T T T
    0.05555556    0.72222222    0.58334181 T T T
    0.22222222    0.72222222    0.58334181 T T T
    0.30555556    0.72222222    0.58334181 T T T
    0.47222222    0.72222222    0.58334181 T T T
    0.55555556    0.72222222    0.58334181 T T T
    0.63888889    0.72222222    0.58334181 T T T
    0.72222222    0.72222222    0.58334181 T T T
    0.80555556    0.72222222    0.58334181 T T T
    0.97222222    0.80555556    0.58334181 T T T
    0.05555556    0.80555556    0.58334181 T T T
    0.13888889    0.80555556    0.58334181 T T T
    0.22222222    0.80555556    0.58334181 T T T
    0.30555556    0.80555556    0.58334181 T T T
    0.38888889    0.80555556    0.58334181 T T T
    0.47222222    0.80555556    0.58334181 T T T
    0.55555556    0.80555556    0.58334181 T T T
    0.63888889    0.80555556    0.58334181 T T T
    0.72222222    0.80555556    0.58334181 T T T
    0.80555556    0.80555556    0.58334181 T T T
    0.88888889    0.80555556    0.58334181 T T T
    0.97222222    0.88888889    0.58334181 T T T
    0.05555556    0.88888889    0.58334181 T T T
    0.13888889    0.88888889    0.58334181 T T T
    0.22222222    0.88888889    0.58334181 T T T
    0.30555556    0.88888889    0.58334181 T T T
    0.38888889    0.88888889    0.58334181 T T T
    0.47222222    0.88888889    0.58334181 T T T
    0.55555556    0.88888889    0.58334181 T T T
    0.63888889    0.88888889    0.58334181 T T T
    0.72222222    0.88888889    0.58334181 T T T
    0.80555556    0.88888889    0.58334181 T T T
    0.88888889    0.88888889    0.58334181 T T T
    0.97222222    0.97222222    0.58334181 T T T
    0.05555556    0.97222222    0.58334181 T T T
    0.13888889    0.97222222    0.58334181 T T T
    0.22222222    0.97222222    0.58334181 T T T
    0.30555556    0.97222222    0.58334181 T T T
    0.38888889    0.97222222    0.58334181 T T T
    0.47222222    0.97222222    0.58334181 T T T
    0.55555556    0.97222222    0.58334181 T T T
    0.63888889    0.97222222    0.58334181 T T T
    0.72222222    0.97222222    0.58334181 T T T
    0.80555556    0.97222222    0.58334181 T T T
    0.88888889    0.97222222    0.58334181 T T T
    0.00000000    0.00000000    0.66667635 T T T
    0.08333333    0.00000000    0.66667635 T T T
    0.25000000    0.00000000    0.66667635 T T T
    0.33333333    0.00000000    0.66667635 T T T
    0.41666667    0.00000000    0.66667635 T T T
    0.50000000    0.00000000    0.66667635 T T T
    0.58333333    0.00000000    0.66667635 T T T
    0.66666667    0.00000000    0.66667635 T T T
    0.75000000    0.00000000    0.66667635 T T T
    0.83333333    0.00000000    0.66667635 T T T
    0.91666667    0.00000000    0.66667635 T T T
    0.00000000    0.08333333    0.66667635 T T T
    0.08333333    0.08333333    0.66667635 T T T
    0.16666667    0.08333333    0.66667635 T T T
    0.25000000    0.08333333    0.66667635 T T T
    0.33333333    0.08333333    0.66667635 T T T
    0.41666667    0.08333333    0.66667635 T T T
    0.50000000    0.08333333    0.66667635 T T T
    0.58333333    0.08333333    0.66667635 T T T
    0.66666667    0.08333333    0.66667635 T T T
    0.75000000    0.08333333    0.66667635 T T T
    0.83333333    0.08333333    0.66667635 T T T
    0.91666667    0.08333333    0.66667635 T T T
    0.00000000    0.16666667    0.66667635 T T T
    0.08333333    0.16666667    0.66667635 T T T
    0.16666667    0.16666667    0.66667635 T T T
    0.25000000    0.16666667    0.66667635 T T T
    0.33333333    0.16666667    0.66667635 T T T
    0.41666667    0.16666667    0.66667635 T T T
    0.50000000    0.16666667    0.66667635 T T T
    0.58333333    0.16666667    0.66667635 T T T
    0.66666667    0.16666667    0.66667635 T T T
    0.75000000    0.16666667    0.66667635 T T T
    0.83333333    0.16666667    0.66667635 T T T
    0.91666667    0.16666667    0.66667635 T T T
    0.71604938    0.17901235    0.87964241 T T T
    0.74382716    0.20679012    0.79630786 T T T
    0.77160494    0.23456790    0.71297332 T T T
    0.64197531    0.24382716    0.93519877 T T T
    0.66975309    0.27160494    0.85186422 T T T
    0.69753086    0.29938272    0.76852968 T T T
    0.72530864    0.32716049    0.68519514 T T T
    0.75308642    0.35493827    0.60186059 T T T
    0.78086420    0.38271605    0.51852605 T T T
    0.80864198    0.41049383    0.43519151 T T T
    0.83641975    0.43827160    0.35185696 T T T
    0.86419753    0.46604938    0.26852242 T T T
    0.59567901    0.33641975    0.90742059 T T T
    0.62345679    0.36419753    0.82408604 T T T
    0.65123457    0.39197531    0.74075150 T T T
    0.67901235    0.41975309    0.65741696 T T T
    0.70679012    0.44753086    0.57408241 T T T
    0.73456790    0.47530864    0.49074787 T T T
    0.76234568    0.50308642    0.40741332 T T T
    0.79012346    0.53086420    0.32407878 T T T
    0.81790123    0.55864198    0.24074424 T T T
    0.54938272    0.42901235    0.87964241 T T T
    0.57716049    0.45679012    0.79630786 T T T
    0.60493827    0.48456790    0.71297332 T T T
    0.63271605    0.51234568    0.62963877 T T T
    0.66049383    0.54012346    0.54630423 T T T
    0.68827160    0.56790123    0.46296969 T T T
    0.71604938    0.59567901    0.37963514 T T T
    0.74382716    0.62345679    0.29630060 T T T
    0.77160494    0.65123457    0.21296606 T T T
    0.50308642    0.52160494    0.85186422 T T T
    0.53086420    0.54938272    0.76852968 T T T
    0.55864198    0.57716049    0.68519514 T T T
    0.58641975    0.60493827    0.60186059 T T T
    0.61419753    0.63271605    0.51852605 T T T
    0.64197531    0.66049383    0.43519151 T T T
    0.66975309    0.68827160    0.35185696 T T T
    0.69753086    0.71604938    0.26852242 T T T
    0.72530864    0.74382716    0.18518787 T T T
    0.00000000    0.66666667    0.66667635 T T T
    0.25000000    0.66666667    0.66667635 T T T
    0.50000000    0.66666667    0.66667635 T T T
    0.58333333    0.66666667    0.66667635 T T T
    0.66666667    0.66666667    0.66667635 T T T
    0.75000000    0.66666667    0.66667635 T T T
    0.83333333    0.66666667    0.66667635 T T T
    0.00000000    0.75000000    0.66667635 T T T
    0.08333333    0.75000000    0.66667635 T T T
    0.16666667    0.75000000    0.66667635 T T T
    0.25000000    0.75000000    0.66667635 T T T
    0.33333333    0.75000000    0.66667635 T T T
    0.41666667    0.75000000    0.66667635 T T T
    0.50000000    0.75000000    0.66667635 T T T
    0.58333333    0.75000000    0.66667635 T T T
    0.66666667    0.75000000    0.66667635 T T T
    0.75000000    0.75000000    0.66667635 T T T
    0.83333333    0.75000000    0.66667635 T T T
    0.91666667    0.75000000    0.66667635 T T T
    0.00000000    0.83333333    0.66667635 T T T
    0.08333333    0.83333333    0.66667635 T T T
    0.16666667    0.83333333    0.66667635 T T T
    0.33333333    0.83333333    0.66667635 T T T
    0.41666667    0.83333333    0.66667635 T T T
    0.50000000    0.83333333    0.66667635 T T T
    0.58333333    0.83333333    0.66667635 T T T
    0.66666667    0.83333333    0.66667635 T T T
    0.75000000    0.83333333    0.66667635 T T T
    0.83333333    0.83333333    0.66667635 T T T
    0.91666667    0.83333333    0.66667635 T T T
    0.00000000    0.91666667    0.66667635 T T T
    0.08333333    0.91666667    0.66667635 T T T
    0.16666667    0.91666667    0.66667635 T T T
    0.25000000    0.91666667    0.66667635 T T T
    0.33333333    0.91666667    0.66667635 T T T
    0.41666667    0.91666667    0.66667635 T T T
    0.50000000    0.91666667    0.66667635 T T T
    0.58333333    0.91666667    0.66667635 T T T
    0.66666667    0.91666667    0.66667635 T T T
    0.75000000    0.91666667    0.66667635 T T T
    0.83333333    0.91666667    0.66667635 T T T
    0.91666667    0.91666667    0.66667635 T T T
    0.02777778    0.02777778    0.75001089 T T T
    0.11111111    0.02777778    0.75001089 T T T
    0.19444444    0.02777778    0.75001089 T T T
    0.27777778    0.02777778    0.75001089 T T T
    0.36111111    0.02777778    0.75001089 T T T
    0.44444444    0.02777778    0.75001089 T T T
    0.52777778    0.02777778    0.75001089 T T T
    0.61111111    0.02777778    0.75001089 T T T
    0.69444444    0.02777778    0.75001089 T T T
    0.77777778    0.02777778    0.75001089 T T T
    0.86111111    0.02777778    0.75001089 T T T
    0.94444444    0.02777778    0.75001089 T T T
    0.02777778    0.11111111    0.75001089 T T T
    0.11111111    0.11111111    0.75001089 T T T
    0.19444444    0.11111111    0.75001089 T T T
    0.27777778    0.11111111    0.75001089 T T T
    0.36111111    0.11111111    0.75001089 T T T
    0.44444444    0.11111111    0.75001089 T T T
    0.52777778    0.11111111    0.75001089 T T T
    0.61111111    0.11111111    0.75001089 T T T
    0.69444444    0.11111111    0.75001089 T T T
    0.77777778    0.11111111    0.75001089 T T T
    0.86111111    0.11111111    0.75001089 T T T
    0.94444444    0.11111111    0.75001089 T T T
    0.02777778    0.19444444    0.75001089 T T T
    0.11111111    0.19444444    0.75001089 T T T
    0.36111111    0.19444444    0.75001089 T T T
    0.61111111    0.19444444    0.75001089 T T T
    0.86111111    0.19444444    0.75001089 T T T
    0.94444444    0.19444444    0.75001089 T T T
    0.75925926    0.23148148    0.88890180 T T T
    0.78703704    0.25925926    0.80556726 T T T
    0.81481481    0.28703704    0.72223271 T T T
    0.84259259    0.31481481    0.63889817 T T T
    0.87037037    0.34259259    0.55556362 T T T
    0.89814815    0.37037037    0.47222908 T T T
    0.92592593    0.39814815    0.38889454 T T T
    0.95370370    0.42592593    0.30555999 T T T
    0.71296296    0.32407407    0.86112362 T T T
    0.74074074    0.35185185    0.77778907 T T T
    0.76851852    0.37962963    0.69445453 T T T
    0.79629630    0.40740741    0.61111999 T T T
    0.82407407    0.43518519    0.52778544 T T T
    0.85185185    0.46296296    0.44445090 T T T
    0.87962963    0.49074074    0.36111636 T T T
    0.90740741    0.51851852    0.27778181 T T T
    0.63888889    0.38888889    0.91667998 T T T
    0.66666667    0.41666667    0.83334544 T T T
    0.69444444    0.44444444    0.75001089 T T T
    0.72222222    0.47222222    0.66667635 T T T
    0.75000000    0.50000000    0.58334181 T T T
    0.77777778    0.52777778    0.50000726 T T T
    0.80555556    0.55555556    0.41667272 T T T
    0.83333333    0.58333333    0.33333817 T T T
    0.86111111    0.61111111    0.25000363 T T T
    0.50925926    0.39814815    0.13890543 F F F
    0.59259259    0.48148148    0.88890180 T T T
    0.62037037    0.50925926    0.80556726 T T T
    0.64814815    0.53703704    0.72223271 T T T
    0.67592593    0.56481481    0.63889817 T T T
    0.70370370    0.59259259    0.55556362 T T T
    0.73148148    0.62037037    0.47222908 T T T
    0.75925926    0.64814815    0.38889454 T T T
    0.78703704    0.67592593    0.30555999 T T T
    0.81481481    0.70370370    0.22222545 T T T
    0.54629630    0.57407407    0.86112362 T T T
    0.57407407    0.60185185    0.77778907 T T T
    0.62962963    0.65740741    0.61111999 T T T
    0.71296296    0.74074074    0.36111636 T T T
    0.02777778    0.69444444    0.75001089 T T T
    0.11111111    0.69444444    0.75001089 T T T
    0.19444444    0.69444444    0.75001089 T T T
    0.44444444    0.69444444    0.75001089 T T T
    0.52777778    0.69444444    0.75001089 T T T
    0.61111111    0.69444444    0.75001089 T T T
    0.69444444    0.69444444    0.75001089 T T T
    0.77777778    0.69444444    0.75001089 T T T
    0.86111111    0.69444444    0.75001089 T T T
    0.94444444    0.69444444    0.75001089 T T T
    0.02777778    0.77777778    0.75001089 T T T
    0.11111111    0.77777778    0.75001089 T T T
    0.19444444    0.77777778    0.75001089 T T T
    0.36111111    0.77777778    0.75001089 T T T
    0.44444444    0.77777778    0.75001089 T T T
    0.52777778    0.77777778    0.75001089 T T T
    0.61111111    0.77777778    0.75001089 T T T
    0.69444444    0.77777778    0.75001089 T T T
    0.77777778    0.77777778    0.75001089 T T T
    0.86111111    0.77777778    0.75001089 T T T
    0.94444444    0.77777778    0.75001089 T T T
    0.02777778    0.86111111    0.75001089 T T T
    0.11111111    0.86111111    0.75001089 T T T
    0.36111111    0.86111111    0.75001089 T T T
    0.44444444    0.86111111    0.75001089 T T T
    0.52777778    0.86111111    0.75001089 T T T
    0.61111111    0.86111111    0.75001089 T T T
    0.69444444    0.86111111    0.75001089 T T T
    0.77777778    0.86111111    0.75001089 T T T
    0.86111111    0.86111111    0.75001089 T T T
    0.94444444    0.86111111    0.75001089 T T T
    0.02777778    0.94444444    0.75001089 T T T
    0.27777778    0.94444444    0.75001089 T T T
    0.36111111    0.94444444    0.75001089 T T T
    0.44444444    0.94444444    0.75001089 T T T
    0.52777778    0.94444444    0.75001089 T T T
    0.61111111    0.94444444    0.75001089 T T T
    0.69444444    0.94444444    0.75001089 T T T
    0.77777778    0.94444444    0.75001089 T T T
    0.86111111    0.94444444    0.75001089 T T T
    0.94444444    0.94444444    0.75001089 T T T
    0.97222222    0.05555556    0.83334544 T T T
    0.05555556    0.05555556    0.83334544 T T T
    0.13888889    0.05555556    0.83334544 T T T
    0.22222222    0.05555556    0.83334544 T T T
    0.30555556    0.05555556    0.83334544 T T T
    0.38888889    0.05555556    0.83334544 T T T
    0.47222222    0.05555556    0.83334544 T T T
    0.55555556    0.05555556    0.83334544 T T T
    0.63888889    0.05555556    0.83334544 T T T
    0.72222222    0.05555556    0.83334544 T T T
    0.80555556    0.05555556    0.83334544 T T T
    0.88888889    0.05555556    0.83334544 T T T
    0.97222222    0.13888889    0.83334544 T T T
    0.05555556    0.13888889    0.83334544 T T T
    0.13888889    0.13888889    0.83334544 T T T
    0.30555556    0.13888889    0.83334544 T T T
    0.38888889    0.13888889    0.83334544 T T T
    0.55555556    0.13888889    0.83334544 T T T
    0.63888889    0.13888889    0.83334544 T T T
    0.80555556    0.13888889    0.83334544 T T T
    0.88888889    0.13888889    0.83334544 T T T
    0.84876543    0.19135802    0.92593937 T T T
    0.87654321    0.21913580    0.84260483 T T T
    0.93209877    0.27469136    0.67593574 T T T
    0.95987654    0.30246914    0.59260120 T T T
    0.01543210    0.35802469    0.42593211 T T T
    0.80246914    0.28395062    0.89816119 T T T
    0.83024691    0.31172840    0.81482665 T T T
    0.85802469    0.33950617    0.73149211 T T T
    0.88580247    0.36728395    0.64815756 T T T
    0.91358025    0.39506173    0.56482302 T T T
    0.94135802    0.42283951    0.48148847 T T T
    0.96913580    0.45061728    0.39815393 T T T
    0.75617284    0.37654321    0.87038301 T T T
    0.78395062    0.40432099    0.78704847 T T T
    0.81172840    0.43209877    0.70371392 T T T
    0.83950617    0.45987654    0.62037938 T T T
    0.86728395    0.48765432    0.53704484 T T T
    0.89506173    0.51543210    0.45371029 T T T
    0.92283951    0.54320988    0.37037575 T T T
    0.68209877    0.44135802    0.92593937 T T T
    0.70987654    0.46913580    0.84260483 T T T
    0.73765432    0.49691358    0.75927029 T T T
    0.76543210    0.52469136    0.67593574 T T T
    0.79320988    0.55246914    0.59260120 T T T
    0.82098765    0.58024691    0.50926666 T T T
    0.84876543    0.60802469    0.42593211 T T T
    0.87654321    0.63580247    0.34259757 T T T
    0.63580247    0.53395062    0.89816119 T T T
    0.66358025    0.56172840    0.81482665 T T T
    0.69135802    0.58950617    0.73149211 T T T
    0.74691358    0.64506173    0.56482302 T T T
    0.77469136    0.67283951    0.48148847 T T T
    0.83024691    0.72839506    0.31481939 T T T
    0.97222222    0.63888889    0.83334544 T T T
    0.13888889    0.63888889    0.83334544 T T T
    0.22222222    0.63888889    0.83334544 T T T
    0.47222222    0.63888889    0.83334544 T T T
    0.63888889    0.63888889    0.83334544 T T T
    0.72222222    0.63888889    0.83334544 T T T
    0.80555556    0.63888889    0.83334544 T T T
    0.88888889    0.63888889    0.83334544 T T T
    0.97222222    0.72222222    0.83334544 T T T
    0.05555556    0.72222222    0.83334544 T T T
    0.13888889    0.72222222    0.83334544 T T T
    0.47222222    0.72222222    0.83334544 T T T
    0.55555556    0.72222222    0.83334544 T T T
    0.63888889    0.72222222    0.83334544 T T T
    0.72222222    0.72222222    0.83334544 T T T
    0.80555556    0.72222222    0.83334544 T T T
    0.88888889    0.72222222    0.83334544 T T T
    0.97222222    0.80555556    0.83334544 T T T
    0.05555556    0.80555556    0.83334544 T T T
    0.13888889    0.80555556    0.83334544 T T T
    0.47222222    0.80555556    0.83334544 T T T
    0.55555556    0.80555556    0.83334544 T T T
    0.63888889    0.80555556    0.83334544 T T T
    0.72222222    0.80555556    0.83334544 T T T
    0.80555556    0.80555556    0.83334544 T T T
    0.88888889    0.80555556    0.83334544 T T T
    0.97222222    0.88888889    0.83334544 T T T
    0.05555556    0.88888889    0.83334544 T T T
    0.47222222    0.88888889    0.83334544 T T T
    0.55555556    0.88888889    0.83334544 T T T
    0.63888889    0.88888889    0.83334544 T T T
    0.72222222    0.88888889    0.83334544 T T T
    0.80555556    0.88888889    0.83334544 T T T
    0.88888889    0.88888889    0.83334544 T T T
    0.97222222    0.97222222    0.83334544 T T T
    0.05555556    0.97222222    0.83334544 T T T
    0.22222222    0.97222222    0.83334544 T T T
    0.30555556    0.97222222    0.83334544 T T T
    0.38888889    0.97222222    0.83334544 T T T
    0.47222222    0.97222222    0.83334544 T T T
    0.55555556    0.97222222    0.83334544 T T T
    0.63888889    0.97222222    0.83334544 T T T
    0.72222222    0.97222222    0.83334544 T T T
    0.80555556    0.97222222    0.83334544 T T T
    0.88888889    0.97222222    0.83334544 T T T
    0.00000000    0.00000000    0.91667998 T T T
    0.08333333    0.00000000    0.91667998 T T T
    0.16666667    0.00000000    0.91667998 T T T
    0.25000000    0.00000000    0.91667998 T T T
    0.33333333    0.00000000    0.91667998 T T T
    0.41666667    0.00000000    0.91667998 T T T
    0.50000000    0.00000000    0.91667998 T T T
    0.58333333    0.00000000    0.91667998 T T T
    0.66666667    0.00000000    0.91667998 T T T
    0.75000000    0.00000000    0.91667998 T T T
    0.83333333    0.00000000    0.91667998 T T T
    0.91666667    0.00000000    0.91667998 T T T
    0.00000000    0.08333333    0.91667998 T T T
    0.08333333    0.08333333    0.91667998 T T T
    0.16666667    0.08333333    0.91667998 T T T
    0.25000000    0.08333333    0.91667998 T T T
    0.33333333    0.08333333    0.91667998 T T T
    0.41666667    0.08333333    0.91667998 T T T
    0.50000000    0.08333333    0.91667998 T T T
    0.58333333    0.08333333    0.91667998 T T T
    0.66666667    0.08333333    0.91667998 T T T
    0.75000000    0.08333333    0.91667998 T T T
    0.83333333    0.08333333    0.91667998 T T T
    0.91666667    0.08333333    0.91667998 T T T
    0.89197531    0.24382716    0.93519877 T T T
    0.91975309    0.27160494    0.85186422 T T T
    0.94753086    0.29938272    0.76852968 T T T
    0.97530864    0.32716049    0.68519514 T T T
    0.00308642    0.35493827    0.60186059 T T T
    0.03086420    0.38271605    0.51852605 T T T
    0.05864198    0.41049383    0.43519151 T T T
    0.84567901    0.33641975    0.90742059 T T T
    0.87345679    0.36419753    0.82408604 T T T
    0.90123457    0.39197531    0.74075150 T T T
    0.92901235    0.41975309    0.65741696 T T T
    0.95679012    0.44753086    0.57408241 T T T
    0.98456790    0.47530864    0.49074787 T T T
    0.01234568    0.50308642    0.40741332 T T T
    0.79938272    0.42901235    0.87964241 T T T
    0.82716049    0.45679012    0.79630786 T T T
    0.85493827    0.48456790    0.71297332 T T T
    0.88271605    0.51234568    0.62963877 T T T
    0.91049383    0.54012346    0.54630423 T T T
    0.93827160    0.56790123    0.46296969 T T T
    0.96604938    0.59567901    0.37963514 T T T
    0.72530864    0.49382716    0.93519877 T T T
    0.75308642    0.52160494    0.85186422 T T T
    0.78086420    0.54938272    0.76852968 T T T
    0.80864198    0.57716049    0.68519514 T T T
    0.83641975    0.60493827    0.60186059 T T T
    0.86419753    0.63271605    0.51852605 T T T
    0.89197531    0.66049383    0.43519151 T T T
    0.91975309    0.68827160    0.35185696 T T T
    0.00000000    0.58333333    0.91667998 T T T
    0.16666667    0.58333333    0.91667998 T T T
    0.25000000    0.58333333    0.91667998 T T T
    0.66666667    0.58333333    0.91667998 T T T
    0.75000000    0.58333333    0.91667998 T T T
    0.83333333    0.58333333    0.91667998 T T T
    0.91666667    0.58333333    0.91667998 T T T
    0.00000000    0.66666667    0.91667998 T T T
    0.08333333    0.66666667    0.91667998 T T T
    0.16666667    0.66666667    0.91667998 T T T
    0.58333333    0.66666667    0.91667998 T T T
    0.66666667    0.66666667    0.91667998 T T T
    0.75000000    0.66666667    0.91667998 T T T
    0.83333333    0.66666667    0.91667998 T T T
    0.91666667    0.66666667    0.91667998 T T T
    0.00000000    0.75000000    0.91667998 T T T
    0.08333333    0.75000000    0.91667998 T T T
    0.58333333    0.75000000    0.91667998 T T T
    0.66666667    0.75000000    0.91667998 T T T
    0.75000000    0.75000000    0.91667998 T T T
    0.83333333    0.75000000    0.91667998 T T T
    0.91666667    0.75000000    0.91667998 T T T
    0.00000000    0.83333333    0.91667998 T T T
    0.08333333    0.83333333    0.91667998 T T T
    0.50000000    0.83333333    0.91667998 T T T
    0.58333333    0.83333333    0.91667998 T T T
    0.66666667    0.83333333    0.91667998 T T T
    0.75000000    0.83333333    0.91667998 T T T
    0.83333333    0.83333333    0.91667998 T T T
    0.91666667    0.83333333    0.91667998 T T T
    0.00000000    0.91666667    0.91667998 T T T
    0.25000000    0.91666667    0.91667998 T T T
    0.41666667    0.91666667    0.91667998 T T T
    0.50000000    0.91666667    0.91667998 T T T
    0.58333333    0.91666667    0.91667998 T T T
    0.66666667    0.91666667    0.91667998 T T T
    0.75000000    0.91666667    0.91667998 T T T
    0.83333333    0.91666667    0.91667998 T T T
    0.91666667    0.91666667    0.91667998 T T T
