Generated generic
1.0
    7.66857304    0.00000000    0.00000000
    0.00000000    8.85490542    0.00000000
    0.00000000    0.00000000   40.04545468
 Cu
 144
Selective dynamics
Direct
    0.16681940    0.08329850    0.00002055 F F F
    0.50000231    0.08214802    0.00034369 F F F
    0.83075598    0.08251740    0.00027308 F F F
    0.00125488    0.33262102    0.99969250 F F F
    0.33432777    0.33328927    0.99998817 F F F
    0.66515103    0.33277966    0.99976309 F F F
    0.16699561    0.58286293    0.00002404 F F F
    0.50067668    0.58406582    0.99975779 F F F
    0.83351397    0.58337555    0.00043907 F F F
    0.00220146    0.83165625    0.99964206 F F F
    0.33557363    0.83452805    0.00038340 F F F
    0.66635270    0.83330723    0.99992130 F F F
    0.99970196    0.16511020    0.05166807 F F F
    0.33156520    0.16676238    0.05215947 F F F
    0.66650645    0.16547121    0.05246872 F F F
    0.16445702    0.41693898    0.05211259 F F F
    0.50176080    0.41445572    0.05211070 F F F
    0.83288628    0.41653442    0.05261190 F F F
    0.99790887    0.66659338    0.05261307 F F F
    0.33129448    0.66632371    0.05200240 F F F
    0.66670795    0.66499053    0.05180851 F F F
    0.16555275    0.91712057    0.05208360 F F F
    0.49780265    0.91510007    0.05246006 F F F
    0.83438652    0.91754685    0.05260046 F F F
    0.99827290    0.00202618    0.10415757 F F F
    0.33555556    0.99911126    0.10452169 F F F
    0.66698744    0.99863223    0.10415742 F F F
    0.16526847    0.25224321    0.10455638 F F F
    0.49782268    0.25139609    0.10440526 F F F
    0.83409155    0.25048262    0.10438953 F F F
    0.00024466    0.49816333    0.10395825 F F F
    0.33463720    0.49882158    0.10382039 F F F
    0.66847333    0.49943359    0.10407382 F F F
    0.16664457    0.75159258    0.10393021 F F F
    0.50237878    0.75210173    0.10407270 F F F
    0.83277337    0.75095976    0.10389184 F F F
    0.16876874    0.08451464    0.15668596 F F F
    0.49764395    0.08175278    0.15621148 F F F
    0.83118680    0.08486118    0.15625427 F F F
    0.00221636    0.33395471    0.15663939 F F F
    0.33507573    0.33137522    0.15627023 F F F
    0.66779745    0.33371446    0.15657334 F F F
    0.16815896    0.58501037    0.15590520 F F F
    0.50101162    0.58210505    0.15663609 F F F
    0.83161037    0.58468808    0.15681587 F F F
    0.99765799    0.83156798    0.15610267 F F F
    0.33381042    0.83386376    0.15646159 F F F
    0.66917575    0.83508707    0.15668778 F F F
    0.99784118    0.16463814    0.20866775 F F F
    0.33130105    0.16768877    0.20881499 F F F
    0.66869576    0.16814288    0.20808425 F F F
    0.16792045    0.41803929    0.20871299 F F F
    0.50046280    0.41569308    0.20890279 F F F
    0.83149710    0.41687799    0.20835304 F F F
    0.00110556    0.66469035    0.20896095 F F F
    0.33452407    0.66612423    0.20840248 F F F
    0.66861523    0.66883284    0.20858956 F F F
    0.16808941    0.91670674    0.20872725 F F F
    0.49879166    0.91496013    0.20803699 F F F
    0.83307478    0.91876424    0.20802040 F F F
    0.00071030    0.99930707    0.26052957 F F F
    0.33455368    0.00108782    0.26041569 F F F
    0.66589190    0.00166512    0.26096482 F F F
    0.16556464    0.25208337    0.26088108 F F F
    0.49934255    0.24881324    0.26040159 F F F
    0.83401867    0.24775298    0.26077669 F F F
    0.00191378    0.49824549    0.26077786 F F F
    0.33539054    0.49971329    0.26081134 F F F
    0.66677580    0.49905746    0.26086056 F F F
    0.16830079    0.75106961    0.26034762 F F F
    0.50055809    0.75077628    0.26048283 F F F
    0.83346301    0.75089836    0.26091566 F F F
    0.46630107    0.08454020    0.31234127 F F T
    0.79837294    0.08487986    0.31273104 F F T
    0.13225797    0.08239723    0.31243609 F F T
    0.29938978    0.33314234    0.31291922 F F T
    0.63319405    0.33472579    0.31224260 F F T
    0.96865068    0.33126605    0.31262092 F F T
    0.46921251    0.58409658    0.31275693 F F T
    0.79981229    0.58360208    0.31266372 F F T
    0.13172807    0.58143707    0.31303936 F F T
    0.29778215    0.83349890    0.31317163 F F T
    0.63332811    0.83204321    0.31301569 F F T
    0.96627007    0.83181884    0.31309605 F F T
    0.29842716    0.16624117    0.36489616 F F T
    0.63178964    0.16838474    0.36486879 F F T
    0.96455073    0.16855548    0.36434314 F F T
    0.46799932    0.41813128    0.36485992 F F T
    0.80213300    0.41867557    0.36510071 F F T
    0.13290681    0.41531594    0.36441798 F F T
    0.30120921    0.66636000    0.36433526 F F T
    0.63190744    0.66810650    0.36437358 F F T
    0.96689109    0.66452760    0.36531256 F F T
    0.46826844    0.91766925    0.36444527 F F T
    0.80126972    0.91804997    0.36515543 F F T
    0.13176578    0.91644365    0.36502438 F F T
    0.29987407    0.99955785    0.41675994 F F T
    0.63110599    0.99778292    0.41743069 F F T
    0.96570059    0.99835618    0.41670479 F F T
    0.46630457    0.25126917    0.41688319 F F T
    0.79949597    0.24793878    0.41659389 F F T
    0.13509873    0.25167745    0.41692798 F F T
    0.29764749    0.50133552    0.41739883 F F T
    0.63414937    0.50103233    0.41710835 F F T
    0.96660036    0.49895319    0.41715924 F F T
    0.46635228    0.74968124    0.41665156 F F T
    0.79909092    0.74936610    0.41653883 F F T
    0.13508329    0.74824189    0.41689238 F F T
    0.46503146    0.08167215    0.46878555 F F T
    0.79977461    0.08237683    0.46930250 F F T
    0.13514537    0.08152124    0.46944424 F F T
    0.29797443    0.33145292    0.46910074 F F T
    0.63378681    0.33417664    0.46881409 F F T
    0.96874807    0.33291846    0.46948567 F F T
    0.46579664    0.58320233    0.46917425 F F T
    0.80006952    0.58283161    0.46876637 F F T
    0.13356604    0.58376135    0.46941762 F F T
    0.29749627    0.83525866    0.46912681 F F T
    0.63495453    0.83512993    0.46940220 F F T
    0.96592559    0.83249689    0.46863740 F F T
    0.30254975    0.16839559    0.52142125 F F T
    0.63458259    0.16802402    0.52093626 F F T
    0.96759402    0.16537515    0.52140204 F F T
    0.46865694    0.41581761    0.52098111 F F T
    0.80191140    0.41703587    0.52069963 F F T
    0.13239616    0.41890553    0.52165246 F F T
    0.29857137    0.66505302    0.52138685 F F T
    0.63177979    0.66790696    0.52091374 F F T
    0.96895506    0.66514448    0.52122803 F F T
    0.46748979    0.91880834    0.52164190 F F T
    0.79880738    0.91881693    0.52164176 F F T
    0.13230410    0.91561163    0.52107903 F F T
    0.29946447    0.00203916    0.57316265 F F T
    0.63119388    0.00103856    0.57287520 F F T
    0.96765968    0.00124439    0.57373478 F F T
    0.46428515    0.25084772    0.57319003 F F T
    0.80192745    0.24918813    0.57337523 F F T
    0.13313962    0.25095869    0.57336912 F F T
    0.30020575    0.49808484    0.57285287 F F T
    0.63224451    0.49885626    0.57352239 F F T
    0.96667759    0.50077986    0.57355832 F F T
    0.46604092    0.75102215    0.57315881 F F T
    0.79763977    0.74791444    0.57317813 F F T
    0.13210546    0.74923483    0.57357084 F F T
