Generated generic
1.0
    7.66857304    0.00000000    0.00000000
    0.00000000    8.85490542    0.00000000
    0.00000000    0.00000000   40.04545468
 Cu
 144
Selective dynamics
Direct
    0.16593215    0.08558122    0.99950736 F F F
    0.50260333    0.08192874    0.00021476 F F F
    0.83210478    0.08202769    0.00007490 F F F
    0.99917625    0.33538207    0.00044133 F F F
    0.33291115    0.33535842    0.00003251 F F F
    0.66862559    0.33538991    0.99971829 F F F
    0.16460619    0.58383248    0.99987131 F F F
    0.50205800    0.58309782    0.99950953 F F F
    0.83192714    0.58208476    0.00005405 F F F
    0.99855169    0.83152785    0.00004173 F F F
    0.33464570    0.83356499    0.99991795 F F F
    0.66696523    0.83117829    0.00022730 F F F
    0.00162317    0.16731423    0.05170410 F F F
    0.33127364    0.16735850    0.05165736 F F F
    0.66914236    0.16825056    0.05243312 F F F
    0.16507285    0.41541245    0.05187955 F F F
    0.49872695    0.41456004    0.05195849 F F F
    0.83315949    0.41736610    0.05204200 F F F
    0.00078609    0.66813733    0.05226553 F F F
    0.33230472    0.66520718    0.05169621 F F F
    0.66620536    0.66582338    0.05251359 F F F
    0.16628970    0.91632890    0.05217821 F F F
    0.50221790    0.91881036    0.05255511 F F F
    0.83453108    0.91603833    0.05201438 F F F
    0.00145688    0.00118156    0.10373898 F F F
    0.33567719    0.99960072    0.10394962 F F F
    0.66907722    0.99936562    0.10438859 F F F
    0.16454511    0.25131726    0.10465928 F F F
    0.50008458    0.24995133    0.10414252 F F F
    0.83386456    0.25012348    0.10387905 F F F
    0.99850351    0.50100967    0.10456285 F F F
    0.33119058    0.50104927    0.10457974 F F F
    0.66557701    0.50224135    0.10375345 F F F
    0.16737652    0.74897778    0.10425409 F F F
    0.50085304    0.74985297    0.10377887 F F F
    0.83388118    0.75034738    0.10468517 F F F
    0.16839851    0.08224251    0.15652366 F F F
    0.50220884    0.08134885    0.15597871 F F F
    0.83444473    0.08181872    0.15637703 F F F
    0.00167124    0.33299594    0.15658225 F F F
    0.33417896    0.33489782    0.15588989 F F F
    0.66564433    0.33313717    0.15661128 F F F
    0.16824721    0.58357104    0.15601732 F F F
    0.50183668    0.58360293    0.15662133 F F F
    0.83306150    0.58316619    0.15587394 F F F
    0.00257094    0.83186339    0.15618473 F F F
    0.33417385    0.83119559    0.15632840 F F F
    0.66622997    0.83247585    0.15602737 F F F
    0.99983325    0.16562288    0.20803212 F F F
    0.33390810    0.16645575    0.20828789 F F F
    0.66608324    0.16817688    0.20826436 F F F
    0.16897212    0.41703083    0.20870159 F F F
    0.50105937    0.41475506    0.20858174 F F F
    0.83243744    0.41616835    0.20873256 F F F
    0.00172546    0.66730628    0.20810315 F F F
    0.33335956    0.66837935    0.20867770 F F F
    0.66574645    0.66707028    0.20857139 F F F
    0.16880941    0.91670407    0.20805628 F F F
    0.50047242    0.91444822    0.20865449 F F F
    0.83227651    0.91827041    0.20835100 F F F
    0.00200633    0.00053747    0.26011420 F F F
    0.33432078    0.99803082    0.26103029 F F F
    0.66739259    0.00066025    0.26028397 F F F
    0.16851622    0.24806963    0.26100785 F F F
    0.50140205    0.24820606    0.26017390 F F F
    0.83521279    0.24800619    0.26107234 F F F
    0.00169978    0.49993648    0.26055705 F F F
    0.33225816    0.49932248    0.26093513 F F F
    0.66826230    0.50173426    0.26108996 F F F
    0.16840885    0.74979354    0.26023539 F F F
    0.50114261    0.74977975    0.26043021 F F F
    0.83391969    0.74840187    0.26092976 F F F
    0.39951038    0.08329945    0.31275377 F F T
    0.73459678    0.08382584    0.31262209 F F T
    0.06927084    0.08139754    0.31228420 F F T
    0.23398536    0.33328057    0.31273323 F F T
    0.56913186    0.33466490    0.31314658 F F T
    0.89809301    0.33492865    0.31242659 F F T
    0.39882649    0.58233632    0.31310251 F F T
    0.73549051    0.58247714    0.31276074 F F T
    0.06737042    0.58554731    0.31267464 F F T
    0.23583193    0.83280835    0.31247404 F F T
    0.56726425    0.83425154    0.31247967 F F T
    0.90035336    0.83204452    0.31255262 F F T
    0.23110881    0.16678012    0.36451764 F F T
    0.56914947    0.16692931    0.36474842 F F T
    0.90047991    0.16601155    0.36442156 F F T
    0.40061544    0.41873243    0.36511883 F F T
    0.73585280    0.41517129    0.36526691 F F T
    0.06850738    0.41538947    0.36528682 F F T
    0.23179813    0.66807324    0.36465064 F F T
    0.56703976    0.66541759    0.36456751 F F T
    0.90164521    0.66625169    0.36486303 F F T
    0.39877199    0.91842614    0.36501503 F F T
    0.73360746    0.91473628    0.36495202 F F T
    0.06586295    0.91477969    0.36483059 F F T
    0.23182545    0.00079228    0.41714602 F F T
    0.56845543    0.99865398    0.41656452 F F T
    0.90088625    0.99915156    0.41660839 F F T
    0.39745862    0.24953374    0.41744605 F F T
    0.73504852    0.24914380    0.41735989 F F T
    0.06578739    0.25047897    0.41654611 F F T
    0.23447254    0.49909461    0.41720346 F F T
    0.56455792    0.50133098    0.41726353 F F T
    0.90127406    0.49978893    0.41716572 F F T
    0.40165607    0.74898459    0.41673323 F F T
    0.73082673    0.75110887    0.41652482 F F T
    0.06599872    0.74850307    0.41688168 F F T
    0.39953030    0.08470559    0.46921451 F F T
    0.73259544    0.08464668    0.46922699 F F T
    0.06922864    0.08177420    0.46889104 F F T
    0.23350296    0.33541346    0.46908311 F F T
    0.56522367    0.33135745    0.46912827 F F T
    0.89772515    0.33152050    0.46946214 F F T
    0.40106011    0.58137551    0.46937756 F F T
    0.73110023    0.58249904    0.46890597 F F T
    0.06643632    0.58147197    0.46869773 F F T
    0.23133396    0.83541993    0.46916527 F F T
    0.56810576    0.83217280    0.46918620 F F T
    0.89973109    0.83485819    0.46902454 F F T
    0.23318029    0.16724116    0.52070867 F F T
    0.56834726    0.16576894    0.52074708 F F T
    0.89817432    0.16881825    0.52143836 F F T
    0.39753946    0.41578015    0.52084496 F F T
    0.73117293    0.41790182    0.52111172 F F T
    0.06672831    0.41480952    0.52140711 F F T
    0.23213302    0.66555299    0.52130456 F F T
    0.56824981    0.66531814    0.52072643 F F T
    0.90016837    0.66558436    0.52113717 F F T
    0.40124328    0.91614554    0.52115102 F F T
    0.73078179    0.91867535    0.52082059 F F T
    0.06625366    0.91873361    0.52152046 F F T
    0.23439736    0.99921047    0.57299527 F F T
    0.56766103    0.00128901    0.57320427 F F T
    0.90079098    0.99930037    0.57343697 F F T
    0.39935885    0.25012589    0.57302395 F F T
    0.73210268    0.25064873    0.57346956 F F T
    0.06913966    0.25166810    0.57351026 F F T
    0.23280562    0.49840710    0.57338169 F F T
    0.56448874    0.49908669    0.57357650 F F T
    0.89891151    0.49815275    0.57347335 F F T
    0.39850879    0.75137716    0.57295802 F F T
    0.73124950    0.75011568    0.57322372 F F T
    0.06705294    0.75174301    0.57282027 F F T
