Generated generic
1.0
    7.66857304    0.00000000    0.00000000
    0.00000000    8.85490542    0.00000000
    0.00000000    0.00000000   40.04545468
 Cu
 144
Selective dynamics
Direct
    0.16506821    0.08208273    0.00022859 F F F
    0.49741920    0.08202981    0.00005270 F F F
    0.83226130    0.08227419    0.99963627 F F F
    0.00079868    0.33332620    0.00019626 F F F
    0.33553241    0.33111252    0.99979360 F F F
    0.66434317    0.33310566    0.99975480 F F F
    0.16733739    0.58129030    0.99992965 F F F
    0.50215730    0.58289445    0.99955500 F F F
    0.83375889    0.58496193    0.99990112 F F F
    0.99889527    0.83182438    0.00035039 F F F
    0.33103953    0.83191099    0.00046179 F F F
    0.66605385    0.83165602    0.99971279 F F F
    0.99843164    0.16474038    0.05193788 F F F
    0.33422063    0.16754972    0.05165014 F F F
    0.66498636    0.16685825    0.05180517 F F F
    0.16897876    0.41594302    0.05241866 F F F
    0.50061320    0.41485078    0.05163179 F F F
    0.83382637    0.41455026    0.05190739 F F F
    0.00209386    0.66491791    0.05243741 F F F
    0.33232192    0.66740097    0.05186736 F F F
    0.66777722    0.66497638    0.05189802 F F F
    0.16891108    0.91479682    0.05191665 F F F
    0.50131551    0.91631901    0.05179320 F F F
    0.83179847    0.91455183    0.05171523 F F F
    0.99894775    0.99865224    0.10412267 F F F
    0.33519858    0.99858121    0.10403599 F F F
    0.66524210    0.99865136    0.10457428 F F F
    0.16433771    0.24950274    0.10390611 F F F
    0.49845108    0.24848249    0.10386471 F F F
    0.83102789    0.24913950    0.10426512 F F F
    0.99809868    0.50101279    0.10378751 F F F
    0.33402526    0.50093718    0.10388785 F F F
    0.66924946    0.50185534    0.10386557 F F F
    0.16514758    0.74791867    0.10425089 F F F
    0.49994051    0.74967067    0.10460599 F F F
    0.83102068    0.75117718    0.10431601 F F F
    0.16796810    0.08175238    0.15682448 F F F
    0.49804376    0.08422574    0.15672638 F F F
    0.83234578    0.08538048    0.15676594 F F F
    0.99965505    0.33175479    0.15684781 F F F
    0.33574678    0.33294370    0.15654115 F F F
    0.66413604    0.33397815    0.15670791 F F F
    0.16839435    0.58346054    0.15658183 F F F
    0.50185033    0.58406586    0.15645840 F F F
    0.83250889    0.58183814    0.15601448 F F F
    0.00210207    0.83429169    0.15621500 F F F
    0.33393107    0.83531012    0.15610272 F F F
    0.66471639    0.83343551    0.15634089 F F F
    0.00133246    0.16745900    0.20860373 F F F
    0.33328207    0.16890111    0.20821558 F F F
    0.66723630    0.16485827    0.20880614 F F F
    0.16623970    0.41522799    0.20801334 F F F
    0.49831568    0.41524036    0.20877699 F F F
    0.83273030    0.41559231    0.20891274 F F F
    0.99993139    0.66805490    0.20841592 F F F
    0.33571589    0.66790084    0.20879929 F F F
    0.66750704    0.66732634    0.20848276 F F F
    0.16675625    0.91608751    0.20868938 F F F
    0.49810740    0.91468911    0.20839454 F F F
    0.83383818    0.91883970    0.20875623 F F F
    0.99819127    0.99953280    0.26101454 F F F
    0.33376036    0.00128915    0.26012363 F F F
    0.66777382    0.99826648    0.26071434 F F F
    0.16921356    0.25131291    0.26042844 F F F
    0.50198039    0.25097789    0.26029609 F F F
    0.83087828    0.24964262    0.26052995 F F F
    0.00249295    0.50000179    0.26032396 F F F
    0.33176784    0.50208872    0.26019956 F F F
    0.66582922    0.49873325    0.26045680 F F F
    0.16570383    0.75073005    0.26051210 F F F
    0.49996054    0.74847916    0.26090572 F F F
    0.83415316    0.74793319    0.26090452 F F F
    0.35239026    0.08379421    0.31296455 F F T
    0.68532592    0.08534086    0.31291699 F F T
    0.01599750    0.08406449    0.31300149 F F T
    0.18323304    0.33388357    0.31288828 F F T
    0.51887042    0.33163688    0.31278423 F F T
    0.85247502    0.33267876    0.31255500 F F T
    0.34960370    0.58442948    0.31308941 F F T
    0.68139540    0.58295026    0.31312986 F F T
    0.01923225    0.58431387    0.31259618 F F T
    0.18529545    0.83312020    0.31242138 F F T
    0.51469187    0.83426425    0.31253093 F F T
    0.85169326    0.83530873    0.31297762 F F T
    0.18493602    0.16617871    0.36477500 F F T
    0.51537150    0.16720814    0.36505484 F F T
    0.85009931    0.16446406    0.36456394 F F T
    0.34867676    0.41455913    0.36437716 F F T
    0.68269075    0.41518283    0.36448053 F F T
    0.01844636    0.41870249    0.36495052 F F T
    0.18284632    0.66444228    0.36469267 F F T
    0.51801116    0.66486402    0.36458587 F F T
    0.84959841    0.66612977    0.36460937 F F T
    0.34773932    0.91837800    0.36478556 F F T
    0.68314729    0.91655322    0.36517328 F F T
    0.01638446    0.91658533    0.36447979 F F T
    0.18076080    0.99932974    0.41710327 F F T
    0.51713330    0.99871694    0.41700051 F F T
    0.85127831    0.99866994    0.41648533 F F T
    0.34904711    0.24929738    0.41739910 F F T
    0.68285319    0.24882105    0.41680927 F F T
    0.01642910    0.25204583    0.41687953 F F T
    0.18562677    0.49803132    0.41706131 F F T
    0.51831762    0.49929264    0.41645602 F F T
    0.84862348    0.49962542    0.41688282 F F T
    0.34839443    0.75140950    0.41693820 F F T
    0.68330601    0.75151724    0.41722166 F F T
    0.01662411    0.75160216    0.41653203 F F T
    0.34937726    0.08383241    0.46872002 F F T
    0.68574862    0.08285404    0.46924631 F F T
    0.01636526    0.08347366    0.46916891 F F T
    0.18553155    0.33177413    0.46938638 F F T
    0.51630310    0.33257614    0.46903770 F F T
    0.84815785    0.33211755    0.46934918 F F T
    0.35233131    0.58451120    0.46869666 F F T
    0.68518943    0.58164866    0.46918564 F F T
    0.01575861    0.58307970    0.46955221 F F T
    0.18236343    0.83355309    0.46900935 F F T
    0.51922287    0.83145628    0.46866192 F F T
    0.84815149    0.83233981    0.46916494 F F T
    0.18092833    0.16868610    0.52125612 F F T
    0.51685963    0.16741000    0.52144341 F F T
    0.85214023    0.16855234    0.52104693 F F T
    0.35173337    0.41634330    0.52132683 F F T
    0.68361279    0.41883839    0.52142730 F F T
    0.01911312    0.41801151    0.52162778 F F T
    0.18510043    0.66752323    0.52142310 F F T
    0.51420978    0.66593694    0.52115481 F F T
    0.84881355    0.66611082    0.52167944 F F T
    0.35014893    0.91656919    0.52120691 F F T
    0.68392427    0.91732911    0.52097204 F F T
    0.01681208    0.91838996    0.52121938 F F T
    0.18374207    0.00042685    0.57354919 F F T
    0.51696720    0.00023392    0.57353139 F F T
    0.84905006    0.99905421    0.57298170 F F T
    0.34979346    0.24785304    0.57287874 F F T
    0.68565089    0.25122979    0.57312531 F F T
    0.01831639    0.24856290    0.57303645 F F T
    0.18276679    0.49886474    0.57328165 F F T
    0.51713750    0.50048179    0.57367051 F F T
    0.84983711    0.49776476    0.57294907 F F T
    0.34890674    0.74967904    0.57356656 F F T
    0.68587052    0.75124413    0.57290339 F F T
    0.01524243    0.74918570    0.57304449 F F T
