Generated generic
1.0
    7.66857304    0.00000000    0.00000000
    0.00000000    8.85490542    0.00000000
    0.00000000    0.00000000   40.04545468
 Cu
 144
Selective dynamics
Direct
    0.16743257    0.08407380    0.99953044 F F F
    0.49831954    0.08366534    0.00005111 F F F
    0.83347375    0.08276525    0.99956129 F F F
    0.99932187    0.33268969    0.99974185 F F F
    0.33095570    0.33517980    0.00002670 F F F
    0.66465109    0.33171272    0.99994691 F F F
    0.16667445    0.58462240    0.99954170 F F F
    0.49881042    0.58491297    0.00041920 F F F
    0.83365493    0.58228097    0.00023593 F F F
    0.99757159    0.83401209    0.99968101 F F F
    0.33310538    0.83412834    0.00037054 F F F
    0.66804376    0.83442431    0.00022963 F F F
    0.99970469    0.16567575    0.05246674 F F F
    0.33386821    0.16730059    0.05185963 F F F
    0.66916043    0.16812079    0.05210367 F F F
    0.16450769    0.41889442    0.05183820 F F F
    0.50009146    0.41793759    0.05168066 F F F
    0.83324980    0.41843820    0.05255795 F F F
    0.00092061    0.66805345    0.05201801 F F F
    0.33292757    0.66885551    0.05206143 F F F
    0.66563400    0.66684445    0.05212366 F F F
    0.16817370    0.91821883    0.05174318 F F F
    0.49890914    0.91725215    0.05180070 F F F
    0.83364918    0.91742671    0.05194881 F F F
    0.99799851    0.99888096    0.10409843 F F F
    0.33298203    0.00134329    0.10396756 F F F
    0.66448901    0.99959453    0.10418823 F F F
    0.16870337    0.24782784    0.10410435 F F F
    0.50186725    0.25029445    0.10400072 F F F
    0.83433780    0.25125025    0.10383286 F F F
    0.00241109    0.50213334    0.10414624 F F F
    0.33470010    0.50037519    0.10383341 F F F
    0.66891614    0.50158030    0.10449562 F F F
    0.16617727    0.74884265    0.10466493 F F F
    0.50136682    0.74857887    0.10435853 F F F
    0.83309060    0.74905251    0.10380656 F F F
    0.16926976    0.08332172    0.15643870 F F F
    0.50196513    0.08513873    0.15674189 F F F
    0.83292059    0.08486928    0.15656239 F F F
    0.00042342    0.33316525    0.15640783 F F F
    0.33077134    0.33269222    0.15630488 F F F
    0.66640445    0.33520070    0.15591842 F F F
    0.16875851    0.58509658    0.15654262 F F F
    0.49903117    0.58253657    0.15593414 F F F
    0.83291141    0.58321793    0.15684737 F F F
    0.99907551    0.83407352    0.15664729 F F F
    0.33380514    0.83456347    0.15627991 F F F
    0.66574285    0.83511769    0.15654258 F F F
    0.00251026    0.16498556    0.20809460 F F F
    0.33513434    0.16599538    0.20891447 F F F
    0.66545101    0.16670038    0.20844010 F F F
    0.16460589    0.41831137    0.20805515 F F F
    0.50049657    0.41649911    0.20815980 F F F
    0.83089444    0.41556666    0.20896389 F F F
    0.99869014    0.66740813    0.20845487 F F F
    0.33239985    0.66812421    0.20835227 F F F
    0.66593514    0.66467124    0.20818853 F F F
    0.16750357    0.91466868    0.20891133 F F F
    0.50145453    0.91711622    0.20841870 F F F
    0.83160526    0.91806618    0.20884385 F F F
    0.99771468    0.99909058    0.26047114 F F F
    0.33352436    0.00057996    0.26106261 F F F
    0.66845847    0.00154840    0.26046163 F F F
    0.16716991    0.24901057    0.26084388 F F F
    0.50202622    0.24931750    0.26052999 F F F
    0.83149667    0.24780922    0.26071587 F F F
    0.99953329    0.49949147    0.26087583 F F F
    0.33538935    0.49912284    0.26060519 F F F
    0.66785423    0.50030311    0.26090226 F F F
    0.16497252    0.74779496    0.26010893 F F F
    0.49975851    0.75093892    0.26081525 F F F
    0.83306917    0.75132906    0.26028054 F F F
    0.20244083    0.08193144    0.31233106 F F T
    0.53083505    0.08518887    0.31253054 F F T
    0.86679194    0.08494281    0.31303478 F F T
    0.03476313    0.33441903    0.31267524 F F T
    0.36437035    0.33459660    0.31224118 F F T
    0.69822543    0.33259174    0.31247691 F F T
    0.19933769    0.58342505    0.31222217 F F T
    0.53321915    0.58545817    0.31267870 F F T
    0.86605145    0.58431850    0.31284233 F F T
    0.03085169    0.83447165    0.31295473 F F T
    0.36433408    0.83535433    0.31254285 F F T
    0.70071258    0.83454178    0.31283722 F F T
    0.03261386    0.16868870    0.36462588 F F T
    0.36428212    0.16624968    0.36442134 F F T
    0.70021989    0.16831987    0.36531132 F F T
    0.19965243    0.41577637    0.36453318 F F T
    0.53154420    0.41557554    0.36437361 F F T
    0.86570618    0.41572608    0.36481042 F F T
    0.03160264    0.66736565    0.36495110 F F T
    0.36491595    0.66647628    0.36463053 F F T
    0.70072091    0.66737619    0.36462668 F F T
    0.19789909    0.91587539    0.36441031 F F T
    0.53513538    0.91835063    0.36522989 F F T
    0.86890849    0.91740404    0.36442433 F F T
    0.03528044    0.00072408    0.41730685 F F T
    0.36712522    0.00005491    0.41713621 F F T
    0.69868672    0.99929950    0.41714641 F F T
    0.20185640    0.24894171    0.41742904 F F T
    0.53380829    0.25113562    0.41675314 F F T
    0.86604186    0.25155892    0.41705386 F F T
    0.03469936    0.50092801    0.41735198 F F T
    0.36850328    0.50140250    0.41696216 F F T
    0.69898074    0.50102207    0.41726589 F F T
    0.20198853    0.75009844    0.41697731 F F T
    0.53180748    0.75029047    0.41717778 F F T
    0.86902852    0.75153617    0.41673718 F F T
    0.20026217    0.08334664    0.46864803 F F T
    0.53422396    0.08116108    0.46868189 F F T
    0.86442499    0.08444458    0.46953436 F F T
    0.03339598    0.33491720    0.46918918 F F T
    0.36575829    0.33352753    0.46947779 F F T
    0.70147572    0.33335992    0.46916373 F F T
    0.20058697    0.58466403    0.46918730 F F T
    0.53547107    0.58418437    0.46879677 F F T
    0.86596346    0.58240780    0.46869187 F F T
    0.03081393    0.83193234    0.46906200 F F T
    0.36547126    0.83449486    0.46865271 F F T
    0.70229313    0.83261706    0.46889782 F F T
    0.03244683    0.16539756    0.52071597 F F T
    0.36459546    0.16736031    0.52125790 F F T
    0.69864313    0.16804163    0.52130823 F F T
    0.20131525    0.41726171    0.52107190 F F T
    0.53434467    0.41597712    0.52133616 F F T
    0.86430116    0.41526439    0.52124108 F F T
    0.03422074    0.66771506    0.52118161 F F T
    0.36514013    0.66750386    0.52130054 F F T
    0.69965448    0.66878177    0.52106551 F F T
    0.20229540    0.91759249    0.52092447 F F T
    0.53414509    0.91458012    0.52128720 F F T
    0.86900930    0.91753917    0.52119401 F F T
    0.03395976    0.99898515    0.57372483 F F T
    0.36735019    0.99982961    0.57375585 F F T
    0.70127318    0.00060911    0.57332617 F F T
    0.20064397    0.25203389    0.57320993 F F T
    0.53208840    0.25121737    0.57361463 F F T
    0.86922845    0.25165126    0.57334310 F F T
    0.03211773    0.49915526    0.57308128 F F T
    0.36557464    0.49788673    0.57338657 F F T
    0.69800218    0.49927385    0.57296281 F F T
    0.20136494    0.74830817    0.57339281 F F T
    0.53536553    0.75051911    0.57288341 F F T
    0.86694616    0.74932756    0.57338978 F F T
