Generated generic
1.0
    7.66857304    0.00000000    0.00000000
    0.00000000    8.85490542    0.00000000
    0.00000000    0.00000000   40.04545468
 Cu
 144
Selective dynamics
Direct
    0.16435929    0.08146192    0.99995368 F F F
    0.50052394    0.08223924    0.00017540 F F F
    0.83424858    0.08213784    0.00017476 F F F
    0.00172649    0.33341478    0.99969537 F F F
    0.33440209    0.33354450    0.99955677 F F F
    0.66499032    0.33558276    0.00040673 F F F
    0.16744316    0.58197301    0.99971143 F F F
    0.50166000    0.58229392    0.00022480 F F F
    0.83252884    0.58316791    0.99972562 F F F
    0.99741531    0.83323906    0.99978970 F F F
    0.33167421    0.83246496    0.99994632 F F F
    0.66625160    0.83266611    0.99955966 F F F
    0.99999985    0.16810798    0.05168174 F F F
    0.33507565    0.16806364    0.05212495 F F F
    0.66464139    0.16512246    0.05217295 F F F
    0.16696288    0.41594985    0.05181223 F F F
    0.49844176    0.41566673    0.05235298 F F F
    0.83358501    0.41470340    0.05216815 F F F
    0.99989818    0.66514052    0.05215474 F F F
    0.33101568    0.66553799    0.05190991 F F F
    0.66828230    0.66860844    0.05248866 F F F
    0.16657930    0.91742357    0.05224771 F F F
    0.49988818    0.91847878    0.05175961 F F F
    0.83586288    0.91850183    0.05175105 F F F
    0.99841162    0.99891668    0.10374220 F F F
    0.33087305    0.00036527    0.10473148 F F F
    0.66785381    0.00105142    0.10374380 F F F
    0.16448606    0.25004653    0.10443212 F F F
    0.49796872    0.25099525    0.10402858 F F F
    0.83130045    0.24812296    0.10399105 F F F
    0.00069193    0.49978479    0.10381080 F F F
    0.33226402    0.49970160    0.10423328 F F F
    0.66422449    0.50127546    0.10384674 F F F
    0.16461599    0.75155726    0.10423892 F F F
    0.49800364    0.74925641    0.10395375 F F F
    0.83178760    0.74823755    0.10441892 F F F
    0.16454285    0.08299065    0.15652673 F F F
    0.49784676    0.08522043    0.15600273 F F F
    0.83410154    0.08399121    0.15596550 F F F
    0.00097395    0.33375565    0.15683551 F F F
    0.33553374    0.33492983    0.15620648 F F F
    0.66897740    0.33146880    0.15670518 F F F
    0.16564273    0.58507568    0.15597982 F F F
    0.50147754    0.58174549    0.15660173 F F F
    0.83505242    0.58312809    0.15657005 F F F
    0.99746094    0.83178098    0.15610010 F F F
    0.33408859    0.83161228    0.15615579 F F F
    0.66584133    0.83497837    0.15603549 F F F
    0.99922011    0.16651567    0.20852588 F F F
    0.33204040    0.16795102    0.20889944 F F F
    0.66820679    0.16848902    0.20825803 F F F
    0.16693070    0.41763051    0.20875424 F F F
    0.49987690    0.41514622    0.20804115 F F F
    0.83529433    0.41854717    0.20842921 F F F
    0.99742439    0.66707817    0.20860064 F F F
    0.33087930    0.66532523    0.20877650 F F F
    0.66789643    0.66830672    0.20842265 F F F
    0.16683930    0.91773271    0.20893627 F F F
    0.49908541    0.91622533    0.20825601 F F F
    0.83206637    0.91652897    0.20885677 F F F
    0.99742813    0.00101712    0.26019479 F F F
    0.33092758    0.99976973    0.26021252 F F F
    0.66829738    0.00064354    0.26033225 F F F
    0.16885695    0.25131720    0.26104050 F F F
    0.49925098    0.24827913    0.26092396 F F F
    0.83329375    0.24867651    0.26031053 F F F
    0.99957079    0.49818099    0.26040786 F F F
    0.33421616    0.49783473    0.26027380 F F F
    0.66877807    0.50111128    0.26056886 F F F
    0.16503147    0.75059185    0.26051166 F F F
    0.49794536    0.75063646    0.26090484 F F F
    0.83542738    0.74893812    0.26036913 F F F
    0.41746984    0.08242796    0.31236641 F F T
    0.75197309    0.08241185    0.31309959 F F T
    0.08335479    0.08172516    0.31291941 F F T
    0.25053157    0.33166329    0.31276670 F F T
    0.58467459    0.33358606    0.31305343 F F T
    0.91468624    0.33280091    0.31281471 F F T
    0.41775713    0.58184846    0.31240695 F F T
    0.75000606    0.58326892    0.31228705 F F T
    0.08195457    0.58262458    0.31235794 F F T
    0.24997026    0.83374081    0.31235194 F F T
    0.58243530    0.83173854    0.31278271 F F T
    0.91425371    0.83410816    0.31275883 F F T
    0.24781082    0.16512713    0.36454107 F F T
    0.58459540    0.16703686    0.36472867 F F T
    0.91429636    0.16502969    0.36485130 F F T
    0.41840425    0.41561507    0.36446465 F F T
    0.75200843    0.41839350    0.36532424 F F T
    0.08285111    0.41737469    0.36448310 F F T
    0.25140855    0.66878723    0.36503171 F F T
    0.58398203    0.66643786    0.36458982 F F T
    0.91681824    0.66688890    0.36478272 F F T
    0.41481978    0.91856878    0.36486572 F F T
    0.74916126    0.91542660    0.36481060 F F T
    0.08498743    0.91492106    0.36452172 F F T
    0.25159397    0.99779469    0.41652456 F F T
    0.58249292    0.99842006    0.41704071 F F T
    0.91476935    0.00074006    0.41700870 F F T
    0.41891860    0.25026826    0.41732781 F F T
    0.74871759    0.25146009    0.41659775 F F T
    0.08407712    0.24998133    0.41666777 F F T
    0.25068614    0.50181399    0.41697966 F F T
    0.58370257    0.50176628    0.41651111 F F T
    0.91522991    0.49980188    0.41656992 F F T
    0.41450492    0.74799888    0.41668719 F F T
    0.75253530    0.75161105    0.41657099 F F T
    0.08310015    0.74900647    0.41669706 F F T
    0.41752009    0.08499302    0.46886428 F F T
    0.75122324    0.08137255    0.46917518 F F T
    0.08277313    0.08146233    0.46938233 F F T
    0.24859984    0.33129408    0.46918906 F F T
    0.58358535    0.33439143    0.46947829 F F T
    0.91896755    0.33118015    0.46916875 F F T
    0.41717002    0.58490011    0.46898263 F F T
    0.75081439    0.58349368    0.46899656 F F T
    0.08185424    0.58317020    0.46878225 F F T
    0.24940315    0.83181575    0.46921764 F F T
    0.58447855    0.83195509    0.46864918 F F T
    0.91890513    0.83112879    0.46913669 F F T
    0.24963048    0.16861716    0.52141315 F F T
    0.58483398    0.16794710    0.52097878 F F T
    0.91677201    0.16520448    0.52072325 F F T
    0.41859319    0.41515396    0.52143919 F F T
    0.74756969    0.41767456    0.52168451 F F T
    0.08170209    0.41782926    0.52084286 F F T
    0.24772707    0.66744606    0.52143534 F F T
    0.58329466    0.66808275    0.52120098 F F T
    0.91839933    0.66602171    0.52125128 F F T
    0.41749484    0.91458531    0.52079648 F F T
    0.75000779    0.91704172    0.52151771 F F T
    0.08422935    0.91660212    0.52122698 F F T
    0.24941858    0.99951220    0.57371646 F F T
    0.58410078    0.00141347    0.57296018 F F T
    0.91545222    0.99944042    0.57353375 F F T
    0.41784916    0.25132964    0.57358389 F F T
    0.75224867    0.24869315    0.57346805 F F T
    0.08191219    0.24867224    0.57378412 F F T
    0.25195542    0.49979476    0.57294003 F F T
    0.58148457    0.49925796    0.57296931 F F T
    0.91792686    0.49839665    0.57285780 F F T
    0.41752611    0.75085143    0.57360974 F F T
    0.74840965    0.75043299    0.57313205 F F T
    0.08375975    0.74885660    0.57319068 F F T
