Generated generic
1.0
    7.66857304    0.00000000    0.00000000
    0.00000000    8.85490542    0.00000000
    0.00000000    0.00000000   40.04545468
 Cu
 144
Selective dynamics
Direct
    0.16604502    0.08268822    0.00024733 F F F
    0.49942358    0.08259761    0.00005483 F F F
    0.83170184    0.08161520    0.00033996 F F F
    0.99949247    0.33527057    0.99984809 F F F
    0.33263414    0.33554568    0.99978332 F F F
    0.66422590    0.33108746    0.00031675 F F F
    0.16481034    0.58177217    0.99975254 F F F
    0.50134250    0.58257765    0.99952238 F F F
    0.83111628    0.58375995    0.99952430 F F F
    0.99862301    0.83167882    0.99971184 F F F
    0.33445820    0.83526151    0.99974700 F F F
    0.66617044    0.83380567    0.99963479 F F F
    0.99896545    0.16778448    0.05203158 F F F
    0.33253712    0.16695391    0.05208614 F F F
    0.66858512    0.16746370    0.05208141 F F F
    0.16620418    0.41506749    0.05232780 F F F
    0.49874947    0.41448917    0.05176195 F F F
    0.83404520    0.41634616    0.05197004 F F F
    0.00064275    0.66466983    0.05182402 F F F
    0.33143794    0.66462007    0.05194253 F F F
    0.66745541    0.66875520    0.05259982 F F F
    0.16407014    0.91819746    0.05257328 F F F
    0.49907460    0.91793469    0.05214199 F F F
    0.83206361    0.91761103    0.05240964 F F F
    0.99978209    0.99915562    0.10414277 F F F
    0.33509164    0.99990855    0.10418286 F F F
    0.66786242    0.00085676    0.10471084 F F F
    0.16754167    0.25138289    0.10457749 F F F
    0.50096388    0.25062934    0.10377689 F F F
    0.83243878    0.24795158    0.10416390 F F F
    0.00137181    0.50014316    0.10439061 F F F
    0.33396588    0.49853606    0.10469787 F F F
    0.66600075    0.49947501    0.10394927 F F F
    0.16439287    0.75019483    0.10459011 F F F
    0.49981169    0.74827023    0.10462925 F F F
    0.83197615    0.75038995    0.10386184 F F F
    0.16667473    0.08239814    0.15650519 F F F
    0.49756131    0.08136652    0.15587032 F F F
    0.83481716    0.08157385    0.15684666 F F F
    0.99841585    0.33186593    0.15620344 F F F
    0.33513376    0.33277499    0.15616625 F F F
    0.66416952    0.33240152    0.15623243 F F F
    0.16560655    0.58402079    0.15637180 F F F
    0.49774578    0.58386794    0.15671521 F F F
    0.83078399    0.58447106    0.15661700 F F F
    0.00086186    0.83121241    0.15614972 F F F
    0.33140734    0.83314468    0.15615508 F F F
    0.66498094    0.83551728    0.15673491 F F F
    0.99875385    0.16702225    0.20802843 F F F
    0.33493342    0.16789750    0.20817379 F F F
    0.66768138    0.16623684    0.20851463 F F F
    0.16877876    0.41588854    0.20856858 F F F
    0.49777140    0.41718511    0.20894911 F F F
    0.83122936    0.41503493    0.20893384 F F F
    0.99785788    0.66542629    0.20800942 F F F
    0.33081841    0.66883320    0.20880604 F F F
    0.66724612    0.66780817    0.20884561 F F F
    0.16723765    0.91536792    0.20818917 F F F
    0.50221142    0.91550853    0.20850370 F F F
    0.83531089    0.91612032    0.20873253 F F F
    0.00073641    0.00120615    0.26049388 F F F
    0.33094027    0.99814070    0.26077114 F F F
    0.66489897    0.00184704    0.26089339 F F F
    0.16437149    0.24989372    0.26107658 F F F
    0.49835226    0.25048276    0.26065464 F F F
    0.83391990    0.24949847    0.26044253 F F F
    0.99876037    0.50057977    0.26026483 F F F
    0.33386132    0.49868973    0.26108872 F F F
    0.66556279    0.50029837    0.26058156 F F F
    0.16775386    0.75117888    0.26020409 F F F
    0.49979374    0.75086603    0.26098274 F F F
    0.83402313    0.75171779    0.26060253 F F F
    0.16571473    0.10706845    0.31310432 F F T
    0.49945035    0.11044682    0.31295769 F F T
    0.83214736    0.10874865    0.31314816 F F T
    0.00115443    0.36011116    0.31286590 F F T
    0.33554469    0.35645402    0.31312882 F F T
    0.66783084    0.35905207    0.31257522 F F T
    0.16713783    0.61028159    0.31248719 F F T
    0.50236371    0.60942227    0.31229170 F F T
    0.83526441    0.60773452    0.31308627 F F T
    0.99876529    0.85918982    0.31319585 F F T
    0.33307530    0.85888963    0.31292732 F F T
    0.66561617    0.85863676    0.31241493 F F T
    0.99958856    0.19161838    0.36477053 F F T
    0.33195852    0.19071836    0.36496740 F F T
    0.66785152    0.19243204    0.36522894 F F T
    0.16718492    0.44053138    0.36464829 F F T
    0.50205210    0.44269745    0.36487981 F F T
    0.83313617    0.44081665    0.36458583 F F T
    0.00253563    0.69169509    0.36500622 F F T
    0.33355376    0.69095762    0.36510537 F F T
    0.66657243    0.69257823    0.36521138 F F T
    0.16739732    0.93949314    0.36462715 F F T
    0.49868985    0.93960199    0.36505878 F F T
    0.83503753    0.94232953    0.36443803 F F T
    0.00033594    0.02468601    0.41736999 F F T
    0.33540305    0.02614709    0.41735076 F F T
    0.66529786    0.02294605    0.41734609 F F T
    0.16634358    0.27703978    0.41673655 F F T
    0.50008807    0.27538103    0.41666561 F F T
    0.83163474    0.27622829    0.41671988 F F T
    0.99945685    0.52385883    0.41722944 F F T
    0.33249118    0.52721507    0.41676616 F F T
    0.66881965    0.52676586    0.41726198 F F T
    0.16459805    0.77290914    0.41673026 F F T
    0.49952820    0.77304254    0.41654829 F F T
    0.83451933    0.77536046    0.41684198 F F T
    0.16587470    0.10712945    0.46935004 F F T
    0.50255076    0.10832734    0.46935438 F F T
    0.83522997    0.10661169    0.46902303 F F T
    0.99763016    0.35810121    0.46927649 F F T
    0.33402149    0.35950856    0.46935896 F F T
    0.66657471    0.35933452    0.46913967 F F T
    0.16893592    0.61022145    0.46915904 F F T
    0.50052140    0.60709520    0.46901955 F F T
    0.83247678    0.60871604    0.46942794 F F T
    0.00162966    0.85784356    0.46955384 F F T
    0.33110809    0.85909182    0.46942504 F F T
    0.66752100    0.85972218    0.46879673 F F T
    0.99798108    0.19140242    0.52084938 F F T
    0.33376949    0.19296887    0.52083752 F F T
    0.66815462    0.19131993    0.52079144 F F T
    0.16659586    0.43947496    0.52166627 F F T
    0.49794023    0.44173084    0.52075979 F F T
    0.83511571    0.43983939    0.52095749 F F T
    0.99832620    0.69251372    0.52093365 F F T
    0.33493690    0.69332740    0.52107741 F F T
    0.66709351    0.69194017    0.52153366 F F T
    0.16917180    0.93956527    0.52085406 F F T
    0.49753908    0.93947791    0.52110015 F F T
    0.83087712    0.94333268    0.52117423 F F T
    0.99870231    0.02387378    0.57330391 F F T
    0.33301676    0.02329956    0.57334630 F F T
    0.66597568    0.02421645    0.57344582 F F T
    0.16554762    0.27344969    0.57333234 F F T
    0.50223446    0.27687152    0.57308524 F F T
    0.83574385    0.27590598    0.57312283 F F T
    0.00149344    0.52415789    0.57327133 F F T
    0.33283774    0.52446025    0.57298710 F F T
    0.66545359    0.52420366    0.57311787 F F T
    0.16881655    0.77564091    0.57300837 F F T
    0.50185882    0.77685547    0.57348622 F F T
    0.83238838    0.77485072    0.57378754 F F T
