Generated generic
1.0
    7.66857304    0.00000000    0.00000000
    0.00000000    8.85490542    0.00000000
    0.00000000    0.00000000   40.04545468
 Cu
 144
Selective dynamics
Direct
    0.16503798    0.08223431    0.99999469 F F F
    0.50083870    0.08447220    0.00022284 F F F
    0.83250104    0.08377395    0.00047004 F F F
    0.00107819    0.33205510    0.99964111 F F F
    0.33441410    0.33497261    0.99988965 F F F
    0.66465722    0.33349407    0.00002799 F F F
    0.16838704    0.58156879    0.00046958 F F F
    0.50110253    0.58145861    0.00033713 F F F
    0.83321551    0.58431102    0.00000662 F F F
    0.99809634    0.83513892    0.99965944 F F F
    0.33257380    0.83341835    0.99987476 F F F
    0.66700916    0.83528116    0.99964637 F F F
    0.00048417    0.16524320    0.05232333 F F F
    0.33404934    0.16580096    0.05192609 F F F
    0.66577792    0.16708103    0.05180770 F F F
    0.16917462    0.41645107    0.05166703 F F F
    0.50132572    0.41869430    0.05255414 F F F
    0.83205756    0.41540484    0.05227831 F F F
    0.00241863    0.66461353    0.05260210 F F F
    0.33088631    0.66880044    0.05196876 F F F
    0.66616713    0.66739588    0.05212522 F F F
    0.16689913    0.91512919    0.05195923 F F F
    0.50043890    0.91813517    0.05176541 F F F
    0.83278900    0.91589444    0.05196141 F F F
    0.99758071    0.00047830    0.10408873 F F F
    0.33108417    0.99842571    0.10405138 F F F
    0.66648926    0.00130318    0.10445785 F F F
    0.16430168    0.24774322    0.10462866 F F F
    0.49827805    0.25119328    0.10430630 F F F
    0.83470502    0.24863850    0.10426481 F F F
    0.00092153    0.50105596    0.10456690 F F F
    0.33534247    0.50194158    0.10386835 F F F
    0.66541500    0.49902296    0.10419931 F F F
    0.16852750    0.75217157    0.10407081 F F F
    0.50167433    0.75177243    0.10422929 F F F
    0.83115214    0.75075885    0.10432999 F F F
    0.16585277    0.08509659    0.15638791 F F F
    0.49761567    0.08533213    0.15673037 F F F
    0.83113652    0.08292272    0.15610345 F F F
    0.99908446    0.33283521    0.15598773 F F F
    0.33522299    0.33413102    0.15611716 F F F
    0.66589053    0.33204902    0.15611981 F F F
    0.16601937    0.58193006    0.15612280 F F F
    0.49949916    0.58218603    0.15632582 F F F
    0.83544266    0.58214743    0.15679528 F F F
    0.99852040    0.83237206    0.15631507 F F F
    0.33495304    0.83488865    0.15660234 F F F
    0.66480455    0.83202789    0.15606870 F F F
    0.99938347    0.16442220    0.20835130 F F F
    0.33317590    0.16517497    0.20841635 F F F
    0.66793632    0.16743608    0.20855817 F F F
    0.16869453    0.41461006    0.20860106 F F F
    0.49994111    0.41874636    0.20842365 F F F
    0.83477495    0.41625058    0.20827474 F F F
    0.00048319    0.66484628    0.20848705 F F F
    0.33543181    0.66882165    0.20815751 F F F
    0.66444906    0.66662816    0.20862700 F F F
    0.16843638    0.91673531    0.20840594 F F F
    0.49816530    0.91468818    0.20883074 F F F
    0.83477274    0.91796264    0.20835991 F F F
    0.00107000    0.99922899    0.26090268 F F F
    0.33149549    0.00070981    0.26043599 F F F
    0.66549730    0.99826129    0.26063621 F F F
    0.16564826    0.24807931    0.26057256 F F F
    0.49791141    0.25012720    0.26054156 F F F
    0.83435324    0.24807366    0.26075060 F F F
    0.00126880    0.49923228    0.26060360 F F F
    0.33417469    0.49802484    0.26089385 F F F
    0.66840670    0.49963221    0.26026380 F F F
    0.16695877    0.75185719    0.26075892 F F F
    0.50040185    0.75139903    0.26045287 F F F
    0.83591001    0.74918716    0.26022596 F F F
    0.16797874    0.12155162    0.31271860 F F T
    0.49763777    0.11903935    0.31312700 F F T
    0.83311585    0.12075240    0.31253502 F F T
    0.99926160    0.37172085    0.31221793 F F T
    0.33391046    0.37043361    0.31222852 F F T
    0.66762542    0.37193043    0.31245378 F F T
    0.16500543    0.61895379    0.31278387 F F T
    0.50021952    0.62208195    0.31244482 F F T
    0.83078875    0.61895114    0.31314132 F F T
    0.99911813    0.87000108    0.31314912 F F T
    0.33586286    0.87125162    0.31261945 F F T
    0.66434500    0.87092934    0.31254164 F F T
    0.99913463    0.20201404    0.36483608 F F T
    0.33286341    0.20293376    0.36480777 F F T
    0.66590934    0.20261112    0.36531776 F F T
    0.16587237    0.45510958    0.36506278 F F T
    0.50013576    0.45213575    0.36443160 F F T
    0.83198671    0.45473818    0.36523970 F F T
    0.00257815    0.70271972    0.36492807 F F T
    0.33364867    0.70620818    0.36465097 F F T
    0.66820245    0.70466291    0.36482846 F F T
    0.16491567    0.95345286    0.36507966 F F T
    0.49808409    0.95289126    0.36485941 F F T
    0.83089715    0.95342842    0.36455678 F F T
    0.00127634    0.03646907    0.41699602 F F T
    0.33389870    0.03948549    0.41728428 F F T
    0.66460606    0.03907713    0.41671387 F F T
    0.16915437    0.28653781    0.41711303 F F T
    0.49775444    0.28642931    0.41731862 F F T
    0.83103494    0.28847333    0.41658263 F F T
    0.99855019    0.53590713    0.41679939 F F T
    0.33499679    0.53737721    0.41714930 F F T
    0.66774038    0.53604413    0.41740525 F F T
    0.16900537    0.78665298    0.41691639 F F T
    0.49973394    0.78953216    0.41740216 F F T
    0.83467468    0.78717789    0.41658700 F F T
    0.16839017    0.12246984    0.46948948 F F T
    0.49746069    0.12238549    0.46918205 F F T
    0.83133146    0.12097791    0.46900404 F F T
    0.00164292    0.37033907    0.46942168 F F T
    0.33542797    0.37042948    0.46921583 F F T
    0.66720188    0.37010654    0.46884742 F F T
    0.16823904    0.61865971    0.46926249 F F T
    0.50135606    0.62142098    0.46897705 F F T
    0.83398653    0.62119163    0.46910141 F F T
    0.00234471    0.87098790    0.46929878 F F T
    0.33169160    0.87177883    0.46947924 F F T
    0.66471484    0.86915234    0.46876724 F F T
    0.00128511    0.20600126    0.52139403 F F T
    0.33252190    0.20463256    0.52136048 F F T
    0.66712097    0.20344126    0.52095600 F F T
    0.16861227    0.45322611    0.52142103 F F T
    0.50216642    0.45464004    0.52142393 F F T
    0.83441291    0.45216332    0.52167588 F F T
    0.99861453    0.70489809    0.52087616 F F T
    0.33184987    0.70542464    0.52096329 F F T
    0.66562135    0.70257678    0.52094914 F F T
    0.16728582    0.95332534    0.52105090 F F T
    0.49863712    0.95446643    0.52079816 F F T
    0.83129048    0.95408205    0.52081117 F F T
    0.99945357    0.03949457    0.57352071 F F T
    0.33463280    0.03894498    0.57315821 F F T
    0.66583684    0.03741984    0.57304909 F F T
    0.16607941    0.28783777    0.57318799 F F T
    0.49964342    0.28617992    0.57371394 F F T
    0.83283438    0.28974100    0.57344245 F F T
    0.99949453    0.53856624    0.57366871 F F T
    0.33135299    0.53836338    0.57322093 F F T
    0.66863087    0.53911991    0.57287442 F F T
    0.16831404    0.78669868    0.57350708 F F T
    0.49755153    0.78764654    0.57316996 F F T
    0.83318994    0.78526313    0.57324325 F F T
