Generated generic
1.0
    7.66857304    0.00000000    0.00000000
    0.00000000    8.85490542    0.00000000
    0.00000000    0.00000000   40.04545468
 Cu
 144
Selective dynamics
Direct
    0.16519013    0.08286351    0.99996692 F F F
    0.50171480    0.08203356    0.00020463 F F F
    0.83212717    0.08152876    0.00000621 F F F
    0.00005146    0.33412099    0.99996506 F F F
    0.33223166    0.33158060    0.00042650 F F F
    0.66462555    0.33342081    0.99956969 F F F
    0.16892689    0.58508322    0.00047758 F F F
    0.50242681    0.58213552    0.00001524 F F F
    0.83483684    0.58437414    0.00046491 F F F
    0.99868863    0.83557411    0.99972563 F F F
    0.33508029    0.83146044    0.99991071 F F F
    0.66764350    0.83460581    0.00007883 F F F
    0.00228160    0.16559378    0.05218660 F F F
    0.33441330    0.16757697    0.05218672 F F F
    0.66440294    0.16680008    0.05224726 F F F
    0.16613833    0.41615840    0.05175419 F F F
    0.50111566    0.41870357    0.05259621 F F F
    0.83168102    0.41802953    0.05232452 F F F
    0.99988822    0.66588926    0.05237412 F F F
    0.33485891    0.66723141    0.05212093 F F F
    0.66437613    0.66455581    0.05166280 F F F
    0.16813914    0.91624010    0.05197845 F F F
    0.50012340    0.91448515    0.05210523 F F F
    0.83499980    0.91639855    0.05189496 F F F
    0.00064271    0.00095016    0.10396269 F F F
    0.33545845    0.00201351    0.10435319 F F F
    0.66705463    0.99934940    0.10442211 F F F
    0.16584429    0.24789726    0.10441762 F F F
    0.50050894    0.25155157    0.10415583 F F F
    0.83587451    0.24956775    0.10473599 F F F
    0.99865500    0.50163509    0.10422045 F F F
    0.33529921    0.49980271    0.10380934 F F F
    0.66769981    0.49831195    0.10377623 F F F
    0.16455378    0.75170985    0.10440222 F F F
    0.50131201    0.75170514    0.10424597 F F F
    0.83135785    0.75050770    0.10417423 F F F
    0.16485992    0.08358567    0.15635865 F F F
    0.49912191    0.08529254    0.15597870 F F F
    0.83452873    0.08483672    0.15680250 F F F
    0.99778027    0.33217137    0.15661047 F F F
    0.33266728    0.33512284    0.15669520 F F F
    0.66852112    0.33357713    0.15605205 F F F
    0.16432824    0.58410853    0.15598933 F F F
    0.49780756    0.58453567    0.15603261 F F F
    0.83371589    0.58138906    0.15650099 F F F
    0.99872891    0.83197930    0.15596017 F F F
    0.33574881    0.83202156    0.15613242 F F F
    0.66743714    0.83316873    0.15627774 F F F
    0.99785920    0.16839072    0.20878614 F F F
    0.33308114    0.16646257    0.20848313 F F F
    0.66714068    0.16733556    0.20885980 F F F
    0.16826326    0.41514647    0.20799319 F F F
    0.49888104    0.41575169    0.20895332 F F F
    0.83208254    0.41884698    0.20837858 F F F
    0.99926532    0.66874463    0.20813813 F F F
    0.33191571    0.66867257    0.20875126 F F F
    0.66515978    0.66809913    0.20857153 F F F
    0.16907569    0.91719503    0.20861786 F F F
    0.50096075    0.91658826    0.20866978 F F F
    0.83116726    0.91634784    0.20872696 F F F
    0.00100637    0.99787703    0.26024845 F F F
    0.33285275    0.99795498    0.26052221 F F F
    0.66701628    0.99914037    0.26072184 F F F
    0.16411311    0.24893300    0.26011065 F F F
    0.49881574    0.25064070    0.26066875 F F F
    0.83388888    0.24880093    0.26047139 F F F
    0.99883767    0.50146927    0.26075863 F F F
    0.33396129    0.50072977    0.26054620 F F F
    0.66769312    0.50020149    0.26022858 F F F
    0.16785083    0.74840589    0.26099755 F F F
    0.50202502    0.74890700    0.26098121 F F F
    0.83194268    0.74951603    0.26100597 F F F
    0.16534826    0.32197488    0.31232852 F F T
    0.49963947    0.32262650    0.31294920 F F T
    0.83244609    0.32251251    0.31224803 F F T
    0.99900426    0.57111835    0.31258147 F F T
    0.33367993    0.56896740    0.31310282 F F T
    0.66597526    0.57227308    0.31253458 F F T
    0.16919487    0.82165271    0.31280878 F F T
    0.50021907    0.82223600    0.31275190 F F T
    0.83163212    0.82264134    0.31283095 F F T
    0.99857509    0.07151752    0.31232491 F F T
    0.33091888    0.07204642    0.31301874 F F T
    0.66841379    0.07059745    0.31272507 F F T
    0.99755195    0.40383205    0.36513146 F F T
    0.33484291    0.40613318    0.36443398 F F T
    0.66663273    0.40307184    0.36464474 F F T
    0.16460754    0.65212863    0.36517796 F F T
    0.49756620    0.65461885    0.36516466 F F T
    0.83107952    0.65406158    0.36500756 F F T
    0.99884148    0.90551450    0.36473982 F F T
    0.33508615    0.90400112    0.36455835 F F T
    0.66853161    0.90522616    0.36490488 F F T
    0.16456787    0.15573954    0.36518936 F F T
    0.49886709    0.15385821    0.36462341 F F T
    0.83378633    0.15267008    0.36487316 F F T
    0.99816767    0.23872637    0.41648046 F F T
    0.33430213    0.23555114    0.41665515 F F T
    0.66727127    0.23820403    0.41708481 F F T
    0.16795775    0.48722341    0.41696765 F F T
    0.49802738    0.48655014    0.41679125 F F T
    0.83075433    0.48836672    0.41674004 F F T
    0.00158708    0.73975448    0.41654664 F F T
    0.33235308    0.73858782    0.41697446 F F T
    0.66475708    0.73630877    0.41653668 F F T
    0.16443049    0.98579170    0.41673489 F F T
    0.49965346    0.98582593    0.41656632 F F T
    0.83444823    0.98574366    0.41649407 F F T
    0.16558415    0.32158168    0.46911655 F F T
    0.49851350    0.32203871    0.46912967 F F T
    0.83313536    0.31867398    0.46861899 F F T
    0.99898103    0.57244502    0.46919401 F F T
    0.33555104    0.56982395    0.46864280 F F T
    0.66533869    0.57131593    0.46868869 F F T
    0.16566324    0.81915001    0.46925239 F F T
    0.50212233    0.82280455    0.46902497 F F T
    0.83568322    0.82122121    0.46921300 F F T
    0.00230741    0.07164553    0.46898524 F F T
    0.33397967    0.07095783    0.46928757 F F T
    0.66718472    0.07065798    0.46921749 F F T
    0.00132720    0.40426783    0.52095171 F F T
    0.33169892    0.40454896    0.52093174 F F T
    0.66670151    0.40623423    0.52136270 F F T
    0.16577543    0.65197904    0.52090759 F F T
    0.50250050    0.65310164    0.52070085 F F T
    0.83280179    0.65487443    0.52070491 F F T
    0.99962999    0.90268782    0.52147624 F F T
    0.33417854    0.90516683    0.52107088 F F T
    0.66556222    0.90422010    0.52151994 F F T
    0.16728277    0.15214914    0.52083256 F F T
    0.50215296    0.15617909    0.52134101 F F T
    0.83306075    0.15435873    0.52117453 F F T
    0.99828295    0.23812722    0.57294013 F F T
    0.33447970    0.23605294    0.57374457 F F T
    0.66817713    0.23879773    0.57284813 F F T
    0.16765988    0.48620490    0.57367786 F F T
    0.50129876    0.48967265    0.57318321 F F T
    0.83388561    0.48820905    0.57376384 F F T
    0.99740628    0.73787847    0.57304206 F F T
    0.33397512    0.73716954    0.57376062 F F T
    0.66666402    0.73948142    0.57354757 F F T
    0.16588545    0.98576051    0.57362102 F F T
    0.49884869    0.98940611    0.57315568 F F T
    0.83242528    0.98943794    0.57320910 F F T
