Generated generic
1.0
    7.66857304    0.00000000    0.00000000
    0.00000000    8.85490542    0.00000000
    0.00000000    0.00000000   40.04545468
 Cu
 144
Selective dynamics
Direct
    0.16565642    0.08460109    0.99973873 F F F
    0.50187988    0.08330499    0.00016500 F F F
    0.83373858    0.08167099    0.00049013 F F F
    0.00104268    0.33438408    0.99970704 F F F
    0.33244022    0.33397212    0.00039274 F F F
    0.66660061    0.33246938    0.99983693 F F F
    0.16478519    0.58488988    0.00019102 F F F
    0.50056245    0.58345800    0.99974567 F F F
    0.83491697    0.58244198    0.99984127 F F F
    0.00228412    0.83184421    0.99987041 F F F
    0.33293602    0.83508536    0.99989964 F F F
    0.66667548    0.83429418    0.00034080 F F F
    0.99791982    0.16474807    0.05224720 F F F
    0.33562704    0.16554672    0.05225312 F F F
    0.66490852    0.16657440    0.05202286 F F F
    0.16550888    0.41828466    0.05171863 F F F
    0.50147318    0.41456769    0.05177658 F F F
    0.83380028    0.41486839    0.05167259 F F F
    0.00162791    0.66712545    0.05188114 F F F
    0.33222763    0.66518979    0.05258156 F F F
    0.66745630    0.66782649    0.05171721 F F F
    0.16793426    0.91569066    0.05201504 F F F
    0.49760051    0.91810553    0.05224429 F F F
    0.83436185    0.91625692    0.05248258 F F F
    0.99759206    0.00069508    0.10438353 F F F
    0.33498278    0.99935245    0.10455023 F F F
    0.66845948    0.00012961    0.10463208 F F F
    0.16874858    0.24775635    0.10468597 F F F
    0.50056974    0.24979946    0.10415617 F F F
    0.83511466    0.25186783    0.10409787 F F F
    0.00072328    0.50043793    0.10430115 F F F
    0.33535008    0.50039610    0.10416506 F F F
    0.66582460    0.50149934    0.10461538 F F F
    0.16497172    0.74928885    0.10391220 F F F
    0.50136032    0.74814481    0.10452221 F F F
    0.83404849    0.75121957    0.10393301 F F F
    0.16619488    0.08458759    0.15595919 F F F
    0.49842021    0.08458703    0.15666682 F F F
    0.83460673    0.08540592    0.15625893 F F F
    0.99872511    0.33305427    0.15685410 F F F
    0.33246329    0.33454924    0.15643317 F F F
    0.66434938    0.33151746    0.15612418 F F F
    0.16458148    0.58133364    0.15633968 F F F
    0.50073719    0.58499738    0.15660807 F F F
    0.83132759    0.58443890    0.15592615 F F F
    0.99843053    0.83511764    0.15681610 F F F
    0.33314862    0.83339295    0.15673916 F F F
    0.66804165    0.83480059    0.15593670 F F F
    0.99999049    0.16527331    0.20880817 F F F
    0.33104144    0.16864813    0.20860189 F F F
    0.66794724    0.16698406    0.20843570 F F F
    0.16749680    0.41665295    0.20885652 F F F
    0.49944534    0.41473732    0.20881292 F F F
    0.83455555    0.41677772    0.20834000 F F F
    0.99812749    0.66546830    0.20860680 F F F
    0.33544475    0.66870684    0.20817986 F F F
    0.66514180    0.66833932    0.20884083 F F F
    0.16838442    0.91554586    0.20882307 F F F
    0.49838887    0.91640011    0.20888285 F F F
    0.83155365    0.91472222    0.20806753 F F F
    0.00072080    0.99945547    0.26068756 F F F
    0.33523878    0.00062061    0.26105249 F F F
    0.66415682    0.99867682    0.26054455 F F F
    0.16518832    0.25209461    0.26057232 F F F
    0.49977939    0.25089861    0.26050921 F F F
    0.83110266    0.25208261    0.26100423 F F F
    0.00143395    0.49954817    0.26095962 F F F
    0.33584755    0.49944575    0.26068061 F F F
    0.66512466    0.49907585    0.26077666 F F F
    0.16602028    0.74776915    0.26086172 F F F
    0.50229378    0.75097553    0.26017668 F F F
    0.83505459    0.74924035    0.26054094 F F F
    0.16501360    0.23452255    0.31253604 F F T
    0.49850210    0.23250731    0.31247150 F F T
    0.83436338    0.23550589    0.31301237 F F T
    0.99882409    0.48516700    0.31314032 F F T
    0.33523620    0.48150600    0.31259507 F F T
    0.66444019    0.48190420    0.31272404 F F T
    0.16506958    0.73287818    0.31298882 F F T
    0.49868161    0.73202568    0.31285778 F F T
    0.83144132    0.73508038    0.31261786 F F T
    0.00147449    0.98268860    0.31264508 F F T
    0.33319172    0.98194145    0.31253939 F F T
    0.66816639    0.98294897    0.31293592 F F T
    0.99968688    0.31559678    0.36444197 F F T
    0.33180804    0.31567127    0.36433866 F F T
    0.66900196    0.31733432    0.36524335 F F T
    0.16670259    0.56465961    0.36518247 F F T
    0.50139544    0.56641768    0.36435915 F F T
    0.83117793    0.56478913    0.36521727 F F T
    0.00022301    0.81568828    0.36481006 F F T
    0.33551959    0.81577972    0.36433605 F F T
    0.66689930    0.81547589    0.36443511 F F T
    0.16785869    0.06796810    0.36467081 F F T
    0.50135077    0.06490691    0.36487361 F F T
    0.83385845    0.06540602    0.36525129 F F T
    0.99932753    0.14852594    0.41667485 F F T
    0.33506604    0.15074587    0.41691121 F F T
    0.66741139    0.15070847    0.41740414 F F T
    0.16856996    0.39990037    0.41726347 F F T
    0.49774187    0.40115743    0.41731173 F F T
    0.83561793    0.40165983    0.41735934 F F T
    0.99870535    0.64950365    0.41690615 F F T
    0.33553847    0.65207005    0.41696826 F F T
    0.66609150    0.65156020    0.41722030 F F T
    0.16631684    0.89819990    0.41696139 F F T
    0.49905744    0.89792306    0.41664162 F F T
    0.83370192    0.90222498    0.41707852 F F T
    0.16510710    0.23450839    0.46920728 F F T
    0.49750948    0.23292661    0.46952925 F F T
    0.83489676    0.23300748    0.46955972 F F T
    0.99825238    0.48121427    0.46879080 F F T
    0.33237842    0.48366912    0.46869345 F F T
    0.66441668    0.48280928    0.46925314 F F T
    0.16762019    0.73371483    0.46863514 F F T
    0.50104867    0.73417103    0.46892523 F F T
    0.83430345    0.73453647    0.46879450 F F T
    0.99825931    0.98286161    0.46869595 F F T
    0.33328118    0.98423460    0.46880970 F F T
    0.66600391    0.98474017    0.46869504 F F T
    0.99770725    0.31634300    0.52094051 F F T
    0.33290787    0.31632314    0.52087380 F F T
    0.66908347    0.31460502    0.52078882 F F T
    0.16821369    0.56722506    0.52093997 F F T
    0.49827368    0.56776312    0.52099589 F F T
    0.83542425    0.56601643    0.52104117 F F T
    0.00137557    0.81560687    0.52075909 F F T
    0.33510417    0.81820358    0.52168035 F F T
    0.66566613    0.81814398    0.52138600 F F T
    0.16540820    0.06850143    0.52163168 F F T
    0.49958270    0.06788777    0.52124761 F F T
    0.83560189    0.06689610    0.52084744 F F T
    0.00209761    0.14956050    0.57310099 F F T
    0.33305052    0.15198317    0.57281853 F F T
    0.66642270    0.14918970    0.57301818 F F T
    0.16561544    0.40006703    0.57354332 F F T
    0.49785096    0.40141758    0.57317987 F F T
    0.83503299    0.40174923    0.57317484 F F T
    0.00203696    0.64904416    0.57319870 F F T
    0.33214637    0.64968611    0.57351802 F F T
    0.66464679    0.65146264    0.57284058 F F T
    0.16864412    0.89879994    0.57314374 F F T
    0.49812128    0.89852777    0.57294892 F F T
    0.83283229    0.89868293    0.57351973 F F T
