Generated generic
1.0
    7.66857304    0.00000000    0.00000000
    0.00000000    8.85490542    0.00000000
    0.00000000    0.00000000   40.04545468
 Cu
 144
Selective dynamics
Direct
    0.16554064    0.08361938    0.99971293 F F F
    0.49781988    0.08153911    0.99989778 F F F
    0.83291128    0.08551253    0.00048623 F F F
    0.00008640    0.33121465    0.99986888 F F F
    0.33327739    0.33410673    0.99950279 F F F
    0.66847455    0.33219773    0.99965376 F F F
    0.16670659    0.58380917    0.99951218 F F F
    0.50120890    0.58169537    0.00011292 F F F
    0.83269786    0.58399362    0.99955635 F F F
    0.99987971    0.83408821    0.99966240 F F F
    0.33248979    0.83222603    0.99994306 F F F
    0.66460976    0.83240614    0.00031806 F F F
    0.00256564    0.16845263    0.05206809 F F F
    0.33330738    0.16777864    0.05220201 F F F
    0.66703720    0.16514108    0.05162815 F F F
    0.16851874    0.41453131    0.05206091 F F F
    0.49945769    0.41783664    0.05247299 F F F
    0.83167655    0.41480062    0.05202873 F F F
    0.00062806    0.66631271    0.05254762 F F F
    0.33152160    0.66512073    0.05224464 F F F
    0.66918569    0.66659891    0.05227479 F F F
    0.16770679    0.91545154    0.05210496 F F F
    0.50260553    0.91569536    0.05226493 F F F
    0.83075193    0.91608596    0.05210217 F F F
    0.00153022    0.99825493    0.10450333 F F F
    0.33420576    0.99947515    0.10409818 F F F
    0.66492178    0.99822692    0.10452728 F F F
    0.16602182    0.24812603    0.10417584 F F F
    0.50125556    0.24998786    0.10436508 F F F
    0.83263688    0.24894282    0.10430850 F F F
    0.99766255    0.49926098    0.10433451 F F F
    0.33436963    0.50091684    0.10452794 F F F
    0.66539244    0.50145081    0.10405552 F F F
    0.16661232    0.74921585    0.10442507 F F F
    0.50046381    0.75171317    0.10453245 F F F
    0.83405829    0.75075583    0.10471781 F F F
    0.16561728    0.08211987    0.15603910 F F F
    0.49950250    0.08387947    0.15618112 F F F
    0.83074821    0.08395139    0.15635415 F F F
    0.99989223    0.33191215    0.15613840 F F F
    0.33535580    0.33174092    0.15631797 F F F
    0.66861166    0.33409041    0.15606713 F F F
    0.16808389    0.58463726    0.15602081 F F F
    0.49998581    0.58426513    0.15603280 F F F
    0.83453536    0.58552681    0.15672780 F F F
    0.99891861    0.83298149    0.15651484 F F F
    0.33383980    0.83208634    0.15603686 F F F
    0.66633776    0.83442761    0.15665793 F F F
    0.00079831    0.16689158    0.20851633 F F F
    0.33512888    0.16577859    0.20873325 F F F
    0.66498756    0.16708272    0.20893847 F F F
    0.16641119    0.41474480    0.20848256 F F F
    0.50081725    0.41467447    0.20879436 F F F
    0.83484135    0.41850593    0.20804187 F F F
    0.99936115    0.66503774    0.20812194 F F F
    0.33585311    0.66748530    0.20846012 F F F
    0.66447825    0.66811716    0.20856988 F F F
    0.16618086    0.91572364    0.20806898 F F F
    0.49972989    0.91541479    0.20861787 F F F
    0.83452136    0.91857412    0.20829527 F F F
    0.00050421    0.99895781    0.26032618 F F F
    0.33455509    0.00215946    0.26091318 F F F
    0.66510220    0.00039967    0.26097331 F F F
    0.16478689    0.24880978    0.26067367 F F F
    0.49750225    0.24962866    0.26104867 F F F
    0.83073305    0.24974341    0.26105088 F F F
    0.99893863    0.50194518    0.26105698 F F F
    0.33528985    0.49988811    0.26093347 F F F
    0.66725349    0.50051460    0.26109269 F F F
    0.16513328    0.75136635    0.26094773 F F F
    0.49742852    0.74906130    0.26069994 F F F
    0.83338251    0.75030753    0.26057189 F F F
    0.16714190    0.22230017    0.31269127 F F T
    0.50141883    0.21991983    0.31271320 F F T
    0.83261540    0.22187207    0.31306318 F F T
    0.99740111    0.47066878    0.31266228 F F T
    0.33094408    0.46929457    0.31290154 F F T
    0.66485661    0.47182888    0.31265415 F F T
    0.16406435    0.72117873    0.31276005 F F T
    0.49887867    0.72238501    0.31296587 F F T
    0.83252725    0.72282851    0.31299299 F F T
    0.00222467    0.97157793    0.31302051 F F T
    0.33231808    0.97145616    0.31259638 F F T
    0.66625861    0.96984641    0.31246199 F F T
    0.00184146    0.30529460    0.36469874 F F T
    0.33586991    0.30556682    0.36522876 F F T
    0.66417909    0.30230021    0.36438698 F F T
    0.16710219    0.55395208    0.36518396 F F T
    0.50226750    0.55489076    0.36514204 F F T
    0.83442605    0.55627019    0.36501929 F F T
    0.99921053    0.80493197    0.36527423 F F T
    0.33317053    0.80287919    0.36441372 F F T
    0.66526714    0.80411090    0.36469347 F F T
    0.16536918    0.05495189    0.36491883 F F T
    0.49864755    0.05268493    0.36478870 F F T
    0.83364125    0.05603396    0.36474085 F F T
    0.00027384    0.13971699    0.41722915 F F T
    0.33351260    0.13753305    0.41729907 F F T
    0.66498335    0.13668333    0.41666647 F F T
    0.16571785    0.38927297    0.41646801 F F T
    0.49961381    0.38579847    0.41705852 F F T
    0.83268786    0.38893317    0.41691294 F F T
    0.00110671    0.63719495    0.41670371 F F T
    0.33249678    0.63652928    0.41744622 F F T
    0.66899771    0.63852858    0.41661348 F F T
    0.16922884    0.88914787    0.41688887 F F T
    0.49893969    0.88628487    0.41649985 F F T
    0.83394347    0.88558501    0.41739685 F F T
    0.16727187    0.22159056    0.46926798 F F T
    0.49951804    0.22191536    0.46943313 F F T
    0.83577994    0.21993899    0.46874779 F F T
    0.00066648    0.47082946    0.46938927 F F T
    0.33361983    0.47304198    0.46862681 F F T
    0.66860897    0.47264627    0.46914642 F F T
    0.16602750    0.71945860    0.46862061 F F T
    0.49744835    0.72075449    0.46933293 F F T
    0.83255224    0.71889571    0.46902255 F F T
    0.99781013    0.97062189    0.46920011 F F T
    0.33413437    0.97031869    0.46866453 F F T
    0.66543077    0.97052436    0.46888818 F F T
    0.00101280    0.30219977    0.52135337 F F T
    0.33580536    0.30610186    0.52105956 F F T
    0.66475044    0.30343740    0.52099622 F F T
    0.16680731    0.55461680    0.52143875 F F T
    0.50170306    0.55375298    0.52088218 F F T
    0.83480075    0.55434427    0.52075228 F F T
    0.99857256    0.80547452    0.52099183 F F T
    0.33175214    0.80615835    0.52166939 F F T
    0.66637917    0.80468218    0.52133351 F F T
    0.16896903    0.05530553    0.52119948 F F T
    0.49945426    0.05428292    0.52086326 F F T
    0.83200199    0.05615400    0.52158281 F F T
    0.99845596    0.13960257    0.57341354 F F T
    0.33585491    0.13679945    0.57324882 F F T
    0.66756985    0.13921758    0.57379164 F F T
    0.16570811    0.38679282    0.57298384 F F T
    0.50039225    0.38568282    0.57372128 F F T
    0.83176030    0.38912981    0.57329844 F F T
    0.00236498    0.63841076    0.57320521 F F T
    0.33574107    0.63693136    0.57375440 F F T
    0.66780703    0.63626086    0.57305904 F F T
    0.16883474    0.88754660    0.57285895 F F T
    0.50172510    0.88741328    0.57346231 F F T
    0.83237365    0.88693927    0.57311528 F F T
