Generated generic
1.0
    7.66857304    0.00000000    0.00000000
    0.00000000    8.85490542    0.00000000
    0.00000000    0.00000000   40.04545468
 Cu
 144
Selective dynamics
Direct
    0.16406321    0.08166263    0.99963889 F F F
    0.49937748    0.08387845    0.00033671 F F F
    0.83137987    0.08360652    0.99977451 F F F
    0.00169516    0.33397366    0.99971503 F F F
    0.33093657    0.33329515    0.99982489 F F F
    0.66909361    0.33459625    0.00025655 F F F
    0.16925782    0.58455509    0.00025361 F F F
    0.50001383    0.58283536    0.99958796 F F F
    0.83091236    0.58463059    0.00017757 F F F
    0.99969946    0.83203881    0.00029993 F F F
    0.33147976    0.83530248    0.00030478 F F F
    0.66724647    0.83259456    0.99991274 F F F
    0.99756090    0.16831995    0.05236159 F F F
    0.33123227    0.16679812    0.05194997 F F F
    0.66680389    0.16711163    0.05209504 F F F
    0.16815149    0.41705581    0.05219240 F F F
    0.50098056    0.41785949    0.05201659 F F F
    0.83240116    0.41708440    0.05245580 F F F
    0.00179457    0.66880172    0.05198295 F F F
    0.33586173    0.66698776    0.05162599 F F F
    0.66557815    0.66639995    0.05218216 F F F
    0.16813252    0.91875023    0.05227917 F F F
    0.49786222    0.91656512    0.05199643 F F F
    0.83362825    0.91683460    0.05196254 F F F
    0.99743216    0.00097271    0.10427503 F F F
    0.33560058    0.00200161    0.10459043 F F F
    0.66545347    0.99870348    0.10394221 F F F
    0.16680947    0.25206480    0.10419963 F F F
    0.49813378    0.25027124    0.10426786 F F F
    0.83182958    0.24945195    0.10379508 F F F
    0.00197048    0.50208547    0.10376683 F F F
    0.33543895    0.49832724    0.10471930 F F F
    0.66639129    0.50172158    0.10428027 F F F
    0.16639020    0.74816789    0.10471324 F F F
    0.49883798    0.75154823    0.10393497 F F F
    0.83116662    0.75041571    0.10391606 F F F
    0.16704140    0.08368656    0.15660036 F F F
    0.49879123    0.08460622    0.15593745 F F F
    0.83503063    0.08317205    0.15647039 F F F
    0.00254114    0.33349235    0.15615150 F F F
    0.33299985    0.33190588    0.15675795 F F F
    0.66673131    0.33389934    0.15590303 F F F
    0.16567347    0.58530779    0.15617433 F F F
    0.50129550    0.58230597    0.15660373 F F F
    0.83256190    0.58385712    0.15646509 F F F
    0.00021242    0.83293942    0.15594946 F F F
    0.33526187    0.83293872    0.15655599 F F F
    0.66557578    0.83326289    0.15627926 F F F
    0.99974997    0.16487108    0.20809738 F F F
    0.33167666    0.16818706    0.20822959 F F F
    0.66466933    0.16778544    0.20803416 F F F
    0.16910279    0.41756985    0.20880278 F F F
    0.50000148    0.41575453    0.20871417 F F F
    0.83241405    0.41588482    0.20883256 F F F
    0.99952098    0.66678710    0.20806693 F F F
    0.33471307    0.66661503    0.20807877 F F F
    0.66674258    0.66665512    0.20881219 F F F
    0.16604354    0.91626426    0.20823746 F F F
    0.50039335    0.91876002    0.20829652 F F F
    0.83537354    0.91891569    0.20867824 F F F
    0.00209611    0.99970167    0.26068167 F F F
    0.33170206    0.99920482    0.26038574 F F F
    0.66681918    0.00006726    0.26095792 F F F
    0.16765836    0.25190671    0.26036335 F F F
    0.50195731    0.24873370    0.26051069 F F F
    0.83446321    0.25033096    0.26029021 F F F
    0.99915508    0.49809281    0.26027343 F F F
    0.33390709    0.50214574    0.26103513 F F F
    0.66583242    0.49942944    0.26042992 F F F
    0.16686419    0.74984471    0.26018801 F F F
    0.49817690    0.74923467    0.26063096 F F F
    0.83477090    0.74806290    0.26034525 F F F
    0.16698419    0.13445137    0.31316977 F F T
    0.50192177    0.13315944    0.31289461 F F T
    0.83381159    0.13250175    0.31227850 F F T
    0.00224862    0.38536365    0.31308306 F F T
    0.33415059    0.38479962    0.31221727 F F T
    0.66682098    0.38282320    0.31260090 F F T
    0.16637102    0.63465850    0.31269946 F F T
    0.50170045    0.63191573    0.31311788 F F T
    0.83486824    0.63242867    0.31317354 F F T
    0.00023997    0.88125131    0.31230946 F F T
    0.33124017    0.88498477    0.31250133 F F T
    0.66861056    0.88172612    0.31305202 F F T
    0.00035118    0.21819561    0.36517815 F F T
    0.33089167    0.21655040    0.36453123 F F T
    0.66801768    0.21660381    0.36446106 F F T
    0.16885339    0.46608558    0.36504505 F F T
    0.50185731    0.46448911    0.36496875 F F T
    0.83078211    0.46603215    0.36512876 F F T
    0.00254397    0.71467584    0.36512988 F F T
    0.33592584    0.71892338    0.36485936 F F T
    0.66478444    0.71455140    0.36528564 F F T
    0.16595633    0.96840686    0.36511955 F F T
    0.49814735    0.96833454    0.36499569 F F T
    0.83131241    0.96870252    0.36515304 F F T
    0.99917768    0.05198215    0.41722117 F F T
    0.33178373    0.04818358    0.41731485 F F T
    0.66815868    0.05047999    0.41689029 F F T
    0.16525306    0.30096604    0.41684057 F F T
    0.49942561    0.30088940    0.41652197 F F T
    0.83294054    0.30180864    0.41680963 F F T
    0.00075142    0.55043188    0.41727652 F F T
    0.33109750    0.54908316    0.41723420 F F T
    0.66517023    0.55191264    0.41676677 F F T
    0.16419000    0.79842656    0.41712788 F F T
    0.50198743    0.79872791    0.41691197 F F T
    0.83519506    0.79803461    0.41647473 F F T
    0.16904128    0.13330177    0.46879694 F F T
    0.49907661    0.13297936    0.46953622 F F T
    0.83296684    0.13170446    0.46873822 F F T
    0.99804130    0.38269331    0.46931419 F F T
    0.33304857    0.38219407    0.46910620 F F T
    0.66671829    0.38533423    0.46907874 F F T
    0.16669960    0.63236944    0.46862940 F F T
    0.49898419    0.63515641    0.46903765 F F T
    0.83210482    0.63546332    0.46896772 F F T
    0.99869169    0.88237503    0.46868992 F F T
    0.33469877    0.88110396    0.46945372 F F T
    0.66721227    0.88388599    0.46880640 F F T
    0.99960336    0.21665045    0.52118664 F F T
    0.33516303    0.21571094    0.52115673 F F T
    0.66604176    0.21691184    0.52109578 F F T
    0.16812678    0.46616384    0.52121844 F F T
    0.49796496    0.46507342    0.52114413 F F T
    0.83130807    0.46634492    0.52131985 F F T
    0.00152915    0.71866535    0.52073247 F F T
    0.33326768    0.71775178    0.52145488 F F T
    0.66809241    0.71872827    0.52122316 F F T
    0.16545611    0.96531258    0.52119114 F F T
    0.50133892    0.96461298    0.52080020 F F T
    0.83184904    0.96727255    0.52158736 F F T
    0.00248542    0.05084850    0.57313956 F F T
    0.33265502    0.04885341    0.57328885 F F T
    0.66816639    0.04831373    0.57360834 F F T
    0.16486790    0.29816222    0.57324674 F F T
    0.49881945    0.30072874    0.57334677 F F T
    0.83564740    0.30060264    0.57340951 F F T
    0.99764763    0.54962335    0.57321838 F F T
    0.33117911    0.54927709    0.57372758 F F T
    0.66837744    0.55022211    0.57358711 F F T
    0.16448354    0.79979304    0.57313353 F F T
    0.50191462    0.79808241    0.57371715 F F T
    0.83244305    0.80219370    0.57367393 F F T
