Generated generic
1.0
    7.66857304    0.00000000    0.00000000
    0.00000000    8.85490542    0.00000000
    0.00000000    0.00000000   40.04545468
 Cu
 144
Selective dynamics
Direct
    0.16790832    0.08488278    0.99993283 F F F
    0.50225178    0.08262285    0.00040156 F F F
    0.83530692    0.08529622    0.00003988 F F F
    0.99764565    0.33245599    0.00040250 F F F
    0.33289081    0.33366924    0.99980397 F F F
    0.66423098    0.33398170    0.99994112 F F F
    0.16455380    0.58245968    0.99950178 F F F
    0.50025268    0.58114348    0.00047197 F F F
    0.83440293    0.58142665    0.00021297 F F F
    0.99782061    0.83447282    0.00035687 F F F
    0.33142654    0.83185195    0.00004683 F F F
    0.66529216    0.83424012    0.00012192 F F F
    0.00174782    0.16786698    0.05186787 F F F
    0.33557927    0.16663808    0.05166006 F F F
    0.66416647    0.16676841    0.05170598 F F F
    0.16890185    0.41493620    0.05230080 F F F
    0.50043294    0.41508141    0.05235204 F F F
    0.83082009    0.41792919    0.05215771 F F F
    0.99794301    0.66627368    0.05187617 F F F
    0.33291090    0.66453348    0.05180921 F F F
    0.66505295    0.66671818    0.05251308 F F F
    0.16674049    0.91840058    0.05191591 F F F
    0.50112001    0.91884050    0.05230184 F F F
    0.83218865    0.91641408    0.05232490 F F F
    0.99863672    0.99814090    0.10440717 F F F
    0.33349592    0.00064431    0.10473235 F F F
    0.66664722    0.00213119    0.10455040 F F F
    0.16643622    0.25020218    0.10396768 F F F
    0.49858948    0.24915855    0.10453984 F F F
    0.83362793    0.25142680    0.10391128 F F F
    0.99836842    0.50140843    0.10383972 F F F
    0.33210058    0.50067906    0.10375850 F F F
    0.66720725    0.49986962    0.10417162 F F F
    0.16652903    0.74972325    0.10401020 F F F
    0.49880682    0.75107629    0.10451962 F F F
    0.83270809    0.75070844    0.10421897 F F F
    0.16580810    0.08293028    0.15660886 F F F
    0.50013116    0.08531711    0.15633701 F F F
    0.83121058    0.08137602    0.15637615 F F F
    0.99826873    0.33328258    0.15614307 F F F
    0.33216621    0.33301699    0.15647204 F F F
    0.66685462    0.33481127    0.15637070 F F F
    0.16832060    0.58254011    0.15593922 F F F
    0.50057300    0.58477734    0.15637359 F F F
    0.83315591    0.58179894    0.15596238 F F F
    0.00199128    0.83321350    0.15605021 F F F
    0.33329150    0.83159177    0.15656648 F F F
    0.66598375    0.83246282    0.15660097 F F F
    0.00180291    0.16767460    0.20809153 F F F
    0.33201437    0.16861958    0.20868709 F F F
    0.66773442    0.16856964    0.20891402 F F F
    0.16513777    0.41791851    0.20802673 F F F
    0.49848274    0.41479851    0.20855116 F F F
    0.83140009    0.41878385    0.20856942 F F F
    0.99774807    0.66666991    0.20822156 F F F
    0.33291578    0.66822822    0.20816258 F F F
    0.66626460    0.66762737    0.20827059 F F F
    0.16464813    0.91883240    0.20829589 F F F
    0.50023989    0.91682726    0.20821880 F F F
    0.83344148    0.91850427    0.20861782 F F F
    0.00053689    0.00214785    0.26093028 F F F
    0.33216785    0.00190244    0.26050582 F F F
    0.66881186    0.99855822    0.26076000 F F F
    0.16530699    0.25180443    0.26020606 F F F
    0.50034729    0.25127381    0.26026129 F F F
    0.83296997    0.25030844    0.26071640 F F F
    0.00188883    0.49926691    0.26037318 F F F
    0.33556563    0.50187778    0.26074276 F F F
    0.66618049    0.49786041    0.26018951 F F F
    0.16570232    0.74799475    0.26045867 F F F
    0.49874223    0.75154999    0.26099872 F F F
    0.83468508    0.74776967    0.26057749 F F F
    0.36866356    0.13262402    0.31310297 F F T
    0.69905354    0.13234408    0.31240295 F F T
    0.03461062    0.13437313    0.31310969 F F T
    0.20093176    0.38165001    0.31271984 F F T
    0.53503363    0.38520877    0.31243788 F F T
    0.86490434    0.38342876    0.31228636 F F T
    0.36909410    0.63224667    0.31222034 F F T
    0.69912598    0.63486942    0.31267594 F F T
    0.03311835    0.63503805    0.31241969 F F T
    0.19979077    0.88424515    0.31317354 F F T
    0.53543307    0.88260209    0.31277081 F F T
    0.86782955    0.88225477    0.31295055 F F T
    0.19852744    0.21662590    0.36496717 F F T
    0.53192995    0.21821604    0.36454634 F F T
    0.86848859    0.21752997    0.36503661 F F T
    0.36423548    0.46833863    0.36484724 F F T
    0.70051857    0.46765842    0.36505709 F F T
    0.03096216    0.46547896    0.36445223 F F T
    0.19996367    0.71571624    0.36451440 F F T
    0.53549882    0.71875865    0.36489544 F F T
    0.86869934    0.71870343    0.36473276 F F T
    0.36548382    0.96443054    0.36457115 F F T
    0.70019350    0.96774370    0.36448072 F F T
    0.03489831    0.96542187    0.36459220 F F T
    0.20069160    0.04787360    0.41693672 F F T
    0.53102433    0.04940520    0.41667928 F F T
    0.86586090    0.04825545    0.41692561 F F T
    0.36481123    0.30017503    0.41727694 F F T
    0.70059688    0.29917682    0.41690130 F F T
    0.03085231    0.30126386    0.41715593 F F T
    0.20138753    0.55129132    0.41655657 F F T
    0.53587999    0.55221912    0.41736987 F F T
    0.86918229    0.54807644    0.41659213 F F T
    0.36567530    0.80054955    0.41729528 F F T
    0.70089213    0.79913724    0.41668723 F F T
    0.03207850    0.79954478    0.41702402 F F T
    0.36465326    0.13307768    0.46872313 F F T
    0.69775817    0.13291159    0.46909120 F F T
    0.03475153    0.13178284    0.46945519 F F T
    0.20056266    0.38310725    0.46860095 F F T
    0.53181345    0.38132477    0.46942077 F F T
    0.86645729    0.38334565    0.46935168 F F T
    0.36597687    0.63463152    0.46925728 F F T
    0.69927213    0.63248018    0.46922219 F F T
    0.03587935    0.63315933    0.46864303 F F T
    0.20219248    0.88455367    0.46883471 F F T
    0.53336570    0.88163623    0.46888576 F F T
    0.86744762    0.88307927    0.46887867 F F T
    0.20223146    0.21618813    0.52151283 F F T
    0.53153390    0.21857901    0.52104722 F F T
    0.86480213    0.21692552    0.52131336 F F T
    0.36587936    0.46847004    0.52091668 F F T
    0.70210044    0.46608055    0.52076847 F F T
    0.03221295    0.46890573    0.52161011 F F T
    0.20193540    0.71443458    0.52080573 F F T
    0.53344262    0.71469185    0.52111876 F F T
    0.86814879    0.71443320    0.52113705 F F T
    0.36460130    0.96523486    0.52142987 F F T
    0.70222033    0.96778533    0.52083148 F F T
    0.03109336    0.96583373    0.52161863 F F T
    0.19847245    0.04856451    0.57294184 F F T
    0.53579588    0.05052224    0.57329337 F F T
    0.86746337    0.04948192    0.57315917 F F T
    0.36554405    0.29838930    0.57303801 F F T
    0.69986574    0.30160580    0.57285184 F F T
    0.03330038    0.30173487    0.57299539 F F T
    0.20250255    0.54803869    0.57348590 F F T
    0.53196068    0.54796879    0.57294224 F F T
    0.86770986    0.55130748    0.57294137 F F T
    0.36785001    0.80070837    0.57367531 F F T
    0.70118887    0.80224866    0.57308963 F F T
    0.03110961    0.80176936    0.57332729 F F T
