Generated generic
1.0
    7.66857304    0.00000000    0.00000000
    0.00000000    8.85490542    0.00000000
    0.00000000    0.00000000   40.04545468
 Cu
 144
Selective dynamics
Direct
    0.16643399    0.08425863    0.99998976 F F F
    0.49921135    0.08229017    0.00026624 F F F
    0.83360026    0.08541234    0.00016155 F F F
    0.00090815    0.33492250    0.00018001 F F F
    0.33090099    0.33108341    0.99952902 F F F
    0.66684479    0.33178070    0.00011046 F F F
    0.16883876    0.58371704    0.00027997 F F F
    0.50102032    0.58291651    0.00016526 F F F
    0.83180467    0.58380623    0.99966785 F F F
    0.00249711    0.83274448    0.00048500 F F F
    0.33573191    0.83506950    0.99972166 F F F
    0.66809508    0.83193766    0.00020392 F F F
    0.00244897    0.16441161    0.05222837 F F F
    0.33155642    0.16775219    0.05196196 F F F
    0.66547000    0.16466311    0.05223004 F F F
    0.16781600    0.41718455    0.05172793 F F F
    0.49850410    0.41840214    0.05218669 F F F
    0.83236393    0.41540789    0.05165893 F F F
    0.00182472    0.66855980    0.05165993 F F F
    0.33163748    0.66644480    0.05261584 F F F
    0.66670710    0.66612485    0.05218376 F F F
    0.16648423    0.91529650    0.05184343 F F F
    0.50017825    0.91708468    0.05234857 F F F
    0.83579033    0.91873774    0.05260839 F F F
    0.99828561    0.00191440    0.10460836 F F F
    0.33560509    0.99901074    0.10465891 F F F
    0.66420757    0.99942650    0.10394218 F F F
    0.16415505    0.24823032    0.10387935 F F F
    0.49826971    0.24818517    0.10457403 F F F
    0.83157470    0.24938738    0.10453908 F F F
    0.00159775    0.49913347    0.10439134 F F F
    0.33154761    0.50052107    0.10463399 F F F
    0.66791605    0.49795867    0.10383375 F F F
    0.16593047    0.75109412    0.10449359 F F F
    0.50215081    0.75044915    0.10455371 F F F
    0.83387343    0.75182183    0.10443895 F F F
    0.16877661    0.08471544    0.15594098 F F F
    0.50020372    0.08548084    0.15642110 F F F
    0.83099872    0.08451744    0.15653044 F F F
    0.99923911    0.33364130    0.15654546 F F F
    0.33115465    0.33532382    0.15616880 F F F
    0.66645805    0.33112218    0.15614779 F F F
    0.16693267    0.58290233    0.15595401 F F F
    0.50232322    0.58498180    0.15657864 F F F
    0.83118534    0.58547041    0.15596500 F F F
    0.99961135    0.83493613    0.15644185 F F F
    0.33383075    0.83234063    0.15660930 F F F
    0.66489547    0.83510189    0.15682249 F F F
    0.00229586    0.16584440    0.20866195 F F F
    0.33453112    0.16675783    0.20821358 F F F
    0.66474546    0.16826051    0.20799534 F F F
    0.16899566    0.41464163    0.20891028 F F F
    0.50121187    0.41604252    0.20805101 F F F
    0.83089856    0.41693102    0.20896889 F F F
    0.00181870    0.66688217    0.20853618 F F F
    0.33092064    0.66748563    0.20897161 F F F
    0.66475527    0.66862910    0.20887766 F F F
    0.16721621    0.91662746    0.20888281 F F F
    0.50202563    0.91815995    0.20876146 F F F
    0.83556483    0.91608067    0.20870900 F F F
    0.99748327    0.00021058    0.26103495 F F F
    0.33348319    0.00001217    0.26010402 F F F
    0.66515748    0.00190951    0.26075522 F F F
    0.16657573    0.24837631    0.26064778 F F F
    0.50236410    0.24843381    0.26077945 F F F
    0.83141097    0.24959128    0.26034307 F F F
    0.00004852    0.50194262    0.26033630 F F F
    0.33245673    0.49907390    0.26070873 F F F
    0.66459770    0.50114640    0.26011802 F F F
    0.16484110    0.75060753    0.26080624 F F F
    0.50258286    0.75098863    0.26077032 F F F
    0.83094057    0.74883549    0.26089975 F F F
    0.29933116    0.33391316    0.31231577 F F T
    0.63287798    0.33121716    0.31238742 F F T
    0.96484640    0.33145795    0.31309557 F F T
    0.13087383    0.58141714    0.31272113 F F T
    0.46654924    0.58358356    0.31250527 F F T
    0.79898934    0.58228821    0.31277712 F F T
    0.30108104    0.83349208    0.31279190 F F T
    0.63277359    0.83185541    0.31285821 F F T
    0.96429644    0.83301175    0.31227688 F F T
    0.13099555    0.08244841    0.31233331 F F T
    0.46767189    0.08108167    0.31262866 F F T
    0.80204335    0.08433303    0.31301563 F F T
    0.13336940    0.41710084    0.36450748 F F T
    0.46469999    0.41566284    0.36523621 F F T
    0.79967334    0.41743780    0.36469562 F F T
    0.29991649    0.66466477    0.36494027 F F T
    0.63210329    0.66542489    0.36533047 F F T
    0.96698791    0.66759922    0.36501352 F F T
    0.13304870    0.91662563    0.36433337 F F T
    0.46854611    0.91599178    0.36434850 F F T
    0.79803037    0.91499925    0.36442219 F F T
    0.29810026    0.16743031    0.36469988 F F T
    0.63375155    0.16880214    0.36526999 F F T
    0.96910859    0.16738867    0.36516685 F F T
    0.13198709    0.24899113    0.41728146 F F T
    0.46574148    0.25003976    0.41721415 F F T
    0.79879290    0.24883018    0.41712412 F F T
    0.29872652    0.50098612    0.41714068 F F T
    0.63577451    0.49982594    0.41713550 F F T
    0.96493317    0.50075183    0.41647870 F F T
    0.13169986    0.74985052    0.41733161 F F T
    0.46511107    0.75187516    0.41740188 F F T
    0.80230168    0.74895577    0.41681171 F F T
    0.30096102    0.99996680    0.41734945 F F T
    0.63165781    0.99919496    0.41706225 F F T
    0.96804168    0.00107556    0.41649181 F F T
    0.29887381    0.33482048    0.46930195 F F T
    0.63256949    0.33271075    0.46904860 F F T
    0.96780994    0.33281247    0.46923837 F F T
    0.13177145    0.58213366    0.46890521 F F T
    0.46764925    0.58368474    0.46926720 F F T
    0.79939114    0.58467298    0.46947547 F F T
    0.30217587    0.83512219    0.46867614 F F T
    0.63277855    0.83375092    0.46919189 F F T
    0.96877739    0.83525611    0.46948544 F F T
    0.13379603    0.08328084    0.46874340 F F T
    0.46504819    0.08406738    0.46907971 F F T
    0.79808702    0.08499883    0.46900208 F F T
    0.13191078    0.41856901    0.52128301 F F T
    0.46558126    0.41547615    0.52141676 F F T
    0.80255360    0.41690916    0.52106667 F F T
    0.29978940    0.66829073    0.52153371 F F T
    0.63390895    0.66767549    0.52122778 F F T
    0.96825938    0.66514045    0.52089961 F F T
    0.13450075    0.91794957    0.52097283 F F T
    0.46491843    0.91746975    0.52135982 F F T
    0.79924179    0.91808806    0.52080493 F F T
    0.30240469    0.16545800    0.52113638 F F T
    0.63399855    0.16720051    0.52154407 F F T
    0.96777621    0.16611374    0.52091677 F F T
    0.13164136    0.25102212    0.57291810 F F T
    0.46412933    0.24816350    0.57346382 F F T
    0.79941054    0.25079908    0.57367906 F F T
    0.30258693    0.50015380    0.57320237 F F T
    0.63562834    0.49966305    0.57369340 F F T
    0.96907158    0.49929164    0.57352893 F F T
    0.13469851    0.75223716    0.57330003 F F T
    0.46520170    0.74984174    0.57356082 F F T
    0.79858214    0.74933711    0.57361916 F F T
    0.30093871    0.00041522    0.57366534 F F T
    0.63194666    0.99995170    0.57377203 F F T
    0.96838926    0.99920880    0.57313480 F F T
