Generated generic
1.0
    7.66857304    0.00000000    0.00000000
    0.00000000    8.85490542    0.00000000
    0.00000000    0.00000000   40.04545468
 Cu
 144
Selective dynamics
Direct
    0.16742986    0.08508521    0.99966824 F F F
    0.49938717    0.08319567    0.00015447 F F F
    0.83464729    0.08493194    0.00045456 F F F
    0.99899310    0.33177649    0.00008237 F F F
    0.33520607    0.33404989    0.00014769 F F F
    0.66651555    0.33278169    0.99956434 F F F
    0.16806549    0.58322604    0.00032890 F F F
    0.49780959    0.58353161    0.00038418 F F F
    0.83313994    0.58351943    0.99975032 F F F
    0.99987793    0.83243551    0.99994716 F F F
    0.33498910    0.83131410    0.99965605 F F F
    0.66818948    0.83444614    0.00021588 F F F
    0.99742952    0.16544036    0.05228155 F F F
    0.33458303    0.16451304    0.05253503 F F F
    0.66814777    0.16775495    0.05253597 F F F
    0.16890024    0.41574293    0.05196527 F F F
    0.50073698    0.41842098    0.05196160 F F F
    0.83575887    0.41878818    0.05174193 F F F
    0.99811187    0.66802042    0.05222416 F F F
    0.33353407    0.66501449    0.05230143 F F F
    0.66543588    0.66815325    0.05191815 F F F
    0.16777686    0.91527614    0.05178682 F F F
    0.50079321    0.91507458    0.05219861 F F F
    0.83440579    0.91756530    0.05229100 F F F
    0.99929717    0.00120740    0.10400237 F F F
    0.33335438    0.99955129    0.10429909 F F F
    0.66577658    0.00185461    0.10440616 F F F
    0.16653721    0.24970850    0.10468931 F F F
    0.50155314    0.25098238    0.10387937 F F F
    0.83392638    0.24829634    0.10396206 F F F
    0.00186487    0.49837021    0.10400474 F F F
    0.33286840    0.50013957    0.10472055 F F F
    0.66707996    0.49898920    0.10443747 F F F
    0.16886062    0.75016944    0.10390772 F F F
    0.49770570    0.74879671    0.10429856 F F F
    0.83096539    0.75091671    0.10468998 F F F
    0.16546447    0.08475175    0.15679187 F F F
    0.50171589    0.08494664    0.15604076 F F F
    0.83540785    0.08409279    0.15633602 F F F
    0.00169067    0.33186608    0.15589236 F F F
    0.33286108    0.33556184    0.15610308 F F F
    0.66559901    0.33476088    0.15681467 F F F
    0.16799862    0.58503095    0.15635893 F F F
    0.50015117    0.58448176    0.15655330 F F F
    0.83407131    0.58298492    0.15596501 F F F
    0.00077037    0.83346610    0.15667277 F F F
    0.33319711    0.83204340    0.15681287 F F F
    0.66518591    0.83286215    0.15648176 F F F
    0.99802776    0.16872240    0.20859288 F F F
    0.33103397    0.16691119    0.20843720 F F F
    0.66463118    0.16741924    0.20887579 F F F
    0.16454133    0.41512806    0.20894408 F F F
    0.50223651    0.41528170    0.20848489 F F F
    0.83518309    0.41691048    0.20832551 F F F
    0.00191018    0.66696472    0.20867262 F F F
    0.33558167    0.66612929    0.20836090 F F F
    0.66600439    0.66540335    0.20817482 F F F
    0.16769496    0.91631054    0.20860954 F F F
    0.49789114    0.91540346    0.20865818 F F F
    0.83555300    0.91693121    0.20822731 F F F
    0.99924257    0.00099129    0.26089180 F F F
    0.33335780    0.99931763    0.26089356 F F F
    0.66723290    0.00005116    0.26079971 F F F
    0.16779181    0.25134882    0.26091620 F F F
    0.49928834    0.25069816    0.26052573 F F F
    0.83382321    0.24972013    0.26014969 F F F
    0.00181770    0.49919490    0.26037245 F F F
    0.33230496    0.50033036    0.26043187 F F F
    0.66834628    0.49976392    0.26011616 F F F
    0.16873794    0.74940872    0.26073205 F F F
    0.50043999    0.74856905    0.26021811 F F F
    0.83329756    0.74825008    0.26013841 F F F
    0.43338789    0.28438555    0.31262622 F F T
    0.76539615    0.28269398    0.31254202 F F T
    0.09812615    0.28319211    0.31309717 F F T
    0.26446985    0.53366026    0.31313667 F F T
    0.60072848    0.53333085    0.31266226 F F T
    0.93075620    0.53235200    0.31242222 F F T
    0.43277419    0.78284996    0.31276880 F F T
    0.76466405    0.78546308    0.31230383 F F T
    0.10223770    0.78290363    0.31302417 F F T
    0.26474622    0.03394724    0.31283213 F F T
    0.59760022    0.03538614    0.31319947 F F T
    0.93389636    0.03134996    0.31310059 F F T
    0.26904109    0.36704355    0.36520016 F F T
    0.60221985    0.36600342    0.36448998 F F T
    0.93081129    0.36454936    0.36517511 F F T
    0.43280232    0.61467647    0.36526120 F F T
    0.76582703    0.61576265    0.36506906 F F T
    0.09805462    0.61459594    0.36466507 F F T
    0.26859970    0.86746224    0.36500759 F F T
    0.60011361    0.86733106    0.36443890 F F T
    0.93381951    0.86501399    0.36499277 F F T
    0.43191991    0.11472345    0.36526246 F F T
    0.76541667    0.11888287    0.36494149 F F T
    0.09914364    0.11618879    0.36452583 F F T
    0.26655828    0.20165326    0.41682353 F F T
    0.59925403    0.19823800    0.41679033 F F T
    0.93434303    0.19848350    0.41647992 F F T
    0.43581598    0.45222341    0.41722790 F F T
    0.76708422    0.44836751    0.41731719 F F T
    0.10088742    0.45073931    0.41737334 F F T
    0.26775514    0.69791665    0.41705598 F F T
    0.59928378    0.70034762    0.41676731 F F T
    0.93136323    0.69932024    0.41682706 F F T
    0.43211965    0.95224405    0.41713683 F F T
    0.76607346    0.95056853    0.41715229 F F T
    0.09857724    0.94791579    0.41740608 F F T
    0.43529536    0.28374198    0.46920400 F F T
    0.76899005    0.28373150    0.46898607 F F T
    0.09822930    0.28440142    0.46943616 F F T
    0.26694964    0.53260987    0.46895539 F F T
    0.59833022    0.53256110    0.46936863 F F T
    0.93294137    0.53477494    0.46877355 F F T
    0.43141684    0.78480359    0.46876700 F F T
    0.76555190    0.78522537    0.46860743 F F T
    0.10089284    0.78159541    0.46916886 F F T
    0.26585307    0.03109797    0.46884927 F F T
    0.59818924    0.03164572    0.46902135 F F T
    0.93128563    0.03544445    0.46925197 F F T
    0.26842348    0.36721569    0.52116885 F F T
    0.59825690    0.36847786    0.52126784 F F T
    0.93227589    0.36593535    0.52164776 F F T
    0.43494366    0.61511273    0.52081725 F F T
    0.76574217    0.61789785    0.52142134 F F T
    0.10182018    0.61675691    0.52147085 F F T
    0.26734117    0.86448371    0.52094498 F F T
    0.59891856    0.86707483    0.52167421 F F T
    0.93162133    0.86559547    0.52117406 F F T
    0.43200925    0.11452999    0.52096001 F F T
    0.76657669    0.11865620    0.52154627 F F T
    0.09908361    0.11845986    0.52115925 F F T
    0.26498748    0.19960554    0.57314663 F F T
    0.60120061    0.20006076    0.57288111 F F T
    0.93102189    0.19919002    0.57357460 F F T
    0.43172335    0.44882774    0.57349593 F F T
    0.76531245    0.45090534    0.57369039 F F T
    0.09874042    0.44855561    0.57378395 F F T
    0.26412193    0.69798763    0.57354979 F F T
    0.59818864    0.70039325    0.57350634 F F T
    0.93282651    0.70193119    0.57314300 F F T
    0.43488136    0.94778155    0.57284912 F F T
    0.76710975    0.95080704    0.57352287 F F T
    0.09965489    0.94811939    0.57376961 F F T
