Generated generic
1.0
    7.66857304    0.00000000    0.00000000
    0.00000000    8.85490542    0.00000000
    0.00000000    0.00000000   40.04545468
 Cu
 144
Selective dynamics
Direct
    0.16643657    0.08182704    0.99996290 F F F
    0.50010006    0.08190282    0.99993064 F F F
    0.83080221    0.08416962    0.99953233 F F F
    0.00160951    0.33340508    0.00006269 F F F
    0.33242176    0.33406615    0.00014607 F F F
    0.66453506    0.33298571    0.00011688 F F F
    0.16420477    0.58127840    0.99988921 F F F
    0.49904587    0.58446999    0.00024427 F F F
    0.83505547    0.58130231    0.00005410 F F F
    0.99871615    0.83551488    0.00036276 F F F
    0.33183262    0.83289279    0.99989942 F F F
    0.66588536    0.83353497    0.00028121 F F F
    0.99837400    0.16832398    0.05211840 F F F
    0.33234606    0.16668547    0.05176373 F F F
    0.66517837    0.16462422    0.05215211 F F F
    0.16597353    0.41459655    0.05174756 F F F
    0.50063518    0.41736189    0.05221740 F F F
    0.83256261    0.41876948    0.05205341 F F F
    0.99964035    0.66555552    0.05187996 F F F
    0.33147224    0.66807761    0.05169032 F F F
    0.66419122    0.66694406    0.05214563 F F F
    0.16738402    0.91871365    0.05236562 F F F
    0.50080673    0.91599297    0.05187023 F F F
    0.83383321    0.91528155    0.05202587 F F F
    0.00173191    0.00196191    0.10399547 F F F
    0.33375062    0.99827598    0.10447287 F F F
    0.66824907    0.99788899    0.10374976 F F F
    0.16903129    0.24794415    0.10441391 F F F
    0.50209114    0.25109268    0.10442756 F F F
    0.83224038    0.24815476    0.10395633 F F F
    0.99774344    0.50052920    0.10415183 F F F
    0.33473498    0.50092881    0.10425502 F F F
    0.66576848    0.49820066    0.10400664 F F F
    0.16760502    0.75033305    0.10376815 F F F
    0.49811551    0.74830924    0.10401234 F F F
    0.83423533    0.74814398    0.10393178 F F F
    0.16618559    0.08525423    0.15629220 F F F
    0.50106609    0.08230293    0.15593396 F F F
    0.83306990    0.08154148    0.15631364 F F F
    0.99997129    0.33315138    0.15679565 F F F
    0.33394051    0.33242469    0.15640624 F F F
    0.66755534    0.33479986    0.15598292 F F F
    0.16428704    0.58503011    0.15657698 F F F
    0.50101560    0.58482663    0.15681206 F F F
    0.83224327    0.58185174    0.15623190 F F F
    0.99880085    0.83266854    0.15669529 F F F
    0.33285202    0.83282178    0.15614930 F F F
    0.66450320    0.83224119    0.15628271 F F F
    0.99981937    0.16558380    0.20813767 F F F
    0.33129757    0.16798713    0.20799578 F F F
    0.66574293    0.16812637    0.20882537 F F F
    0.16841054    0.41774577    0.20892831 F F F
    0.50066428    0.41742058    0.20820516 F F F
    0.83266716    0.41533870    0.20861593 F F F
    0.00055807    0.66600356    0.20801505 F F F
    0.33389807    0.66724841    0.20864101 F F F
    0.66553201    0.66572183    0.20851899 F F F
    0.16907556    0.91866222    0.20803618 F F F
    0.50181596    0.91484023    0.20858524 F F F
    0.83209301    0.91479236    0.20823305 F F F
    0.00255155    0.99814136    0.26092254 F F F
    0.33233684    0.00059701    0.26079873 F F F
    0.66416275    0.99823529    0.26078934 F F F
    0.16491979    0.24928706    0.26039024 F F F
    0.49815658    0.25146676    0.26100281 F F F
    0.83244259    0.24929384    0.26050865 F F F
    0.00219752    0.50220399    0.26024654 F F F
    0.33508013    0.49901338    0.26022731 F F F
    0.66466087    0.49801159    0.26074811 F F F
    0.16475902    0.75155445    0.26057884 F F F
    0.50173116    0.74838997    0.26084023 F F F
    0.83136539    0.75153163    0.26032764 F F F
    0.36451647    0.23329386    0.31318792 F F T
    0.70154526    0.23217593    0.31284661 F F T
    0.03452895    0.23464299    0.31301462 F F T
    0.19923685    0.48130543    0.31231124 F F T
    0.53202496    0.48201886    0.31291550 F F T
    0.86565555    0.48236709    0.31228962 F F T
    0.36474885    0.73415391    0.31248440 F F T
    0.70181610    0.73167622    0.31230320 F F T
    0.03276376    0.73475525    0.31295654 F F T
    0.20187476    0.98152160    0.31286546 F F T
    0.53080310    0.98263876    0.31264539 F F T
    0.86852392    0.98495782    0.31290413 F F T
    0.20056273    0.31704057    0.36438775 F F T
    0.53471643    0.31446821    0.36451884 F F T
    0.86669389    0.31721237    0.36501662 F F T
    0.36749421    0.56845492    0.36498412 F F T
    0.69846803    0.56576565    0.36526129 F F T
    0.03474675    0.56580882    0.36448535 F F T
    0.19762012    0.81542161    0.36530796 F F T
    0.53135361    0.81681673    0.36502988 F F T
    0.86761119    0.81775118    0.36529944 F F T
    0.36574239    0.06490807    0.36527622 F F T
    0.69823507    0.06793743    0.36463428 F F T
    0.03403840    0.06584159    0.36448604 F F T
    0.19901512    0.14948197    0.41683385 F F T
    0.53300422    0.14862025    0.41739516 F F T
    0.86666180    0.14937078    0.41680721 F F T
    0.36489176    0.40008168    0.41683344 F F T
    0.70127961    0.39776285    0.41657621 F F T
    0.03492217    0.39798335    0.41739421 F F T
    0.20105280    0.64991608    0.41688539 F F T
    0.53214065    0.64984835    0.41741315 F F T
    0.86815097    0.65153305    0.41683050 F F T
    0.36660698    0.90138323    0.41723068 F F T
    0.70232014    0.89785808    0.41727165 F F T
    0.03100012    0.90116647    0.41727769 F F T
    0.36881117    0.23189833    0.46862930 F F T
    0.69992980    0.23436355    0.46932503 F F T
    0.03463035    0.23366670    0.46938014 F F T
    0.20057814    0.48135296    0.46916199 F F T
    0.53177250    0.48135596    0.46950509 F F T
    0.86911912    0.48393119    0.46956726 F F T
    0.36875454    0.73221636    0.46884411 F F T
    0.69996055    0.73293369    0.46935857 F F T
    0.03445945    0.73557415    0.46882611 F F T
    0.20107184    0.98436344    0.46877697 F F T
    0.53496797    0.98271851    0.46878688 F F T
    0.86472079    0.98504768    0.46940845 F F T
    0.19997777    0.31847012    0.52164431 F F T
    0.53422939    0.31682604    0.52081891 F F T
    0.86893359    0.31557572    0.52104964 F F T
    0.36542260    0.56660544    0.52142946 F F T
    0.69809957    0.56707811    0.52077271 F F T
    0.03131376    0.56480740    0.52088040 F F T
    0.20227276    0.81830761    0.52153895 F F T
    0.53385687    0.81805720    0.52120711 F F T
    0.86875679    0.81778283    0.52098664 F F T
    0.36595580    0.06836283    0.52154197 F F T
    0.69767857    0.06757422    0.52103568 F F T
    0.03241691    0.06673382    0.52076731 F F T
    0.20072560    0.15021954    0.57315193 F F T
    0.53375635    0.14920870    0.57294697 F F T
    0.86453158    0.14988397    0.57353137 F F T
    0.36844265    0.39940227    0.57345242 F F T
    0.70229106    0.39866006    0.57316938 F F T
    0.03529977    0.40016422    0.57301787 F F T
    0.19875213    0.65081482    0.57368294 F F T
    0.53108982    0.65095425    0.57352366 F F T
    0.86454893    0.64836966    0.57294021 F F T
    0.36554688    0.90020359    0.57321514 F F T
    0.69864047    0.89981739    0.57292080 F F T
    0.03466117    0.90048085    0.57294888 F F T
