Generated generic
1.0
    7.66857304    0.00000000    0.00000000
    0.00000000    8.85490542    0.00000000
    0.00000000    0.00000000   40.04545468
 Cu
 144
Selective dynamics
Direct
    0.16462285    0.08313260    0.00047051 F F F
    0.49994980    0.08257917    0.00004447 F F F
    0.83142919    0.08339474    0.00029073 F F F
    0.99965018    0.33366164    0.99958389 F F F
    0.33501947    0.33281823    0.99965004 F F F
    0.66874019    0.33176581    0.99960334 F F F
    0.16491803    0.58374933    0.00019315 F F F
    0.50054826    0.58356822    0.99987776 F F F
    0.83247264    0.58386633    0.99989031 F F F
    0.99906573    0.83519977    0.00015971 F F F
    0.33384145    0.83432810    0.99983586 F F F
    0.66464009    0.83349586    0.00047760 F F F
    0.99912207    0.16579175    0.05176833 F F F
    0.33102431    0.16533577    0.05185404 F F F
    0.66922129    0.16713628    0.05210473 F F F
    0.16660322    0.41480553    0.05167553 F F F
    0.49832576    0.41637051    0.05244017 F F F
    0.83135682    0.41844795    0.05204922 F F F
    0.00017986    0.66715778    0.05163010 F F F
    0.33410730    0.66643162    0.05164029 F F F
    0.66876481    0.66808782    0.05215034 F F F
    0.16741758    0.91765743    0.05229249 F F F
    0.50009159    0.91598766    0.05219470 F F F
    0.83299090    0.91856871    0.05213053 F F F
    0.99792620    0.99886581    0.10385983 F F F
    0.33348551    0.00190837    0.10453323 F F F
    0.66489849    0.00126777    0.10449972 F F F
    0.16633559    0.25222731    0.10403570 F F F
    0.50029921    0.25197354    0.10443388 F F F
    0.83527710    0.24808171    0.10382826 F F F
    0.99996546    0.50144215    0.10406701 F F F
    0.33559991    0.50097121    0.10375828 F F F
    0.66642146    0.50176329    0.10378337 F F F
    0.16608527    0.74929580    0.10452959 F F F
    0.49791663    0.75147568    0.10382607 F F F
    0.83309488    0.75166497    0.10418797 F F F
    0.16864363    0.08422223    0.15619261 F F F
    0.50108174    0.08250546    0.15627805 F F F
    0.83592109    0.08365134    0.15670109 F F F
    0.99888004    0.33183704    0.15649536 F F F
    0.33429935    0.33162095    0.15586853 F F F
    0.66910963    0.33205027    0.15586854 F F F
    0.16774393    0.58352831    0.15614137 F F F
    0.50055897    0.58543300    0.15614502 F F F
    0.83118460    0.58439621    0.15621237 F F F
    0.99904839    0.83418304    0.15598873 F F F
    0.33192248    0.83298471    0.15637215 F F F
    0.66609496    0.83353333    0.15679708 F F F
    0.00091107    0.16829222    0.20880610 F F F
    0.33136987    0.16704255    0.20831484 F F F
    0.66659459    0.16839921    0.20885760 F F F
    0.16852172    0.41718747    0.20816949 F F F
    0.50047222    0.41616118    0.20832321 F F F
    0.83094323    0.41622366    0.20839187 F F F
    0.00256261    0.66771187    0.20878736 F F F
    0.33520845    0.66864595    0.20886215 F F F
    0.66901487    0.66589611    0.20818072 F F F
    0.16592224    0.91871950    0.20825226 F F F
    0.50095073    0.91687880    0.20806195 F F F
    0.83351118    0.91603104    0.20847475 F F F
    0.99752886    0.00203500    0.26018006 F F F
    0.33237606    0.00219174    0.26106763 F F F
    0.66460029    0.99944489    0.26101909 F F F
    0.16619937    0.24858865    0.26068892 F F F
    0.49781098    0.25045063    0.26051577 F F F
    0.83548129    0.25118627    0.26089137 F F F
    0.00027038    0.49834142    0.26043754 F F F
    0.33422562    0.50056705    0.26097704 F F F
    0.66914420    0.50206128    0.26024919 F F F
    0.16553980    0.75005630    0.26068280 F F F
    0.49918104    0.74958004    0.26026915 F F F
    0.83579291    0.74903713    0.26103720 F F F
    0.23081923    0.13163752    0.31235270 F F T
    0.56417987    0.13166655    0.31311002 F F T
    0.90086417    0.13342222    0.31255040 F F T
    0.06780450    0.38482343    0.31282374 F F T
    0.39964651    0.38296274    0.31273817 F F T
    0.73407785    0.38538752    0.31301926 F F T
    0.23151578    0.63321383    0.31321063 F F T
    0.56761594    0.63381288    0.31274782 F F T
    0.89865996    0.63185201    0.31297515 F F T
    0.06672265    0.88529081    0.31289487 F F T
    0.40112749    0.88413890    0.31228981 F F T
    0.73575187    0.88362126    0.31233463 F F T
    0.06484330    0.21738884    0.36481520 F F T
    0.39784077    0.21492437    0.36439555 F F T
    0.73083107    0.21524371    0.36525459 F F T
    0.23317750    0.46755764    0.36527387 F F T
    0.56532292    0.46648852    0.36453754 F F T
    0.89939941    0.46873045    0.36531307 F F T
    0.06433823    0.71846576    0.36494195 F F T
    0.39843057    0.71738682    0.36461222 F F T
    0.73183937    0.71848963    0.36499253 F F T
    0.23354203    0.96701573    0.36457209 F F T
    0.56556414    0.96563356    0.36494497 F F T
    0.90031312    0.96606586    0.36503754 F F T
    0.06874987    0.05198697    0.41725774 F F T
    0.40031717    0.04893081    0.41652988 F F T
    0.73399669    0.04839969    0.41647976 F F T
    0.23224696    0.29822201    0.41647915 F F T
    0.56774207    0.29817105    0.41668367 F F T
    0.90113611    0.30037501    0.41693969 F F T
    0.06627855    0.55043416    0.41738849 F F T
    0.40195709    0.55078965    0.41739824 F F T
    0.73127082    0.54854059    0.41655940 F F T
    0.23564566    0.79970026    0.41711665 F F T
    0.56463092    0.80053879    0.41720410 F F T
    0.89792155    0.79918832    0.41657719 F F T
    0.23533715    0.13520659    0.46926988 F F T
    0.56688017    0.13263930    0.46929858 F F T
    0.89867181    0.13127102    0.46895948 F F T
    0.06778228    0.38246025    0.46881411 F F T
    0.40047569    0.38269221    0.46857715 F F T
    0.73315208    0.38418720    0.46939570 F F T
    0.23463175    0.63493373    0.46920250 F F T
    0.56555909    0.63112932    0.46942534 F F T
    0.90181240    0.63252333    0.46897726 F F T
    0.06464757    0.88449492    0.46947293 F F T
    0.40163257    0.88511027    0.46891544 F F T
    0.73430775    0.88282157    0.46902213 F F T
    0.06623675    0.21558591    0.52107603 F F T
    0.40027993    0.21497440    0.52094542 F F T
    0.73192148    0.21719724    0.52162068 F F T
    0.23357822    0.46526630    0.52127358 F F T
    0.56447993    0.46891931    0.52164674 F F T
    0.90160704    0.46452202    0.52084594 F F T
    0.06650731    0.71621137    0.52117185 F F T
    0.39828036    0.71652373    0.52112790 F F T
    0.73142061    0.71884593    0.52127409 F F T
    0.23375862    0.96547197    0.52104425 F F T
    0.56447455    0.96629708    0.52115584 F F T
    0.89767375    0.96768944    0.52115994 F F T
    0.06719400    0.04874677    0.57319067 F F T
    0.40188372    0.04930961    0.57302618 F F T
    0.73128019    0.05107999    0.57294170 F F T
    0.23110044    0.30036487    0.57343761 F F T
    0.56520052    0.30132790    0.57344845 F F T
    0.90155909    0.29809318    0.57289738 F F T
    0.06670318    0.55224304    0.57368126 F F T
    0.39814177    0.55171744    0.57371076 F F T
    0.73431176    0.55013946    0.57364786 F F T
    0.23337423    0.80028263    0.57328742 F F T
    0.56817254    0.79795527    0.57316155 F F T
    0.90149191    0.80074484    0.57346292 F F T
