Generated generic
1.0
    7.66857304    0.00000000    0.00000000
    0.00000000    8.85490542    0.00000000
    0.00000000    0.00000000   40.04545468
 Cu
 144
Selective dynamics
Direct
    0.16788788    0.08171595    0.00022022 F F F
    0.50103279    0.08423847    0.00039618 F F F
    0.83115589    0.08476165    0.00038875 F F F
    0.99992326    0.33256735    0.00030334 F F F
    0.33242319    0.33158267    0.99981559 F F F
    0.66925976    0.33355028    0.00009944 F F F
    0.16539732    0.58236159    0.99992437 F F F
    0.50004853    0.58251575    0.00014406 F F F
    0.83126103    0.58282459    0.99979468 F F F
    0.99902149    0.83303367    0.99979442 F F F
    0.33525486    0.83464783    0.99992304 F F F
    0.66516861    0.83376717    0.99988697 F F F
    0.99924653    0.16572341    0.05180858 F F F
    0.33406709    0.16628382    0.05228592 F F F
    0.66676956    0.16508229    0.05172056 F F F
    0.16526425    0.41649920    0.05237431 F F F
    0.49758732    0.41495836    0.05226673 F F F
    0.83146961    0.41835500    0.05234328 F F F
    0.99828906    0.66871947    0.05237318 F F F
    0.33128137    0.66445625    0.05181600 F F F
    0.66848276    0.66861492    0.05202048 F F F
    0.16757517    0.91868759    0.05250277 F F F
    0.50204726    0.91838639    0.05216886 F F F
    0.83573067    0.91443270    0.05196764 F F F
    0.00049302    0.00056134    0.10391465 F F F
    0.33274064    0.00149502    0.10465912 F F F
    0.66762698    0.99851925    0.10463659 F F F
    0.16495401    0.25176748    0.10436022 F F F
    0.49876163    0.25071458    0.10462135 F F F
    0.83376802    0.25125533    0.10449373 F F F
    0.00256494    0.49950410    0.10442187 F F F
    0.33388806    0.49818234    0.10431149 F F F
    0.66906488    0.49958378    0.10437667 F F F
    0.16561691    0.75196833    0.10398932 F F F
    0.50028784    0.74788513    0.10434100 F F F
    0.83545542    0.74816741    0.10389398 F F F
    0.16836493    0.08346556    0.15681450 F F F
    0.50039948    0.08463062    0.15671567 F F F
    0.83402171    0.08515941    0.15666025 F F F
    0.99970930    0.33328493    0.15625326 F F F
    0.33191097    0.33260520    0.15620134 F F F
    0.66466155    0.33128142    0.15668869 F F F
    0.16728533    0.58284606    0.15652251 F F F
    0.50009232    0.58520358    0.15602593 F F F
    0.83397586    0.58369086    0.15668680 F F F
    0.99835563    0.83504680    0.15603217 F F F
    0.33585143    0.83276961    0.15593839 F F F
    0.66790896    0.83459864    0.15629641 F F F
    0.99991274    0.16750255    0.20848530 F F F
    0.33402789    0.16668298    0.20871068 F F F
    0.66926757    0.16545725    0.20847721 F F F
    0.16649055    0.41671518    0.20892790 F F F
    0.50224941    0.41486099    0.20822827 F F F
    0.83230549    0.41724289    0.20820300 F F F
    0.99894603    0.66638573    0.20797945 F F F
    0.33534034    0.66661433    0.20837392 F F F
    0.66860374    0.66471498    0.20853523 F F F
    0.16708020    0.91688820    0.20809723 F F F
    0.49947318    0.91574409    0.20888128 F F F
    0.83335408    0.91812582    0.20853876 F F F
    0.99771950    0.99878565    0.26035118 F F F
    0.33198661    0.99853190    0.26068521 F F F
    0.66582852    0.00004349    0.26045347 F F F
    0.16683702    0.24785874    0.26071156 F F F
    0.50223755    0.24845145    0.26095119 F F F
    0.83402717    0.25171640    0.26045047 F F F
    0.00257085    0.49854971    0.26083013 F F F
    0.33141129    0.49908093    0.26042351 F F F
    0.66805968    0.49908557    0.26097002 F F F
    0.16482028    0.74829730    0.26044373 F F F
    0.49809863    0.75143511    0.26030664 F F F
    0.83436769    0.74846655    0.26056359 F F F
    0.30178453    0.13321082    0.31235805 F F T
    0.63163738    0.13458380    0.31280268 F F T
    0.96884909    0.13372477    0.31255740 F F T
    0.13078028    0.38390924    0.31245526 F F T
    0.46805874    0.38395206    0.31253097 F F T
    0.79753303    0.38112395    0.31248240 F F T
    0.30071895    0.63223883    0.31318572 F F T
    0.63122790    0.63472549    0.31306599 F F T
    0.96742587    0.63341543    0.31299818 F F T
    0.13403755    0.88529223    0.31233902 F F T
    0.46835647    0.88383616    0.31299250 F F T
    0.79926484    0.88361251    0.31266274 F F T
    0.13302950    0.21637641    0.36524219 F F T
    0.46533577    0.21842365    0.36521794 F F T
    0.80156238    0.21592252    0.36487862 F F T
    0.29992714    0.46656493    0.36498470 F F T
    0.63225489    0.46726752    0.36492114 F F T
    0.96604396    0.46607122    0.36530940 F F T
    0.13217258    0.71561853    0.36531558 F F T
    0.46446190    0.71848486    0.36494003 F F T
    0.80149149    0.71572548    0.36508328 F F T
    0.30199912    0.96530764    0.36455664 F F T
    0.63480683    0.96889782    0.36479953 F F T
    0.96903309    0.96447056    0.36493157 F F T
    0.13312305    0.05126345    0.41687570 F F T
    0.46584200    0.04997680    0.41735187 F F T
    0.79845263    0.04940567    0.41669238 F F T
    0.29758267    0.30125655    0.41691816 F F T
    0.63275301    0.29936704    0.41680795 F F T
    0.96901036    0.29996587    0.41726161 F F T
    0.13336472    0.55182525    0.41657300 F F T
    0.46486162    0.54890276    0.41666072 F F T
    0.79803814    0.55029645    0.41724721 F F T
    0.30132540    0.79940824    0.41700648 F F T
    0.63363458    0.79854266    0.41645265 F F T
    0.96695420    0.79975513    0.41724530 F F T
    0.30118302    0.13378786    0.46954337 F F T
    0.63240430    0.13177226    0.46948592 F F T
    0.96413996    0.13129262    0.46880890 F F T
    0.13363314    0.38189160    0.46894428 F F T
    0.46437772    0.38132621    0.46921381 F F T
    0.79781645    0.38370482    0.46866140 F F T
    0.29959324    0.63520270    0.46916227 F F T
    0.63152176    0.63180774    0.46906162 F F T
    0.96867488    0.63352060    0.46917642 F F T
    0.13437977    0.88383539    0.46859015 F F T
    0.46794111    0.88415890    0.46942198 F F T
    0.80190975    0.88427911    0.46947417 F F T
    0.13384121    0.21606194    0.52138311 F F T
    0.46415203    0.21625341    0.52100932 F F T
    0.79767312    0.21671320    0.52168275 F F T
    0.29871422    0.46690444    0.52108279 F F T
    0.63218888    0.46712004    0.52156308 F F T
    0.96923291    0.46517457    0.52140956 F F T
    0.13580204    0.71567049    0.52086294 F F T
    0.46456844    0.71802627    0.52168574 F F T
    0.79793931    0.71831059    0.52132283 F F T
    0.30060436    0.96669156    0.52143060 F F T
    0.63141239    0.96841564    0.52112594 F F T
    0.96651350    0.96654037    0.52151790 F F T
    0.13099790    0.05008425    0.57314226 F F T
    0.46492562    0.05162355    0.57367226 F F T
    0.79835949    0.05171032    0.57343012 F F T
    0.29829399    0.29947175    0.57312052 F F T
    0.63085855    0.30171792    0.57337207 F F T
    0.96899615    0.30091454    0.57285290 F F T
    0.13114718    0.55164783    0.57328759 F F T
    0.46858307    0.55113934    0.57310261 F F T
    0.80110024    0.54879208    0.57358742 F F T
    0.30170101    0.80134317    0.57287238 F F T
    0.63157956    0.79997756    0.57322833 F F T
    0.96863814    0.79832033    0.57364955 F F T
