Generated generic
1.0
    7.66857304    0.00000000    0.00000000
    5.11238203    8.85490542    0.00000000
    0.00000000    0.00000000   64.70075792
 Cu
 372
Selective dynamics
Direct
    0.00000000    0.00000000    0.00000000 T T T
    0.33333333    0.00000000    0.00000000 T T T
    0.66666667    0.00000000    0.00000000 T T T
    0.00000000    0.25000000    0.00000000 T T T
    0.33333333    0.25000000    0.00000000 T T T
    0.66666667    0.25000000    0.00000000 T T T
    0.00000000    0.50000000    0.00000000 T T T
    0.33333333    0.50000000    0.00000000 T T T
    0.66666667    0.50000000    0.00000000 T T T
    0.00000000    0.75000000    0.00000000 T T T
    0.33333333    0.75000000    0.00000000 T T T
    0.66666667    0.75000000    0.00000000 T T T
    0.11111111    0.08333333    0.03225806 T T T
    0.44444444    0.08333333    0.03225806 T T T
    0.77777778    0.08333333    0.03225806 T T T
    0.11111111    0.33333333    0.03225806 T T T
    0.44444444    0.33333333    0.03225806 T T T
    0.77777778    0.33333333    0.03225806 T T T
    0.11111111    0.58333333    0.03225806 T T T
    0.44444444    0.58333333    0.03225806 T T T
    0.77777778    0.58333333    0.03225806 T T T
    0.11111111    0.83333333    0.03225806 T T T
    0.44444444    0.83333333    0.03225806 T T T
    0.77777778    0.83333333    0.03225806 T T T
    0.22222222    0.16666667    0.06451613 T T T
    0.55555556    0.16666667    0.06451613 T T T
    0.88888889    0.16666667    0.06451613 T T T
    0.22222222    0.41666667    0.06451613 T T T
    0.55555556    0.41666667    0.06451613 T T T
    0.88888889    0.41666667    0.06451613 T T T
    0.22222222    0.66666667    0.06451613 T T T
    0.55555556    0.66666667    0.06451613 T T T
    0.88888889    0.66666667    0.06451613 T T T
    0.22222222    0.91666667    0.06451613 T T T
    0.55555556    0.91666667    0.06451613 T T T
    0.88888889    0.91666667    0.06451613 T T T
    0.00000000    0.00000000    0.09677419 T T T
    0.33333333    0.00000000    0.09677419 T T T
    0.66666667    0.00000000    0.09677419 T T T
    0.00000000    0.25000000    0.09677419 T T T
    0.33333333    0.25000000    0.09677419 T T T
    0.66666667    0.25000000    0.09677419 T T T
    0.00000000    0.50000000    0.09677419 T T T
    0.33333333    0.50000000    0.09677419 T T T
    0.66666667    0.50000000    0.09677419 T T T
    0.00000000    0.75000000    0.09677419 T T T
    0.33333333    0.75000000    0.09677419 T T T
    0.66666667    0.75000000    0.09677419 T T T
    0.11111111    0.08333333    0.12903226 T T T
    0.44444444    0.08333333    0.12903226 T T T
    0.77777778    0.08333333    0.12903226 T T T
    0.11111111    0.33333333    0.12903226 T T T
    0.44444444    0.33333333    0.12903226 T T T
    0.77777778    0.33333333    0.12903226 T T T
    0.11111111    0.58333333    0.12903226 T T T
    0.44444444    0.58333333    0.12903226 T T T
    0.77777778    0.58333333    0.12903226 T T T
    0.11111111    0.83333333    0.12903226 T T T
    0.44444444    0.83333333    0.12903226 T T T
    0.77777778    0.83333333    0.12903226 T T T
    0.22222222    0.16666667    0.16129032 T T T
    0.55555556    0.16666667    0.16129032 T T T
    0.88888889    0.16666667    0.16129032 T T T
    0.22222222    0.41666667    0.16129032 T T T
    0.55555556    0.41666667    0.16129032 T T T
    0.88888889    0.41666667    0.16129032 T T T
    0.22222222    0.66666667    0.16129032 T T T
    0.55555556    0.66666667    0.16129032 T T T
    0.88888889    0.66666667    0.16129032 T T T
    0.22222222    0.91666667    0.16129032 T T T
    0.55555556    0.91666667    0.16129032 T T T
    0.88888889    0.91666667    0.16129032 T T T
    0.00000000    0.00000000    0.19354839 T T T
    0.33333333    0.00000000    0.19354839 T T T
    0.66666667    0.00000000    0.19354839 T T T
    0.00000000    0.25000000    0.19354839 T T T
    0.33333333    0.25000000    0.19354839 T T T
    0.66666667    0.25000000    0.19354839 T T T
    0.00000000    0.50000000    0.19354839 T T T
    0.33333333    0.50000000    0.19354839 T T T
    0.66666667    0.50000000    0.19354839 T T T
    0.00000000    0.75000000    0.19354839 T T T
    0.33333333    0.75000000    0.19354839 T T T
    0.66666667    0.75000000    0.19354839 T T T
    0.11111111    0.08333333    0.22580645 T T T
    0.44444444    0.08333333    0.22580645 T T T
    0.77777778    0.08333333    0.22580645 T T T
    0.11111111    0.33333333    0.22580645 T T T
    0.44444444    0.33333333    0.22580645 T T T
    0.77777778    0.33333333    0.22580645 T T T
    0.11111111    0.58333333    0.22580645 T T T
    0.44444444    0.58333333    0.22580645 T T T
    0.77777778    0.58333333    0.22580645 T T T
    0.11111111    0.83333333    0.22580645 T T T
    0.44444444    0.83333333    0.22580645 T T T
    0.77777778    0.83333333    0.22580645 T T T
    0.22222222    0.16666667    0.25806452 T T T
    0.55555556    0.16666667    0.25806452 T T T
    0.88888889    0.16666667    0.25806452 T T T
    0.22222222    0.41666667    0.25806452 T T T
    0.55555556    0.41666667    0.25806452 T T T
    0.88888889    0.41666667    0.25806452 T T T
    0.22222222    0.66666667    0.25806452 T T T
    0.55555556    0.66666667    0.25806452 T T T
    0.88888889    0.66666667    0.25806452 T T T
    0.22222222    0.91666667    0.25806452 T T T
    0.55555556    0.91666667    0.25806452 T T T
    0.88888889    0.91666667    0.25806452 T T T
    0.00000000    0.00000000    0.29032258 T T T
    0.33333333    0.00000000    0.29032258 T T T
    0.66666667    0.00000000    0.29032258 T T T
    0.00000000    0.25000000    0.29032258 T T T
    0.33333333    0.25000000    0.29032258 T T T
    0.66666667    0.25000000    0.29032258 T T T
    0.00000000    0.50000000    0.29032258 T T T
    0.33333333    0.50000000    0.29032258 T T T
    0.66666667    0.50000000    0.29032258 T T T
    0.00000000    0.75000000    0.29032258 T T T
    0.33333333    0.75000000    0.29032258 T T T
    0.66666667    0.75000000    0.29032258 T T T
    0.22222222    0.16666667    0.32258065 T T T
    0.55555556    0.16666667    0.32258065 T T T
    0.88888889    0.16666667    0.32258065 T T T
    0.22222222    0.41666667    0.32258065 T T T
    0.55555556    0.41666667    0.32258065 T T T
    0.88888889    0.41666667    0.32258065 T T T
    0.22222222    0.66666667    0.32258065 T T T
    0.55555556    0.66666667    0.32258065 T T T
    0.88888889    0.66666667    0.32258065 T T T
    0.22222222    0.91666667    0.32258065 T T T
    0.55555556    0.91666667    0.32258065 T T T
    0.88888889    0.91666667    0.32258065 T T T
    0.11111111    0.08333333    0.35483871 T T T
    0.44444444    0.08333333    0.35483871 T T T
    0.77777778    0.08333333    0.35483871 T T T
    0.11111111    0.33333333    0.35483871 T T T
    0.44444444    0.33333333    0.35483871 T T T
    0.77777778    0.33333333    0.35483871 T T T
    0.11111111    0.58333333    0.35483871 T T T
    0.44444444    0.58333333    0.35483871 T T T
    0.77777778    0.58333333    0.35483871 T T T
    0.11111111    0.83333333    0.35483871 T T T
    0.44444444    0.83333333    0.35483871 T T T
    0.77777778    0.83333333    0.35483871 T T T
    0.00000000    0.00000000    0.38709677 T T T
    0.33333333    0.00000000    0.38709677 T T T
    0.66666667    0.00000000    0.38709677 T T T
    0.00000000    0.25000000    0.38709677 T T T
    0.33333333    0.25000000    0.38709677 T T T
    0.66666667    0.25000000    0.38709677 T T T
    0.00000000    0.50000000    0.38709677 T T T
    0.33333333    0.50000000    0.38709677 T T T
    0.66666667    0.50000000    0.38709677 T T T
    0.00000000    0.75000000    0.38709677 T T T
    0.33333333    0.75000000    0.38709677 T T T
    0.66666667    0.75000000    0.38709677 T T T
    0.22222222    0.16666667    0.41935484 T T T
    0.55555556    0.16666667    0.41935484 T T T
    0.88888889    0.16666667    0.41935484 T T T
    0.22222222    0.41666667    0.41935484 T T T
    0.55555556    0.41666667    0.41935484 T T T
    0.88888889    0.41666667    0.41935484 T T T
    0.22222222    0.66666667    0.41935484 T T T
    0.55555556    0.66666667    0.41935484 T T T
    0.88888889    0.66666667    0.41935484 T T T
    0.22222222    0.91666667    0.41935484 T T T
    0.55555556    0.91666667    0.41935484 T T T
    0.88888889    0.91666667    0.41935484 T T T
    0.11111111    0.08333333    0.45161290 T T T
    0.44444444    0.08333333    0.45161290 T T T
    0.77777778    0.08333333    0.45161290 T T T
    0.11111111    0.33333333    0.45161290 T T T
    0.44444444    0.33333333    0.45161290 T T T
    0.77777778    0.33333333    0.45161290 T T T
    0.11111111    0.58333333    0.45161290 T T T
    0.44444444    0.58333333    0.45161290 T T T
    0.77777778    0.58333333    0.45161290 T T T
    0.11111111    0.83333333    0.45161290 T T T
    0.44444444    0.83333333    0.45161290 T T T
    0.77777778    0.83333333    0.45161290 T T T
    0.00000000    0.00000000    0.48387097 T T T
    0.33333333    0.00000000    0.48387097 T T T
    0.66666667    0.00000000    0.48387097 T T T
    0.00000000    0.25000000    0.48387097 T T T
    0.33333333    0.25000000    0.48387097 T T T
    0.66666667    0.25000000    0.48387097 T T T
    0.00000000    0.50000000    0.48387097 T T T
    0.33333333    0.50000000    0.48387097 T T T
    0.66666667    0.50000000    0.48387097 T T T
    0.00000000    0.75000000    0.48387097 T T T
    0.33333333    0.75000000    0.48387097 T T T
    0.66666667    0.75000000    0.48387097 T T T
    0.22222222    0.16666667    0.51612903 T T T
    0.55555556    0.16666667    0.51612903 T T T
    0.88888889    0.16666667    0.51612903 T T T
    0.22222222    0.41666667    0.51612903 T T T
    0.55555556    0.41666667    0.51612903 T T T
    0.88888889    0.41666667    0.51612903 T T T
    0.22222222    0.66666667    0.51612903 T T T
    0.55555556    0.66666667    0.51612903 T T T
    0.88888889    0.66666667    0.51612903 T T T
    0.22222222    0.91666667    0.51612903 T T T
    0.55555556    0.91666667    0.51612903 T T T
    0.88888889    0.91666667    0.51612903 T T T
    0.11111111    0.08333333    0.54838710 T T T
    0.44444444    0.08333333    0.54838710 T T T
    0.77777778    0.08333333    0.54838710 T T T
    0.11111111    0.33333333    0.54838710 T T T
    0.44444444    0.33333333    0.54838710 T T T
    0.77777778    0.33333333    0.54838710 T T T
    0.11111111    0.58333333    0.54838710 T T T
    0.44444444    0.58333333    0.54838710 T T T
    0.77777778    0.58333333    0.54838710 T T T
    0.11111111    0.83333333    0.54838710 T T T
    0.44444444    0.83333333    0.54838710 T T T
    0.77777778    0.83333333    0.54838710 T T T
    0.00000000    0.00000000    0.58064516 T T T
    0.33333333    0.00000000    0.58064516 T T T
    0.66666667    0.00000000    0.58064516 T T T
    0.00000000    0.25000000    0.58064516 T T T
    0.33333333    0.25000000    0.58064516 T T T
    0.66666667    0.25000000    0.58064516 T T T
    0.00000000    0.50000000    0.58064516 T T T
    0.33333333    0.50000000    0.58064516 T T T
    0.66666667    0.50000000    0.58064516 T T T
    0.00000000    0.75000000    0.58064516 T T T
    0.33333333    0.75000000    0.58064516 T T T
    0.66666667    0.75000000    0.58064516 T T T
    0.22222222    0.16666667    0.61290323 T T T
    0.55555556    0.16666667    0.61290323 T T T
    0.88888889    0.16666667    0.61290323 T T T
    0.22222222    0.41666667    0.61290323 T T T
    0.55555556    0.41666667    0.61290323 T T T
    0.88888889    0.41666667    0.61290323 T T T
    0.22222222    0.66666667    0.61290323 T T T
    0.55555556    0.66666667    0.61290323 T T T
    0.88888889    0.66666667    0.61290323 T T T
    0.22222222    0.91666667    0.61290323 T T T
    0.55555556    0.91666667    0.61290323 T T T
    0.88888889    0.91666667    0.61290323 T T T
    0.11111111    0.08333333    0.64516129 T T T
    0.44444444    0.08333333    0.64516129 T T T
    0.77777778    0.08333333    0.64516129 T T T
    0.11111111    0.33333333    0.64516129 T T T
    0.44444444    0.33333333    0.64516129 T T T
    0.77777778    0.33333333    0.64516129 T T T
    0.11111111    0.58333333    0.64516129 T T T
    0.44444444    0.58333333    0.64516129 T T T
    0.77777778    0.58333333    0.64516129 T T T
    0.11111111    0.83333333    0.64516129 T T T
    0.44444444    0.83333333    0.64516129 T T T
    0.77777778    0.83333333    0.64516129 T T T
    0.22222222    0.16666667    0.67741935 T T T
    0.55555556    0.16666667    0.67741935 T T T
    0.88888889    0.16666667    0.67741935 T T T
    0.22222222    0.41666667    0.67741935 T T T
    0.55555556    0.41666667    0.67741935 T T T
    0.88888889    0.41666667    0.67741935 T T T
    0.22222222    0.66666667    0.67741935 T T T
    0.55555556    0.66666667    0.67741935 T T T
    0.88888889    0.66666667    0.67741935 T T T
    0.22222222    0.91666667    0.67741935 T T T
    0.55555556    0.91666667    0.67741935 T T T
    0.88888889    0.91666667    0.67741935 T T T
    0.00000000    0.00000000    0.70967742 T T T
    0.33333333    0.00000000    0.70967742 T T T
    0.66666667    0.00000000    0.70967742 T T T
    0.00000000    0.25000000    0.70967742 T T T
    0.33333333    0.25000000    0.70967742 T T T
    0.66666667    0.25000000    0.70967742 T T T
    0.00000000    0.50000000    0.70967742 T T T
    0.33333333    0.50000000    0.70967742 T T T
    0.66666667    0.50000000    0.70967742 T T T
    0.00000000    0.75000000    0.70967742 T T T
    0.33333333    0.75000000    0.70967742 T T T
    0.66666667    0.75000000    0.70967742 T T T
    0.11111111    0.08333333    0.74193548 T T T
    0.44444444    0.08333333    0.74193548 T T T
    0.77777778    0.08333333    0.74193548 T T T
    0.11111111    0.33333333    0.74193548 T T T
    0.44444444    0.33333333    0.74193548 T T T
    0.77777778    0.33333333    0.74193548 T T T
    0.11111111    0.58333333    0.74193548 T T T
    0.44444444    0.58333333    0.74193548 T T T
    0.77777778    0.58333333    0.74193548 T T T
    0.11111111    0.83333333    0.74193548 T T T
    0.44444444    0.83333333    0.74193548 T T T
    0.77777778    0.83333333    0.74193548 T T T
    0.22222222    0.16666667    0.77419355 T T T
    0.55555556    0.16666667    0.77419355 T T T
    0.88888889    0.16666667    0.77419355 T T T
    0.22222222    0.41666667    0.77419355 T T T
    0.55555556    0.41666667    0.77419355 T T T
    0.88888889    0.41666667    0.77419355 T T T
    0.22222222    0.66666667    0.77419355 T T T
    0.55555556    0.66666667    0.77419355 T T T
    0.88888889    0.66666667    0.77419355 T T T
    0.22222222    0.91666667    0.77419355 T T T
    0.55555556    0.91666667    0.77419355 T T T
    0.88888889    0.91666667    0.77419355 T T T
    0.00000000    0.00000000    0.80645161 T T T
    0.33333333    0.00000000    0.80645161 T T T
    0.66666667    0.00000000    0.80645161 T T T
    0.00000000    0.25000000    0.80645161 T T T
    0.33333333    0.25000000    0.80645161 T T T
    0.66666667    0.25000000    0.80645161 T T T
    0.00000000    0.50000000    0.80645161 T T T
    0.33333333    0.50000000    0.80645161 T T T
    0.66666667    0.50000000    0.80645161 T T T
    0.00000000    0.75000000    0.80645161 T T T
    0.33333333    0.75000000    0.80645161 T T T
    0.66666667    0.75000000    0.80645161 T T T
    0.11111111    0.08333333    0.83870968 T T T
    0.44444444    0.08333333    0.83870968 T T T
    0.77777778    0.08333333    0.83870968 T T T
    0.11111111    0.33333333    0.83870968 T T T
    0.44444444    0.33333333    0.83870968 T T T
    0.77777778    0.33333333    0.83870968 T T T
    0.11111111    0.58333333    0.83870968 T T T
    0.44444444    0.58333333    0.83870968 T T T
    0.77777778    0.58333333    0.83870968 T T T
    0.11111111    0.83333333    0.83870968 T T T
    0.44444444    0.83333333    0.83870968 T T T
    0.77777778    0.83333333    0.83870968 T T T
    0.22222222    0.16666667    0.87096774 T T T
    0.55555556    0.16666667    0.87096774 T T T
    0.88888889    0.16666667    0.87096774 T T T
    0.22222222    0.41666667    0.87096774 T T T
    0.55555556    0.41666667    0.87096774 T T T
    0.88888889    0.41666667    0.87096774 T T T
    0.22222222    0.66666667    0.87096774 T T T
    0.55555556    0.66666667    0.87096774 T T T
    0.88888889    0.66666667    0.87096774 T T T
    0.22222222    0.91666667    0.87096774 T T T
    0.55555556    0.91666667    0.87096774 T T T
    0.88888889    0.91666667    0.87096774 T T T
    0.00000000    0.00000000    0.90322581 T T T
    0.33333333    0.00000000    0.90322581 T T T
    0.66666667    0.00000000    0.90322581 T T T
    0.00000000    0.25000000    0.90322581 T T T
    0.33333333    0.25000000    0.90322581 T T T
    0.66666667    0.25000000    0.90322581 T T T
    0.00000000    0.50000000    0.90322581 T T T
    0.33333333    0.50000000    0.90322581 T T T
    0.66666667    0.50000000    0.90322581 T T T
    0.00000000    0.75000000    0.90322581 T T T
    0.33333333    0.75000000    0.90322581 T T T
    0.66666667    0.75000000    0.90322581 T T T
    0.11111111    0.08333333    0.93548387 T T T
    0.44444444    0.08333333    0.93548387 T T T
    0.77777778    0.08333333    0.93548387 T T T
    0.11111111    0.33333333    0.93548387 T T T
    0.44444444    0.33333333    0.93548387 T T T
    0.77777778    0.33333333    0.93548387 T T T
    0.11111111    0.58333333    0.93548387 T T T
    0.44444444    0.58333333    0.93548387 T T T
    0.77777778    0.58333333    0.93548387 T T T
    0.11111111    0.83333333    0.93548387 T T T
    0.44444444    0.83333333    0.93548387 T T T
    0.77777778    0.83333333    0.93548387 T T T
    0.22222222    0.16666667    0.96774194 T T T
    0.55555556    0.16666667    0.96774194 T T T
    0.88888889    0.16666667    0.96774194 T T T
    0.22222222    0.41666667    0.96774194 T T T
    0.55555556    0.41666667    0.96774194 T T T
    0.88888889    0.41666667    0.96774194 T T T
    0.22222222    0.66666667    0.96774194 T T T
    0.55555556    0.66666667    0.96774194 T T T
    0.88888889    0.66666667    0.96774194 T T T
    0.22222222    0.91666667    0.96774194 T T T
    0.55555556    0.91666667    0.96774194 T T T
    0.88888889    0.91666667    0.96774194 T T T
