Generated generic
1.0
    7.66857304    0.00000000    0.00000000
    5.11238203    8.85490542    0.00000000
    0.00000000    0.00000000   62.61363669
 Cu
 360
Selective dynamics
Direct
    0.00000000    0.00000000    0.00000000 T T T
    0.33333333    0.00000000    0.00000000 T T T
    0.66666667    0.00000000    0.00000000 T T T
    0.00000000    0.25000000    0.00000000 T T T
    0.33333333    0.25000000    0.00000000 T T T
    0.66666667    0.25000000    0.00000000 T T T
    0.00000000    0.50000000    0.00000000 T T T
    0.33333333    0.50000000    0.00000000 T T T
    0.66666667    0.50000000    0.00000000 T T T
    0.00000000    0.75000000    0.00000000 T T T
    0.33333333    0.75000000    0.00000000 T T T
    0.66666667    0.75000000    0.00000000 T T T
    0.11111111    0.08333333    0.03333333 T T T
    0.44444444    0.08333333    0.03333333 T T T
    0.77777778    0.08333333    0.03333333 T T T
    0.11111111    0.33333333    0.03333333 T T T
    0.44444444    0.33333333    0.03333333 T T T
    0.77777778    0.33333333    0.03333333 T T T
    0.11111111    0.58333333    0.03333333 T T T
    0.44444444    0.58333333    0.03333333 T T T
    0.77777778    0.58333333    0.03333333 T T T
    0.11111111    0.83333333    0.03333333 T T T
    0.44444444    0.83333333    0.03333333 T T T
    0.77777778    0.83333333    0.03333333 T T T
    0.22222222    0.16666667    0.06666667 T T T
    0.55555556    0.16666667    0.06666667 T T T
    0.88888889    0.16666667    0.06666667 T T T
    0.22222222    0.41666667    0.06666667 T T T
    0.55555556    0.41666667    0.06666667 T T T
    0.88888889    0.41666667    0.06666667 T T T
    0.22222222    0.66666667    0.06666667 T T T
    0.55555556    0.66666667    0.06666667 T T T
    0.88888889    0.66666667    0.06666667 T T T
    0.22222222    0.91666667    0.06666667 T T T
    0.55555556    0.91666667    0.06666667 T T T
    0.88888889    0.91666667    0.06666667 T T T
    0.00000000    0.00000000    0.10000000 T T T
    0.33333333    0.00000000    0.10000000 T T T
    0.66666667    0.00000000    0.10000000 T T T
    0.00000000    0.25000000    0.10000000 T T T
    0.33333333    0.25000000    0.10000000 T T T
    0.66666667    0.25000000    0.10000000 T T T
    0.00000000    0.50000000    0.10000000 T T T
    0.33333333    0.50000000    0.10000000 T T T
    0.66666667    0.50000000    0.10000000 T T T
    0.00000000    0.75000000    0.10000000 T T T
    0.33333333    0.75000000    0.10000000 T T T
    0.66666667    0.75000000    0.10000000 T T T
    0.11111111    0.08333333    0.13333333 T T T
    0.44444444    0.08333333    0.13333333 T T T
    0.77777778    0.08333333    0.13333333 T T T
    0.11111111    0.33333333    0.13333333 T T T
    0.44444444    0.33333333    0.13333333 T T T
    0.77777778    0.33333333    0.13333333 T T T
    0.11111111    0.58333333    0.13333333 T T T
    0.44444444    0.58333333    0.13333333 T T T
    0.77777778    0.58333333    0.13333333 T T T
    0.11111111    0.83333333    0.13333333 T T T
    0.44444444    0.83333333    0.13333333 T T T
    0.77777778    0.83333333    0.13333333 T T T
    0.22222222    0.16666667    0.16666667 T T T
    0.55555556    0.16666667    0.16666667 T T T
    0.88888889    0.16666667    0.16666667 T T T
    0.22222222    0.41666667    0.16666667 T T T
    0.55555556    0.41666667    0.16666667 T T T
    0.88888889    0.41666667    0.16666667 T T T
    0.22222222    0.66666667    0.16666667 T T T
    0.55555556    0.66666667    0.16666667 T T T
    0.88888889    0.66666667    0.16666667 T T T
    0.22222222    0.91666667    0.16666667 T T T
    0.55555556    0.91666667    0.16666667 T T T
    0.88888889    0.91666667    0.16666667 T T T
    0.00000000    0.00000000    0.20000000 T T T
    0.33333333    0.00000000    0.20000000 T T T
    0.66666667    0.00000000    0.20000000 T T T
    0.00000000    0.25000000    0.20000000 T T T
    0.33333333    0.25000000    0.20000000 T T T
    0.66666667    0.25000000    0.20000000 T T T
    0.00000000    0.50000000    0.20000000 T T T
    0.33333333    0.50000000    0.20000000 T T T
    0.66666667    0.50000000    0.20000000 T T T
    0.00000000    0.75000000    0.20000000 T T T
    0.33333333    0.75000000    0.20000000 T T T
    0.66666667    0.75000000    0.20000000 T T T
    0.11111111    0.08333333    0.23333333 T T T
    0.44444444    0.08333333    0.23333333 T T T
    0.77777778    0.08333333    0.23333333 T T T
    0.11111111    0.33333333    0.23333333 T T T
    0.44444444    0.33333333    0.23333333 T T T
    0.77777778    0.33333333    0.23333333 T T T
    0.11111111    0.58333333    0.23333333 T T T
    0.44444444    0.58333333    0.23333333 T T T
    0.77777778    0.58333333    0.23333333 T T T
    0.11111111    0.83333333    0.23333333 T T T
    0.44444444    0.83333333    0.23333333 T T T
    0.77777778    0.83333333    0.23333333 T T T
    0.22222222    0.16666667    0.26666667 T T T
    0.55555556    0.16666667    0.26666667 T T T
    0.88888889    0.16666667    0.26666667 T T T
    0.22222222    0.41666667    0.26666667 T T T
    0.55555556    0.41666667    0.26666667 T T T
    0.88888889    0.41666667    0.26666667 T T T
    0.22222222    0.66666667    0.26666667 T T T
    0.55555556    0.66666667    0.26666667 T T T
    0.88888889    0.66666667    0.26666667 T T T
    0.22222222    0.91666667    0.26666667 T T T
    0.55555556    0.91666667    0.26666667 T T T
    0.88888889    0.91666667    0.26666667 T T T
    0.00000000    0.00000000    0.30000000 T T T
    0.33333333    0.00000000    0.30000000 T T T
    0.66666667    0.00000000    0.30000000 T T T
    0.00000000    0.25000000    0.30000000 T T T
    0.33333333    0.25000000    0.30000000 T T T
    0.66666667    0.25000000    0.30000000 T T T
    0.00000000    0.50000000    0.30000000 T T T
    0.33333333    0.50000000    0.30000000 T T T
    0.66666667    0.50000000    0.30000000 T T T
    0.00000000    0.75000000    0.30000000 T T T
    0.33333333    0.75000000    0.30000000 T T T
    0.66666667    0.75000000    0.30000000 T T T
    0.22222222    0.16666667    0.33333333 T T T
    0.55555556    0.16666667    0.33333333 T T T
    0.88888889    0.16666667    0.33333333 T T T
    0.22222222    0.41666667    0.33333333 T T T
    0.55555556    0.41666667    0.33333333 T T T
    0.88888889    0.41666667    0.33333333 T T T
    0.22222222    0.66666667    0.33333333 T T T
    0.55555556    0.66666667    0.33333333 T T T
    0.88888889    0.66666667    0.33333333 T T T
    0.22222222    0.91666667    0.33333333 T T T
    0.55555556    0.91666667    0.33333333 T T T
    0.88888889    0.91666667    0.33333333 T T T
    0.11111111    0.08333333    0.36666667 T T T
    0.44444444    0.08333333    0.36666667 T T T
    0.77777778    0.08333333    0.36666667 T T T
    0.11111111    0.33333333    0.36666667 T T T
    0.44444444    0.33333333    0.36666667 T T T
    0.77777778    0.33333333    0.36666667 T T T
    0.11111111    0.58333333    0.36666667 T T T
    0.44444444    0.58333333    0.36666667 T T T
    0.77777778    0.58333333    0.36666667 T T T
    0.11111111    0.83333333    0.36666667 T T T
    0.44444444    0.83333333    0.36666667 T T T
    0.77777778    0.83333333    0.36666667 T T T
    0.00000000    0.00000000    0.40000000 T T T
    0.33333333    0.00000000    0.40000000 T T T
    0.66666667    0.00000000    0.40000000 T T T
    0.00000000    0.25000000    0.40000000 T T T
    0.33333333    0.25000000    0.40000000 T T T
    0.66666667    0.25000000    0.40000000 T T T
    0.00000000    0.50000000    0.40000000 T T T
    0.33333333    0.50000000    0.40000000 T T T
    0.66666667    0.50000000    0.40000000 T T T
    0.00000000    0.75000000    0.40000000 T T T
    0.33333333    0.75000000    0.40000000 T T T
    0.66666667    0.75000000    0.40000000 T T T
    0.22222222    0.16666667    0.43333333 T T T
    0.55555556    0.16666667    0.43333333 T T T
    0.88888889    0.16666667    0.43333333 T T T
    0.22222222    0.41666667    0.43333333 T T T
    0.55555556    0.41666667    0.43333333 T T T
    0.88888889    0.41666667    0.43333333 T T T
    0.22222222    0.66666667    0.43333333 T T T
    0.55555556    0.66666667    0.43333333 T T T
    0.88888889    0.66666667    0.43333333 T T T
    0.22222222    0.91666667    0.43333333 T T T
    0.55555556    0.91666667    0.43333333 T T T
    0.88888889    0.91666667    0.43333333 T T T
    0.11111111    0.08333333    0.46666667 T T T
    0.44444444    0.08333333    0.46666667 T T T
    0.77777778    0.08333333    0.46666667 T T T
    0.11111111    0.33333333    0.46666667 T T T
    0.44444444    0.33333333    0.46666667 T T T
    0.77777778    0.33333333    0.46666667 T T T
    0.11111111    0.58333333    0.46666667 T T T
    0.44444444    0.58333333    0.46666667 T T T
    0.77777778    0.58333333    0.46666667 T T T
    0.11111111    0.83333333    0.46666667 T T T
    0.44444444    0.83333333    0.46666667 T T T
    0.77777778    0.83333333    0.46666667 T T T
    0.00000000    0.00000000    0.50000000 T T T
    0.33333333    0.00000000    0.50000000 T T T
    0.66666667    0.00000000    0.50000000 T T T
    0.00000000    0.25000000    0.50000000 T T T
    0.33333333    0.25000000    0.50000000 T T T
    0.66666667    0.25000000    0.50000000 T T T
    0.00000000    0.50000000    0.50000000 T T T
    0.33333333    0.50000000    0.50000000 T T T
    0.66666667    0.50000000    0.50000000 T T T
    0.00000000    0.75000000    0.50000000 T T T
    0.33333333    0.75000000    0.50000000 T T T
    0.66666667    0.75000000    0.50000000 T T T
    0.22222222    0.16666667    0.53333333 T T T
    0.55555556    0.16666667    0.53333333 T T T
    0.88888889    0.16666667    0.53333333 T T T
    0.22222222    0.41666667    0.53333333 T T T
    0.55555556    0.41666667    0.53333333 T T T
    0.88888889    0.41666667    0.53333333 T T T
    0.22222222    0.66666667    0.53333333 T T T
    0.55555556    0.66666667    0.53333333 T T T
    0.88888889    0.66666667    0.53333333 T T T
    0.22222222    0.91666667    0.53333333 T T T
    0.55555556    0.91666667    0.53333333 T T T
    0.88888889    0.91666667    0.53333333 T T T
    0.11111111    0.08333333    0.56666667 T T T
    0.44444444    0.08333333    0.56666667 T T T
    0.77777778    0.08333333    0.56666667 T T T
    0.11111111    0.33333333    0.56666667 T T T
    0.44444444    0.33333333    0.56666667 T T T
    0.77777778    0.33333333    0.56666667 T T T
    0.11111111    0.58333333    0.56666667 T T T
    0.44444444    0.58333333    0.56666667 T T T
    0.77777778    0.58333333    0.56666667 T T T
    0.11111111    0.83333333    0.56666667 T T T
    0.44444444    0.83333333    0.56666667 T T T
    0.77777778    0.83333333    0.56666667 T T T
    0.00000000    0.00000000    0.60000000 T T T
    0.33333333    0.00000000    0.60000000 T T T
    0.66666667    0.00000000    0.60000000 T T T
    0.00000000    0.25000000    0.60000000 T T T
    0.33333333    0.25000000    0.60000000 T T T
    0.66666667    0.25000000    0.60000000 T T T
    0.00000000    0.50000000    0.60000000 T T T
    0.33333333    0.50000000    0.60000000 T T T
    0.66666667    0.50000000    0.60000000 T T T
    0.00000000    0.75000000    0.60000000 T T T
    0.33333333    0.75000000    0.60000000 T T T
    0.66666667    0.75000000    0.60000000 T T T
    0.22222222    0.16666667    0.63333333 T T T
    0.55555556    0.16666667    0.63333333 T T T
    0.88888889    0.16666667    0.63333333 T T T
    0.22222222    0.41666667    0.63333333 T T T
    0.55555556    0.41666667    0.63333333 T T T
    0.88888889    0.41666667    0.63333333 T T T
    0.22222222    0.66666667    0.63333333 T T T
    0.55555556    0.66666667    0.63333333 T T T
    0.88888889    0.66666667    0.63333333 T T T
    0.22222222    0.91666667    0.63333333 T T T
    0.55555556    0.91666667    0.63333333 T T T
    0.88888889    0.91666667    0.63333333 T T T
    0.00000000    0.00000000    0.66666667 T T T
    0.33333333    0.00000000    0.66666667 T T T
    0.66666667    0.00000000    0.66666667 T T T
    0.00000000    0.25000000    0.66666667 T T T
    0.33333333    0.25000000    0.66666667 T T T
    0.66666667    0.25000000    0.66666667 T T T
    0.00000000    0.50000000    0.66666667 T T T
    0.33333333    0.50000000    0.66666667 T T T
    0.66666667    0.50000000    0.66666667 T T T
    0.00000000    0.75000000    0.66666667 T T T
    0.33333333    0.75000000    0.66666667 T T T
    0.66666667    0.75000000    0.66666667 T T T
    0.11111111    0.08333333    0.70000000 T T T
    0.44444444    0.08333333    0.70000000 T T T
    0.77777778    0.08333333    0.70000000 T T T
    0.11111111    0.33333333    0.70000000 T T T
    0.44444444    0.33333333    0.70000000 T T T
    0.77777778    0.33333333    0.70000000 T T T
    0.11111111    0.58333333    0.70000000 T T T
    0.44444444    0.58333333    0.70000000 T T T
    0.77777778    0.58333333    0.70000000 T T T
    0.11111111    0.83333333    0.70000000 T T T
    0.44444444    0.83333333    0.70000000 T T T
    0.77777778    0.83333333    0.70000000 T T T
    0.22222222    0.16666667    0.73333333 T T T
    0.55555556    0.16666667    0.73333333 T T T
    0.88888889    0.16666667    0.73333333 T T T
    0.22222222    0.41666667    0.73333333 T T T
    0.55555556    0.41666667    0.73333333 T T T
    0.88888889    0.41666667    0.73333333 T T T
    0.22222222    0.66666667    0.73333333 T T T
    0.55555556    0.66666667    0.73333333 T T T
    0.88888889    0.66666667    0.73333333 T T T
    0.22222222    0.91666667    0.73333333 T T T
    0.55555556    0.91666667    0.73333333 T T T
    0.88888889    0.91666667    0.73333333 T T T
    0.00000000    0.00000000    0.76666667 T T T
    0.33333333    0.00000000    0.76666667 T T T
    0.66666667    0.00000000    0.76666667 T T T
    0.00000000    0.25000000    0.76666667 T T T
    0.33333333    0.25000000    0.76666667 T T T
    0.66666667    0.25000000    0.76666667 T T T
    0.00000000    0.50000000    0.76666667 T T T
    0.33333333    0.50000000    0.76666667 T T T
    0.66666667    0.50000000    0.76666667 T T T
    0.00000000    0.75000000    0.76666667 T T T
    0.33333333    0.75000000    0.76666667 T T T
    0.66666667    0.75000000    0.76666667 T T T
    0.11111111    0.08333333    0.80000000 T T T
    0.44444444    0.08333333    0.80000000 T T T
    0.77777778    0.08333333    0.80000000 T T T
    0.11111111    0.33333333    0.80000000 T T T
    0.44444444    0.33333333    0.80000000 T T T
    0.77777778    0.33333333    0.80000000 T T T
    0.11111111    0.58333333    0.80000000 T T T
    0.44444444    0.58333333    0.80000000 T T T
    0.77777778    0.58333333    0.80000000 T T T
    0.11111111    0.83333333    0.80000000 T T T
    0.44444444    0.83333333    0.80000000 T T T
    0.77777778    0.83333333    0.80000000 T T T
    0.22222222    0.16666667    0.83333333 T T T
    0.55555556    0.16666667    0.83333333 T T T
    0.88888889    0.16666667    0.83333333 T T T
    0.22222222    0.41666667    0.83333333 T T T
    0.55555556    0.41666667    0.83333333 T T T
    0.88888889    0.41666667    0.83333333 T T T
    0.22222222    0.66666667    0.83333333 T T T
    0.55555556    0.66666667    0.83333333 T T T
    0.88888889    0.66666667    0.83333333 T T T
    0.22222222    0.91666667    0.83333333 T T T
    0.55555556    0.91666667    0.83333333 T T T
    0.88888889    0.91666667    0.83333333 T T T
    0.00000000    0.00000000    0.86666667 T T T
    0.33333333    0.00000000    0.86666667 T T T
    0.66666667    0.00000000    0.86666667 T T T
    0.00000000    0.25000000    0.86666667 T T T
    0.33333333    0.25000000    0.86666667 T T T
    0.66666667    0.25000000    0.86666667 T T T
    0.00000000    0.50000000    0.86666667 T T T
    0.33333333    0.50000000    0.86666667 T T T
    0.66666667    0.50000000    0.86666667 T T T
    0.00000000    0.75000000    0.86666667 T T T
    0.33333333    0.75000000    0.86666667 T T T
    0.66666667    0.75000000    0.86666667 T T T
    0.11111111    0.08333333    0.90000000 T T T
    0.44444444    0.08333333    0.90000000 T T T
    0.77777778    0.08333333    0.90000000 T T T
    0.11111111    0.33333333    0.90000000 T T T
    0.44444444    0.33333333    0.90000000 T T T
    0.77777778    0.33333333    0.90000000 T T T
    0.11111111    0.58333333    0.90000000 T T T
    0.44444444    0.58333333    0.90000000 T T T
    0.77777778    0.58333333    0.90000000 T T T
    0.11111111    0.83333333    0.90000000 T T T
    0.44444444    0.83333333    0.90000000 T T T
    0.77777778    0.83333333    0.90000000 T T T
    0.22222222    0.16666667    0.93333333 T T T
    0.55555556    0.16666667    0.93333333 T T T
    0.88888889    0.16666667    0.93333333 T T T
    0.22222222    0.41666667    0.93333333 T T T
    0.55555556    0.41666667    0.93333333 T T T
    0.88888889    0.41666667    0.93333333 T T T
    0.22222222    0.66666667    0.93333333 T T T
    0.55555556    0.66666667    0.93333333 T T T
    0.88888889    0.66666667    0.93333333 T T T
    0.22222222    0.91666667    0.93333333 T T T
    0.55555556    0.91666667    0.93333333 T T T
    0.88888889    0.91666667    0.93333333 T T T
    0.00000000    0.00000000    0.96666667 T T T
    0.33333333    0.00000000    0.96666667 T T T
    0.66666667    0.00000000    0.96666667 T T T
    0.00000000    0.25000000    0.96666667 T T T
    0.33333333    0.25000000    0.96666667 T T T
    0.66666667    0.25000000    0.96666667 T T T
    0.00000000    0.50000000    0.96666667 T T T
    0.33333333    0.50000000    0.96666667 T T T
    0.66666667    0.50000000    0.96666667 T T T
    0.00000000    0.75000000    0.96666667 T T T
    0.33333333    0.75000000    0.96666667 T T T
    0.66666667    0.75000000    0.96666667 T T T
