Cu
 1.0000000000000000
    13.7663459599999989    0.0000000000000000    0.0000000000000000
     0.0000000000000000   13.4350387827040088    0.0000000000000000
     0.0000000000000000    0.0000000000000000   15.4757640000000016
 Cu 
 230
Direct
  0.0580744507164775  0.0950662973147703  0.1652346210500493
  0.5018741356693320  0.3948644642679842  0.8969077067859134
  0.6907623132260727  0.5142909896357857  0.0472307538419425
  0.6808613561822762  0.5981761215083397  0.2053812658295901
  0.5956753523285711  0.5146184914816059  0.3420142617837796
  0.5879318305320288  0.5981165757181904  0.4869957954902903
  0.5899221916692263  0.4781392517915096  0.6249986753481118
  0.6737716026424777  0.5210196639226350  0.7573734001112968
  0.4033730516532797  0.5531297312605407  0.9181732158748344
  0.5947818690443546  0.6691323736947686  0.0710486409588565
  0.5958496905303694  0.7502858424442320  0.2267178538003038
  0.5033342181093928  0.6756451944923271  0.3583559428794600
  0.5866533503855079  0.3561597006710650  0.7414711157394227
  0.6760089428988898  0.7605798209162589  0.5104905967808763
  0.5991185318140878  0.6832298395125695  0.7807454287878778
  0.4964260668631345  0.7136726247263001  0.9250355588260452
  0.5030291262562457  0.8200437356039106  0.0991118758337227
  0.6865346118324634  0.9171480328895661  0.2520542443009602
  0.5913822741092872  0.8400287914227041  0.3785746538910779
  0.7544829259833594  0.9308658942951660  0.5231297143068349
  0.7740015404930302  0.8151386511403775  0.6558921420616128
  0.6868978164195433  0.8408028866946429  0.7983923766219233
  0.5846339328813438  0.8825370423653977  0.9485755921323168
  0.5018741356693320  0.9751009731521838  0.6725439855505675
  0.9652287555905648  0.0842140770600956  0.1797799449513441
  0.6913071201066925  0.6522809150825716  0.6375602522757517
  0.6872319646396566  0.3188319334713439  0.5966188163634439
  0.6858372590252700  0.4484035728357996  0.4752807034276307
  0.6865854604746545  0.3514704696968227  0.3307321047283995
  0.4173854846228200  0.6775060004344865  0.7827162523284790
  0.3206568389917173  0.7154664416545423  0.9213136101067448
  0.3211798535971124  0.8391058316753931  0.0826926541397243
  0.5058839143106934  0.9216586264933604  0.2440934095402329
  0.4094966809914460  0.8475985499954094  0.3759835055639252
  0.5807984924417809  0.9243381870500703  0.5232977189365257
  0.5930457511181129  0.8034379033760783  0.6527775946958095
  0.5018886638528152  0.8405795899815838  0.8041045340314051
  0.4013681623325990  0.8920345958941802  0.9540745128964233
  0.3049954571968348  0.9653280203439615  0.6716910389690612
  0.6990288496280097  0.0008797437464212  0.0528072152043671
  0.7841785330230070  0.0990484220309918  0.1758447595866675
  0.6944161513720959  0.0108536635963962  0.2934156917874939
  0.8729384700135780  0.1066032941561595  0.4446263202256122
  0.7804883744182759  0.0291416643959408  0.7218016506325635
  0.4973849269730251  0.0716945746812460  0.8600629991514470
  0.6808686202740177  0.1786537002365784  0.0490012641702210
  0.8872705230197483  0.2567480040171317  0.1934529371215532
  0.7758902043458453  0.1869528947386103  0.3272880098197415
  0.7841857971147486  0.2852704374985536  0.4613104722971998
  0.7776626427307949  0.1552447614842110  0.5883995129416547
  0.6842391588421188  0.1934508290886315  0.7332582740341602
  0.3984843179111851  0.2299523984500338  0.8717522443480014
  0.7707617555762778  0.3363904983415617  0.0510367048760886
  0.5938012166592390  0.4169559524133027  0.1971231921086412
  0.8731927132245338  0.0207233783136107  0.3037415147969430
  0.9627880207653883  0.0227181622836058  0.7105259552937092
  0.6876314896854446  0.0604255338955274  0.8677395183850052
  0.8608873418142690  0.1769417587697916  0.0515019484660015
  0.9552406294458693  0.9266158135232736  0.5486987266024470
  0.9644514977742139  0.7975800862701602  0.6667801344088733
  0.8687761454456430  0.8305610107889961  0.7998914948560853
  0.7610496649177632  0.8910372039091824  0.9573182945927576
  0.6760525274493393  0.9706127092196950  0.6775195072760215
  0.9535263037948526  0.9915951570234864  0.8276122587550439
  0.8684783176842377  0.0733618568054208  0.8538145192702600
  0.7765657648778138  0.2330934388803990  0.8724113394337106
  0.9652360196823067  0.4415781366399583  0.2014008484492269
  0.9606596418851004  0.3541798031486070  0.7446115099713331
  0.8635096789329855  0.3973877171255525  0.8843655150078537
  0.9464002297963460  0.5242872391570672  0.3438881595764838
  0.9599041763439744  0.6152359903860586  0.4999386136929973
  0.9571510855739092  0.4762710026255813  0.6233961696495240
  0.7722291021080806  0.5651654240944287  0.9140700258804670
  0.9697688129290628  0.6770296341132938  0.0741825734742401
  0.9684830686908003  0.7584733885897341  0.2269957076109452
  0.8647808949877648  0.6917895468465037  0.3680614411023586
  0.9553931753724429  0.6690132821144706  0.7891715071385165
  0.8645411799602921  0.7179003758268869  0.9405566019228513
  0.8753428843800466  0.8414578903862826  0.1001392887614465
  0.9617274633711154  0.8424255094762060  0.3723778677421032
  0.9518410345108022  0.8826859068407706  0.9512313576247345
  0.9653086605997224  0.9991202562535795  0.1057674438560835
  0.8621077092268572  0.9578029211138684  0.6829925811740217
  0.7741686146030867  0.8520421545852864  0.3801448510070326
  0.5021864916142207  0.6442273469649047  0.6379027232516600
  0.8755244866735864  0.9279183776827852  0.2442226438707648
  0.6786094877423813  0.7176770791138277  0.9305474030232043
  0.9665580843792770  0.1907340524130785  0.3293363739586622
  0.9620688756829704  0.2733761659162696  0.4642311681672063
  0.9618872733894304  0.1384528486621629  0.5833593740509349
  0.8746673238480781  0.1894314882535666  0.7300144923378259
  0.5941135726041277  0.2276375558579872  0.8795450744790370
  0.9600421940870649  0.3484782937418301  0.0560509969007023
  0.7759555811715195  0.4351248616325488  0.1998112661836918
  0.8719142330780130  0.3520435979270081  0.3341245059048460
  0.8806819918101202  0.4470191332148329  0.4802109931373981
  0.8776891860125823  0.3088356839500626  0.6046895003051218
  0.7733840926949943  0.3497585282300359  0.7430283894223247
  0.6767062957060830  0.3969485669232028  0.8945750271198245
  0.8744130806371221  0.5192556198894676  0.0620216229712471
  0.8689868041061493  0.5982654401935634  0.2140916597073979
  0.7742557837039860  0.5148938907610456  0.3448832639215746
  0.7769870821988262  0.6068102610799601  0.4952150989120794
  0.7769362335566351  0.4859769664198857  0.6178390934366793
  0.8541753210450337  0.5178488505971950  0.7613473557751332
  0.5933217866042937  0.5600891454842174  0.9089264995253223
  0.7814181781612002  0.6686708938211130  0.0780337565240719
  0.7685752639620573  0.7592623703092101  0.2288889905532288
  0.6811373916684570  0.6772901469451962  0.3627757569836294
  0.8628994952266912  0.7781086128914023  0.5147876382710406
  0.8761491985633638  0.6610788055771022  0.6394664586510880
  0.7807644099044567  0.6729656339356171  0.7817017628338088
  0.6883215784008963  0.8363295092096908  0.1001005184622872
  0.4896704615434495  0.7669884365810566  0.5185031252738150
  0.3161022534697362  0.6686560073735758  0.3587113372884209
  0.4177777455768663  0.7556672932289574  0.2253608933297254
  0.0384250825554582  0.4745367314874886  0.6290437098937409
  0.1263787053627119  0.5246072977791184  0.7744775637571104
  0.0470039749022840  0.6752804765276638  0.0656143373600164
  0.0442072995817693  0.7610487440136834  0.2230023667975294
  0.1240614600971426  0.7607882311817808  0.5103419773007650
  0.1313182877469977  0.6462519038299743  0.6376248694410177
  0.0378076347574225  0.6789797587406772  0.7886093378007052
  0.1244464569594472  0.9168651903863574  0.2460836182304145
  0.0335654051803301  0.8439960296913884  0.3774826237980882
  0.2222211318013398  0.9319153888465445  0.5263024171213774
  0.2162791047567136  0.8058718375484230  0.6466777342947329
  0.1334466666272856  0.8461843374793683  0.7936753235575312
  0.0346404907580864  0.8909925445665706  0.9408215323004410
  0.0380255575096704  0.9959643293756767  0.1072924089563527
  0.3372407604377828  0.0022046375772386  0.0619634675225079
  0.4177486892098998  0.1005891693510998  0.1704363028539332
  0.3279935716507302  0.0122381032173632  0.2953735918950434
  0.5043657191366998  0.0983413157729712  0.4488264359678784
  0.4121698667523536  0.0202544552161865  0.7153270106729466
  0.1298218848482288  0.0776491536961565  0.8414274086888375
  0.3162257430293433  0.1872357372418184  0.0426817054072417
  0.5039153454487205  0.2643847516037546  0.1891300487652818
  0.4171021850448976  0.1739644692623363  0.3127749945010787
  0.4148067320545532  0.2713441658274313  0.4645736391431145
  0.4100560160555489  0.1428964532520400  0.5904931090962620
  0.0302311870709371  0.5983845317738616  0.5041516528683171
  0.3126663380759609  0.1824423011348154  0.7265639357126402
  0.0408440251054100  0.5190620960714831  0.3422662687283157
  0.1387785099656176  0.5061629892804329  0.0601541868950701
  0.1370423920393760  0.0970908541798400  0.4370014947242664
  0.0436842849763743  0.0264695470629995  0.7132851082505517
  0.1512872759446473  0.2605961507055178  0.1969293406128442
  0.0489652796725152  0.1863499936133504  0.3191591704293244
  0.0400667672890591  0.2637818504784950  0.4669127805257302
  0.0463574707372820  0.1520218455923907  0.5840184691366451
  0.0361877422990465  0.3385639196820041  0.0541641756749455
  0.0316476849605485  0.9367981436387709  0.5173400162990335
  0.0378948038583217  0.8012198226930241  0.6458570962958595
  0.2382893027337518  0.1045043050534036  0.1734280776057323
  0.1460498657989559  0.0168231290588443  0.2937387776138227
  0.3160150843688372  0.1003435429667347  0.4429333504956522
  0.2188215368662724  0.0097520664786380  0.7044971737744253
  0.1405509483505672  0.1890965431839779  0.0465651970397069
  0.3300202532466357  0.2665953890630400  0.1884903388291519
  0.2301825763501296  0.1800455830813139  0.3182933004147646
  0.2310905878178294  0.2686497188231844  0.4649742655677609
  0.2301317277079385  0.1358700500144454  0.5795340378672098
  0.1335919484621175  0.1894463747011041  0.7264734716812690
  0.2266086432132641  0.3430819565095675  0.0590944653847139
  0.0584449193952990  0.4310459750073350  0.1981829136189979
  0.1354951404984159  0.3502348945512289  0.3407671504941527
  0.1195504591256110  0.4367325979665747  0.4837067817782694
  0.1371804097824663  0.3182588052411587  0.6108669013045170
  0.0426309916738428  0.3609531367780680  0.7481202220452571
  0.1322190351229558  0.6008780117363555  0.2061631335293045
  0.9664927075536028  0.2188173356921507  0.8717457826314745
  0.0416140188300193  0.2353338492347593  0.8772188565294738
  0.2359720574681824  0.4308077918467386  0.1990617070666103
  0.6848929270988625  0.1082408033852601  0.4477344058748887
  0.6013050234283085  0.0371133570521524  0.7173495279457611
  0.3062884655268391  0.0744262378043363  0.8531618859010774
  0.4991936858166828  0.1696250698052202  0.0497508232873025
  0.6894257203456190  0.2582143190995535  0.1978210574935102
  0.5935615016317664  0.1834992389099620  0.3163095534411098
  0.5929440538337305  0.2712474039184389  0.4616658667061607
  0.5949198867874449  0.1436705485239784  0.5901118678211941
  0.4972904937803845  0.1977083530842925  0.7247029613529905
  0.2227223541315098  0.2305627427990621  0.8771607010807347
  0.5813069788636925  0.3377972676338342  0.0592301614317716
  0.4182063269896203  0.4296987515052115  0.1925289116582543
  0.4949078716891406  0.3470938541208635  0.3304090189020716
  0.4955979604045923  0.4416302392063386  0.4674814115800683
  0.5051502410447922  0.3098777352776719  0.6003666119488513
  0.3945762365542062  0.3653818549204078  0.7468084935903652
  0.3069059133248747  0.4027170653438975  0.8967978576049618
  0.5050485437604099  0.4993375530845915  0.0489883407371679
  0.4962154082026281  0.5934124582964112  0.2070677738430232
  0.4053416205152525  0.5104502861711686  0.3325413853558377
  0.4046006831576098  0.5960920188531208  0.4907177442095915
  0.4106371433948766  0.4780052737636742  0.6151833279442617
  0.4944792902763864  0.5151097442503362  0.7638609635039664
  0.2102353804277049  0.5706213071168406  0.9150198982098713
  0.4085668772485214  0.6644654723918324  0.0647096970462978
  0.5192062585647820  0.0156396564796309  0.3041809115207493
  0.4073900943863829  0.3379610185567442  0.0492209625321246
  0.6044939597028696  0.0966517039774903  0.1734280776057323
  0.2195697383156570  0.9025890871981092  0.9321886790209517
  0.3155574465891164  0.3389360808704359  0.3332521741737594
  0.3049373444629022  0.4291479529463322  0.4695685460181478
  0.3258361364034759  0.3173581751651535  0.5989450343130069
  0.2161628792888480  0.3503465429077585  0.7580583420631123
  0.1286087815273821  0.4026277466586738  0.9053402468530789
  0.3178601636712026  0.4948865052709456  0.0534986188727094
  0.3154775415799591  0.5976625390683035  0.1979244449579350
  0.2258604417638795  0.5121026818478062  0.3382212341826875
  0.2175285285362681  0.5991437405982625  0.4781690907150041
  0.2227150900397682  0.4859992960911916  0.6195708334657980
  0.3079010938934735  0.5222775687395348  0.7684681673874059
  0.0375897120051746  0.5622030210345107  0.9315812776674548
  0.2310397391756381  0.6721022199784555  0.0723539076972225
  0.2249451662044384  0.7489832782847204  0.2221041882003366
  0.1275264318578843  0.6884921987169970  0.3518748412033163
  0.3076468506825176  0.7708812426120542  0.4979613284358693
  0.3154920697634422  0.6498618673577642  0.6365263776315012
  0.2222647163517893  0.6811606233048881  0.7756083641492589
  0.1298146207564872  0.7281199220612276  0.9190261624563416
  0.1361634369386428  0.8331959120030943  0.0995835811401620
  0.3100222086820197  0.9219116961014946  0.2397511360343821
  0.2216036840033040  0.8378702565297994  0.3742065335191209
  0.3978813982966327  0.9296154327020351  0.5264316514519084
  0.4011792959473177  0.8098390758171072  0.6616301463372019
  0.3109810687919105  0.8381977583756192  0.8042079214958299
  0.1290954756740691  0.9722799913438698  0.6608418169209606
  0.9555021367485670  0.5520653502616252  0.9133915456451773
