Cu
 1.0000000000000000
    10.0000000000000000    0.0000000000000000    0.0000000000000000
     0.0000000000000000   37.5681820200000018    0.0000000000000000
     0.0000000000000000    0.0000000000000000   10.0000000000000000
 Cu 
 318
Cartesian
  1.3628672553710000  3.1306818316670002  8.1825107005909992
  9.8876129150539995  1.0435606116670000  8.1417412706800008
  9.1146783831790010  3.1306818316670002  9.3989642856450004
  0.6605474469290000  5.2178030616670004  6.8845182557160012
  1.3628672553710000  9.3920455016670008  8.1825107005909992
  9.8876129150539995  7.3049242816669997  8.1417412706800008
  9.1146783831790010  9.3920455016670008  9.3989642856450004
  0.6605474469290000 11.4791667316670001  6.8845182557160012
  1.3628672553710000 15.6534091716670005  8.1825107005909992
  9.8876129150539995 13.5662879516670003  8.1417412706800008
  9.1146783831790010 15.6534091716670005  9.3989642856450004
  0.6605474469290000 17.7405303916670007  6.8845182557160012
  1.3628672553710000 36.5246214116669989  8.1825107005909992
  9.8876129150539995 19.8276516216669982  8.1417412706800008
  9.1146783831790010 36.5246214116669989  9.3989642856450004
  0.6605474469290000 34.4375001816669979  6.8845182557160012
  1.3628672553710000 30.2632577416670046  8.1825107005909992
  9.8876129150539995 32.3503789616669977  8.1417412706800008
  9.1146783831790010 30.2632577416670046  9.3989642856450004
  0.6605474469290000 28.1761365116670000  6.8845182557160012
  1.3628672553710000 24.0018940716669995  8.1825107005909992
  9.8876129150539995 26.0890152916669997  8.1417412706800008
  9.1146783831790010 24.0018940716669995  9.3989642856450004
  0.6605474469290000 21.9147728516669993  6.8845182557160012
  8.4123585884919994  5.2178030616670004  8.1009718374880002
  9.1852931203669996  3.1306818316670002  6.8437488225240006
  7.7100387800500014  1.0435606116670000  6.8029793926130022
  6.9371042481740020  3.1306818316670002  8.0602024075780001
  8.4829733119250008  5.2178030616670004  5.5457563776490018
  8.4123585884919994 11.4791667316670001  8.1009718374880002
  9.1852931203669996  9.3920455016670008  6.8437488225240006
  7.7100387800500014  7.3049242816669997  6.8029793926130022
  6.9371042481740020  9.3920455016670008  8.0602024075780001
  8.4829733119250008 11.4791667316670001  5.5457563776490018
  8.4123585884919994 17.7405303916670007  8.1009718374880002
  9.1852931203669996 15.6534091716670005  6.8437488225240006
  7.7100387800500014 13.5662879516670003  6.8029793926130022
  6.9371042481740020 15.6534091716670005  8.0602024075780001
  8.4829733119250008 17.7405303916670007  5.5457563776490018
  8.4123585884919994 34.4375001816669979  8.1009718374880002
  9.1852931203669996 36.5246214116669989  6.8437488225240006
  7.7100387800500014 19.8276516216669982  6.8029793926130022
  6.9371042481740020 36.5246214116669989  8.0602024075780001
  8.4829733119250008 34.4375001816669979  5.5457563776490018
  8.4123585884919994 28.1761365116670000  8.1009718374880002
  9.1852931203669996 30.2632577416670046  6.8437488225240006
  7.7100387800500014 32.3503789616669977  6.8029793926130022
  6.9371042481740020 30.2632577416670046  8.0602024075780001
  8.4829733119250008 28.1761365116670000  5.5457563776490018
  8.4123585884919994 21.9147728516669993  8.1009718374880002
  9.1852931203669996 24.0018940716669995  6.8437488225240006
  7.7100387800500014 26.0890152916669997  6.8029793926130022
  6.9371042481740020 24.0018940716669995  8.0602024075780001
  8.4829733119250008 21.9147728516669993  5.5457563776490018
  7.6394240566170000  1.0435606116670000  9.3581948524529999
  6.8664895247419997  3.1306818316670002  0.6154178674170000
  5.3912351844240005  1.0435606116670000  0.5746484375060000
  6.1641697162990017  5.2178030616670004  9.3174254225420015
  7.6394240566170000  7.3049242816669997  9.3581948524529999
  6.8664895247419997  9.3920455016670008  0.6154178674170000
  5.3912351844240005  7.3049242816669997  0.5746484375060000
  6.1641697162990017 11.4791667316670001  9.3174254225420015
  7.6394240566170000 13.5662879516670003  9.3581948524529999
  6.8664895247419997 15.6534091716670005  0.6154178674170000
  5.3912351844240005 13.5662879516670003  0.5746484375060000
  6.1641697162990017 17.7405303916670007  9.3174254225420015
  7.6394240566170000 19.8276516216669982  9.3581948524529999
  6.8664895247419997 36.5246214116669989  0.6154178674170000
  5.3912351844240005 19.8276516216669982  0.5746484375060000
  6.1641697162990017 34.4375001816669979  9.3174254225420015
  7.6394240566170000 32.3503789616669977  9.3581948524529999
  6.8664895247419997 30.2632577416670046  0.6154178674170000
  5.3912351844240005 32.3503789616669977  0.5746484375060000
  6.1641697162990017 28.1761365116670000  9.3174254225420015
  7.6394240566170000 26.0890152916669997  9.3581948524529999
  6.8664895247419997 24.0018940716669995  0.6154178674170000
  5.3912351844240005 26.0890152916669997  0.5746484375060000
  6.1641697162990017 21.9147728516669993  9.3174254225420015
  6.2347844534880004  5.2178030616670004  6.7622099594210017
  7.0077189853630006  3.1306818316670002  5.5049869444570012
  5.5324646450449997  1.0435606116670000  5.4642175145460001
  4.7595301131700012  3.1306818316670002  6.7214405295109998
  6.3053991769200000  5.2178030616670004  4.2069944995819997
  6.2347844534880004 11.4791667316670001  6.7622099594210017
  7.0077189853630006  9.3920455016670008  5.5049869444570012
  5.5324646450449997  7.3049242816669997  5.4642175145460001
  4.7595301131700012  9.3920455016670008  6.7214405295109998
  6.3053991769200000 11.4791667316670001  4.2069944995819997
  6.2347844534880004 17.7405303916670007  6.7622099594210017
  7.0077189853630006 15.6534091716670005  5.5049869444570012
  5.5324646450449997 13.5662879516670003  5.4642175145460001
  4.7595301131700012 15.6534091716670005  6.7214405295109998
  6.3053991769200000 17.7405303916670007  4.2069944995819997
  6.2347844534880004 34.4375001816669979  6.7622099594210017
  7.0077189853630006 36.5246214116669989  5.5049869444570012
  5.5324646450449997 19.8276516216669982  5.4642175145460001
  4.7595301131700012 36.5246214116669989  6.7214405295109998
  6.3053991769200000 34.4375001816669979  4.2069944995819997
  6.2347844534880004 28.1761365116670000  6.7622099594210017
  7.0077189853630006 30.2632577416670046  5.5049869444570012
  5.5324646450449997 32.3503789616669977  5.4642175145460001
  4.7595301131700012 30.2632577416670046  6.7214405295109998
  6.3053991769200000 28.1761365116670000  4.2069944995819997
  6.2347844534880004 21.9147728516669993  6.7622099594210017
  7.0077189853630006 24.0018940716669995  5.5049869444570012
  5.5324646450449997 26.0890152916669997  5.4642175145460001
  4.7595301131700012 24.0018940716669995  6.7214405295109998
  6.3053991769200000 21.9147728516669993  4.2069944995819997
  5.4618499216130001  1.0435606116670000  8.0194329743849995
  3.9159808578630000  5.2178030616670004  0.5338790043140000
  4.6889153897379998  3.1306818316670002  9.2766559893500009
  3.2136610494200002  1.0435606116670000  9.2358865594390025
  3.9865955812950005  5.2178030616670004  7.9786635444750020
  5.4618499216130001  7.3049242816669997  8.0194329743849995
  3.9159808578630000 11.4791667316670001  0.5338790043140000
  4.6889153897379998  9.3920455016670008  9.2766559893500009
  3.2136610494200002  7.3049242816669997  9.2358865594390025
  3.9865955812950005 11.4791667316670001  7.9786635444750020
  5.4618499216130001 13.5662879516670003  8.0194329743849995
  3.9159808578630000 17.7405303916670007  0.5338790043140000
  4.6889153897379998 15.6534091716670005  9.2766559893500009
  3.2136610494200002 13.5662879516670003  9.2358865594390025
  3.9865955812950005 17.7405303916670007  7.9786635444750020
  5.4618499216130001 19.8276516216669982  8.0194329743849995
  3.9159808578630000 34.4375001816669979  0.5338790043140000
  4.6889153897379998 36.5246214116669989  9.2766559893500009
  3.2136610494200002 19.8276516216669982  9.2358865594390025
  3.9865955812950005 34.4375001816669979  7.9786635444750020
  5.4618499216130001 32.3503789616669977  8.0194329743849995
  3.9159808578630000 28.1761365116670000  0.5338790043140000
  4.6889153897379998 30.2632577416670046  9.2766559893500009
  3.2136610494200002 32.3503789616669977  9.2358865594390025
  3.9865955812950005 28.1761365116670000  7.9786635444750020
  5.4618499216130001 26.0890152916669997  8.0194329743849995
  3.9159808578630000 21.9147728516669993  0.5338790043140000
  4.6889153897379998 24.0018940716669995  9.2766559893500009
  3.2136610494200002 26.0890152916669997  9.2358865594390025
  3.9865955812950005 21.9147728516669993  7.9786635444750020
  5.6030793822340010  1.0435606116670000  2.9090020514260000
  4.0572103184839996  5.2178030616670004  5.4234480813539996
  4.8301448503589999  3.1306818316670002  4.1662250663900000
  5.6030793822340010  7.3049242816669997  2.9090020514260000
  4.0572103184839996 11.4791667316670001  5.4234480813539996
  4.8301448503589999  9.3920455016670008  4.1662250663900000
  5.6030793822340010 13.5662879516670003  2.9090020514260000
  4.0572103184839996 17.7405303916670007  5.4234480813539996
  4.8301448503589999 15.6534091716670005  4.1662250663900000
  5.6030793822340010 19.8276516216669982  2.9090020514260000
  4.0572103184839996 34.4375001816669979  5.4234480813539996
  4.8301448503589999 36.5246214116669989  4.1662250663900000
  5.6030793822340010 32.3503789616669977  2.9090020514260000
  4.0572103184839996 28.1761365116670000  5.4234480813539996
  4.8301448503589999 30.2632577416670046  4.1662250663900000
  5.6030793822340010 26.0890152916669997  2.9090020514260000
  4.0572103184839996 21.9147728516669993  5.4234480813539996
  4.8301448503589999 24.0018940716669995  4.1662250663900000
  3.2842757866090011  1.0435606116670000  6.6806710963180018
  2.5113412547340004  3.1306818316670002  7.9378941112830015
  3.2842757866090011  7.3049242816669997  6.6806710963180018
  2.5113412547340004  9.3920455016670008  7.9378941112830015
  3.2842757866090011 13.5662879516670003  6.6806710963180018
  2.5113412547340004 15.6534091716670005  7.9378941112830015
  3.2842757866090011 19.8276516216669982  6.6806710963180018
  2.5113412547340004 36.5246214116669989  7.9378941112830015
  3.2842757866090011 32.3503789616669977  6.6806710963180018
  2.5113412547340004 30.2632577416670046  7.9378941112830015
  3.2842757866090011 26.0890152916669997  6.6806710963180018
  2.5113412547340004 24.0018940716669995  7.9378941112830015
  7.1446646971860002  1.0435606116670000  1.6152816109529999
  8.0796617050370010  3.1306818316670002  0.4734330679180000
  6.2096676893350011  5.2178030616670004  2.7571301539870001
  7.1446646971860002  7.3049242816669997  1.6152816109529999
  8.0796617050370010  9.3920455016670008  0.4734330679180000
  6.2096676893350011 11.4791667316670001  2.7571301539870001
  7.1446646971860002 13.5662879516670003  1.6152816109529999
  8.0796617050370010 15.6534091716670005  0.4734330679180000
  6.2096676893350011 17.7405303916670007  2.7571301539870001
  7.1446646971860002 19.8276516216669982  1.6152816109529999
  8.0796617050370010 36.5246214116669989  0.4734330679180000
  6.2096676893350011 34.4375001816669979  2.7571301539870001
  7.1446646971860002 32.3503789616669977  1.6152816109529999
  8.0796617050370010 30.2632577416670046  0.4734330679180000
  6.2096676893350011 28.1761365116670000  2.7571301539870001
  7.1446646971860002 26.0890152916669997  1.6152816109529999
  8.0796617050370010 24.0018940716669995  0.4734330679180000
  6.2096676893350011 21.9147728516669993  2.7571301539870001
  8.6010330380920017  5.2178030616670004  1.8540885001490004
  7.6660360302410000  3.1306818316670002  2.9959370431829999
  9.1224043852189993  1.0435606116670000  3.2347439309780008
  0.0574013930710000  3.1306818316670002  2.0928953879429999
  8.1874073773680003  5.2178030616670004  4.3765924740119999
  8.6010330380920017 11.4791667316670001  1.8540885001490004
  7.6660360302410000  9.3920455016670008  2.9959370431829999
  9.1224043852189993  7.3049242816669997  3.2347439309780008
  0.0574013930710000  9.3920455016670008  2.0928953879429999
  8.1874073773680003 11.4791667316670001  4.3765924740119999
  8.6010330380920017 17.7405303916670007  1.8540885001490004
  7.6660360302410000 15.6534091716670005  2.9959370431829999
  9.1224043852189993 13.5662879516670003  3.2347439309780008
  0.0574013930710000 15.6534091716670005  2.0928953879429999
  8.1874073773680003 17.7405303916670007  4.3765924740119999
  8.6010330380920017 34.4375001816669979  1.8540885001490004
  7.6660360302410000 36.5246214116669989  2.9959370431829999
  9.1224043852189993 19.8276516216669982  3.2347439309780008
  0.0574013930710000 36.5246214116669989  2.0928953879429999
  8.1874073773680003 34.4375001816669979  4.3765924740119999
  8.6010330380920017 28.1761365116670000  1.8540885001490004
  7.6660360302410000 30.2632577416670046  2.9959370431829999
  9.1224043852189993 32.3503789616669977  3.2347439309780008
  0.0574013930710000 30.2632577416670046  2.0928953879429999
  8.1874073773680003 28.1761365116670000  4.3765924740119999
  8.6010330380920017 21.9147728516669993  1.8540885001490004
  7.6660360302410000 24.0018940716669995  2.9959370431829999
  9.1224043852189993 26.0890152916669997  3.2347439309780008
  0.0574013930710000 24.0018940716669995  2.0928953879429999
  8.1874073773680003 21.9147728516669993  4.3765924740119999
  9.5360300459430007  1.0435606116670000  0.7122399571140002
  0.4710270537940001  3.1306818316670002  9.5703914140799995
  1.9273954087730005  1.0435606116670000  9.8091983018739999
  0.9923984009220000  5.2178030616670004  0.9510468449090003
  9.5360300459430007  7.3049242816669997  0.7122399571140002
  0.4710270537940001  9.3920455016670008  9.5703914140799995
  1.9273954087730005  7.3049242816669997  9.8091983018739999
  0.9923984009220000 11.4791667316670001  0.9510468449090003
  9.5360300459430007 13.5662879516670003  0.7122399571140002
  0.4710270537940001 15.6534091716670005  9.5703914140799995
  1.9273954087730005 13.5662879516670003  9.8091983018739999
  0.9923984009220000 17.7405303916670007  0.9510468449090003
  9.5360300459430007 19.8276516216669982  0.7122399571140002
  0.4710270537940001 36.5246214116669989  9.5703914140799995
  1.9273954087730005 19.8276516216669982  9.8091983018739999
  0.9923984009220000 34.4375001816669979  0.9510468449090003
  9.5360300459430007 32.3503789616669977  0.7122399571140002
  0.4710270537940001 30.2632577416670046  9.5703914140799995
  1.9273954087730005 32.3503789616669977  9.8091983018739999
  0.9923984009220000 28.1761365116670000  0.9510468449090003
  9.5360300459430007 26.0890152916669997  0.7122399571140002
  0.4710270537940001 24.0018940716669995  9.5703914140799995
  1.9273954087730005 26.0890152916669997  9.8091983018739999
  0.9923984009220000 21.9147728516669993  0.9510468449090003
  0.5787727261259999  5.2178030616670004  3.4735508201740006
  9.6437757182740000  3.1306818316670002  4.6153993632079997
  1.1001440732529999  1.0435606116670000  4.8542062510030002
  2.0351410811039998  3.1306818316670002  3.7123577079680010
  0.1651470654020000  5.2178030616670004  5.9960547940370015
  0.5787727261259999 11.4791667316670001  3.4735508201740006
  9.6437757182740000  9.3920455016670008  4.6153993632079997
  1.1001440732529999  7.3049242816669997  4.8542062510030002
  2.0351410811039998  9.3920455016670008  3.7123577079680010
  0.1651470654020000 11.4791667316670001  5.9960547940370015
  0.5787727261259999 17.7405303916670007  3.4735508201740006
  9.6437757182740000 15.6534091716670005  4.6153993632079997
  1.1001440732529999 13.5662879516670003  4.8542062510030002
  2.0351410811039998 15.6534091716670005  3.7123577079680010
  0.1651470654020000 17.7405303916670007  5.9960547940370015
  0.5787727261259999 34.4375001816669979  3.4735508201740006
  9.6437757182740000 36.5246214116669989  4.6153993632079997
  1.1001440732529999 19.8276516216669982  4.8542062510030002
  2.0351410811039998 36.5246214116669989  3.7123577079680010
  0.1651470654020000 34.4375001816669979  5.9960547940370015
  0.5787727261259999 28.1761365116670000  3.4735508201740006
  9.6437757182740000 30.2632577416670046  4.6153993632079997
  1.1001440732529999 32.3503789616669977  4.8542062510030002
  2.0351410811039998 30.2632577416670046  3.7123577079680010
  0.1651470654020000 28.1761365116670000  5.9960547940370015
  0.5787727261259999 21.9147728516669993  3.4735508201740006
  9.6437757182740000 24.0018940716669995  4.6153993632079997
  1.1001440732529999 26.0890152916669997  4.8542062510030002
  2.0351410811039998 24.0018940716669995  3.7123577079680010
  0.1651470654020000 21.9147728516669993  5.9960547940370015
  1.5137697339770000  1.0435606116670000  2.3317022771390001
  2.4487667418279999  3.1306818316670002  1.1898537341049999
  3.9051350968070002  1.0435606116670000  1.4286606218990003
  2.9701380889550006  5.2178030616670004  2.5705091649340002
  1.5137697339770000  7.3049242816669997  2.3317022771390001
  2.4487667418279999  9.3920455016670008  1.1898537341049999
  3.9051350968070002  7.3049242816669997  1.4286606218990003
  2.9701380889550006 11.4791667316670001  2.5705091649340002
  1.5137697339770000 13.5662879516670003  2.3317022771390001
  2.4487667418279999 15.6534091716670005  1.1898537341049999
  3.9051350968070002 13.5662879516670003  1.4286606218990003
  2.9701380889550006 17.7405303916670007  2.5705091649340002
  1.5137697339770000 19.8276516216669982  2.3317022771390001
  2.4487667418279999 36.5246214116669989  1.1898537341049999
  3.9051350968070002 19.8276516216669982  1.4286606218990003
  2.9701380889550006 34.4375001816669979  2.5705091649340002
  1.5137697339770000 32.3503789616669977  2.3317022771390001
  2.4487667418279999 30.2632577416670046  1.1898537341049999
  3.9051350968070002 32.3503789616669977  1.4286606218990003
  2.9701380889550006 28.1761365116670000  2.5705091649340002
  1.5137697339770000 26.0890152916669997  2.3317022771390001
  2.4487667418279999 24.0018940716669995  1.1898537341049999
  3.9051350968070002 26.0890152916669997  1.4286606218990003
  2.9701380889550006 21.9147728516669993  2.5705091649340002
  2.5565124141590001  5.2178030616670004  5.0930131401990000
  1.6215154063080004  3.1306818316670002  6.2348616832330004
  2.5565124141590001 11.4791667316670001  5.0930131401990000
  1.6215154063080004  9.3920455016670008  6.2348616832330004
  2.5565124141590001 17.7405303916670007  5.0930131401990000
  1.6215154063080004 15.6534091716670005  6.2348616832330004
  2.5565124141590001 34.4375001816669979  5.0930131401990000
  1.6215154063080004 36.5246214116669989  6.2348616832330004
  2.5565124141590001 28.1761365116670000  5.0930131401990000
  1.6215154063080004 30.2632577416670046  6.2348616832330004
  2.5565124141590001 21.9147728516669993  5.0930131401990000
  1.6215154063080004 24.0018940716669995  6.2348616832330004
  3.4915094220100000  1.0435606116670000  3.9511645971640008
  4.4265064298620000  3.1306818316670002  2.8093160541300000
  3.4915094220100000  7.3049242816669997  3.9511645971640008
  4.4265064298620000  9.3920455016670008  2.8093160541300000
  3.4915094220100000 13.5662879516670003  3.9511645971640008
  4.4265064298620000 15.6534091716670005  2.8093160541300000
  3.4915094220100000 19.8276516216669982  3.9511645971640008
  4.4265064298620000 36.5246214116669989  2.8093160541300000
  3.4915094220100000 32.3503789616669977  3.9511645971640008
  4.4265064298620000 30.2632577416670046  2.8093160541300000
  3.4915094220100000 26.0890152916669997  3.9511645971640008
  4.4265064298620000 24.0018940716669995  2.8093160541300000
