Cu
 1.0000000000000000
    14.9636776482789511    0.0000000000000000    0.0000000000000000
     0.0000000000000000   15.7564464902064643    0.0000000000000000
     0.0000000000000000    0.0000000000000000   13.5157708726742847
 Cu 
 253
Cartesian
  2.2818310621293034  5.9681416925603266  0.0236997364466225
  4.7778374961123040  5.9681416925603266  0.5751200490186248
  6.9554812637043035  8.0552629225603276  2.5676103503736227
  6.9554812637043035  1.7938992525603332  2.5676103503736227
  6.1850220403393044  8.0552629225603276  0.1302952147176226
  7.2738439300963060  5.9681416925603266  1.1265403615916236
  5.8666593739483028  3.8810204725603263  1.5713652034996235
  6.1850220403393044  1.7938992525603332  0.1302952147176226
  9.4514876976883020  8.0552629225603276  3.1190306629456233
  9.4514876976883020  1.7938992525603332  3.1190306629456233
  8.6810284743223001  8.0552629225603276  0.6817155272896224
  9.7698503640793000  5.9681416925603266  1.6779606741636244
  8.3626658079313039  3.8810204725603263  2.1227855160726223
  8.6810284743223001  1.7938992525603332  0.6817155272896224
  0.0882130304713044  3.8810204725603263  0.2368906853816233
  0.6176348836663041  5.9681416925603266  3.1462190055666222
  1.9336578829613038  8.0552629225603276  2.4782961205206222
  1.9336578829613038  1.7938992525603332  2.4782961205206222
  2.0132311989253044  5.9681416925603266  1.0046253339106226
  0.6972081996303042  3.8810204725603263  1.6725482189566234
  3.1701075557673040  5.9681416925603266  3.2840440315316242
  4.4861305550623030  8.0552629225603276  2.6161211464856224
  4.4861305550623030  1.7938992525603332  2.6161211464856224
  3.2496808717313037  3.8810204725603263  1.8103732449216219
  5.7225802278683044  5.9681416925603266  3.4218690574956225
  2.2818310621293034  5.9681416925603266 10.0236997364466234
  2.6001937285203049  3.8810204725603263  8.5826297476646261
  4.0073782727473031  5.9681416925603266  8.1378049133626220
  3.6890156063553055  8.0552629225603276  9.5788749021456230
  5.4145628288953027  8.0552629225603276  7.6929800714546230
  4.7778374961123040  5.9681416925603266 10.5751200490186275
  3.6890156063553055  1.7938992525603332  9.5788749021456230
  5.0962001625043047  3.8810204725603263  9.1340500602366248
  5.4145628288953027  1.7938992525603332  7.6929800714546230
  6.9554812637043035  8.0552629225603276 12.5676103503736254
  6.9554812637043035  1.7938992525603332 12.5676103503736254
  6.5033847067303059  5.9681416925603266  8.6892252259356226
  6.1850220403393044  8.0552629225603276 10.1302952147176253
  7.9105692628793038  8.0552629225603276  8.2444003840266245
  7.2738439300963060  5.9681416925603266 11.1265403615916227
  5.8666593739483028  3.8810204725603263 11.5713652034996244
  6.1850220403393044  1.7938992525603332 10.1302952147176253
  7.5922065964873022  3.8810204725603263  9.6854703728086236
  7.9105692628793038  1.7938992525603332  8.2444003840266245
  8.2289319292703045  5.9681416925603266  6.8033303952446227
  6.8217473731223031  3.8810204725603263  7.2481552371526226
  8.0443031415403041  5.9681416925603266  3.5638555048546228
  9.4514876976883020  8.0552629225603276 13.1190306629456224
  9.4514876976883020  1.7938992525603332 13.1190306629456224
  8.9993911407143052  5.9681416925603266  9.2406455385076214
  8.6810284743223001  8.0552629225603276 10.6817155272896223
  0.4065756968623043  8.0552629225603276  8.7958206965996233
  9.7698503640793000  5.9681416925603266 11.6779606741636250
  8.3626658079313039  3.8810204725603263 12.1227855160726232
  8.6810284743223001  1.7938992525603332 10.6817155272896223
  0.0882130304713044  3.8810204725603263 10.2368906853816242
  0.4065756968623043  1.7938992525603332  8.7958206965996233
  9.6361164734973013  8.0552629225603276  6.3585055609436232
  9.3177538071053050  3.8810204725603263  7.7995755497256232
  9.6361164734973013  1.7938992525603332  6.3585055609436232
  1.4953975746973045  5.9681416925603266  9.7920658510806255
  9.2220385789313042  5.9681416925603266  5.2878126677756239
  9.3016118948953057  3.8810204725603263  3.8141418811666226
  1.6949379350683043  8.0552629225603276  6.8993084803506228
  1.6153646191033049  3.8810204725603263  8.3729792669596215
  1.6949379350683043  1.7938992525603332  6.8993084803506228
  0.6176348836663041  5.9681416925603266 13.1462190055666213
  0.5380615677013044  8.0552629225603276  4.6198897921766227
  1.9336578829613038  8.0552629225603276 12.4782961205206213
  1.7745112510323040  5.9681416925603266  5.4256376937406232
  0.4584882517373044  3.8810204725603263  6.0935605787866223
  0.5380615677013044  1.7938992525603332  4.6198897921766227
  1.8540845669963044  3.8810204725603263  3.9519669071306227
  1.9336578829613038  1.7938992525603332 12.4782961205206213
  2.0132311989253044  5.9681416925603266 11.0046253339106226
  0.6972081996303042  3.8810204725603263 11.6725482189566243
  2.9313876078743042  5.9681416925603266  7.7050563913606229
  4.2474106071693027  8.0552629225603276  7.0371335063146230
  4.2474106071693027  1.7938992525603332  7.0371335063146230
  3.1701075557673040  5.9681416925603266 13.2840440315316251
  3.0905342398023037  8.0552629225603276  4.7577148181406228
  4.4861305550623030  8.0552629225603276 12.6161211464856233
  4.3269839231333052  5.9681416925603266  5.5634627197046234
  3.0109609238383044  3.8810204725603263  6.2313856047506224
  3.0905342398023037  1.7938992525603332  4.7577148181406228
  4.4065572390973040  3.8810204725603263  4.0897919330956229
  4.4861305550623030  1.7938992525603332 12.6161211464856233
  3.2496808717313037  3.8810204725603263 11.8103732449216210
  5.7225802278683044  5.9681416925603266 13.4218690574956252
  5.6430069119033037  8.0552629225603276  4.8955398441056230
  6.8794565952343047  5.9681416925603266  5.7012877456696236
  5.5634335959393022  3.8810204725603263  6.3692106307156227
  5.6430069119033037  1.7938992525603332  4.8955398441056230
  6.9590299111983063  3.8810204725603263  4.2276169590596222
  8.1954795840043015  8.0552629225603276  5.0333648700696232
  8.1954795840043015  1.7938992525603332  5.0333648700696232
  2.2818310621293034 14.3166265925603291  0.0236997364466225
  4.7778374961123040 14.3166265925603291  0.5751200490186248
  6.9554812637043035 12.2295053625603281  2.5676103503736227
  5.8666593739483028 10.1423841425603278  1.5713652034996235
  6.1850220403393044 12.2295053625603281  0.1302952147176226
  7.2738439300963060 14.3166265925603291  1.1265403615916236
  9.4514876976883020 12.2295053625603281  3.1190306629456233
  8.3626658079313039 10.1423841425603278  2.1227855160726223
  8.6810284743223001 12.2295053625603281  0.6817155272896224
  0.0882130304713044 10.1423841425603278  0.2368906853816233
  9.7698503640793000 14.3166265925603291  1.6779606741636244
  0.6176348836663041 14.3166265925603291  3.1462190055666222
  1.9336578829613038 12.2295053625603281  2.4782961205206222
  0.6972081996303042 10.1423841425603278  1.6725482189566234
  2.0132311989253044 14.3166265925603291  1.0046253339106226
  3.1701075557673040 14.3166265925603291  3.2840440315316242
  4.4861305550623030 12.2295053625603281  2.6161211464856224
  3.2496808717313037 10.1423841425603278  1.8103732449216219
  5.7225802278683044 14.3166265925603291  3.4218690574956225
  2.6001937285203049 10.1423841425603278  8.5826297476646261
  2.2818310621293034 14.3166265925603291 10.0236997364466234
  4.0073782727473031 14.3166265925603291  8.1378049133626220
  3.6890156063553055 12.2295053625603281  9.5788749021456230
  5.0962001625043047 10.1423841425603278  9.1340500602366248
  5.4145628288953027 12.2295053625603281  7.6929800714546230
  4.7778374961123040 14.3166265925603291 10.5751200490186275
  6.9554812637043035 12.2295053625603281 12.5676103503736254
  5.8666593739483028 10.1423841425603278 11.5713652034996244
  6.5033847067303059 14.3166265925603291  8.6892252259356226
  6.1850220403393044 12.2295053625603281 10.1302952147176253
  7.5922065964873022 10.1423841425603278  9.6854703728086236
  7.9105692628793038 12.2295053625603281  8.2444003840266245
  7.2738439300963060 14.3166265925603291 11.1265403615916227
  6.8217473731223031 10.1423841425603278  7.2481552371526226
  8.2289319292703045 14.3166265925603291  6.8033303952446227
  8.0443031415403041 14.3166265925603291  3.5638555048546228
  9.4514876976883020 12.2295053625603281 13.1190306629456224
  8.3626658079313039 10.1423841425603278 12.1227855160726232
  8.9993911407143052 14.3166265925603291  9.2406455385076214
  8.6810284743223001 12.2295053625603281 10.6817155272896223
  0.0882130304713044 10.1423841425603278 10.2368906853816242
  0.4065756968623043 12.2295053625603281  8.7958206965996233
  9.7698503640793000 14.3166265925603291 11.6779606741636250
  9.3177538071053050 10.1423841425603278  7.7995755497256232
  9.6361164734973013 12.2295053625603281  6.3585055609436232
  1.4953975746973045 14.3166265925603291  9.7920658510806255
  9.3016118948953057 10.1423841425603278  3.8141418811666226
  9.2220385789313042 14.3166265925603291  5.2878126677756239
  1.6153646191033049 10.1423841425603278  8.3729792669596215
  1.6949379350683043 12.2295053625603281  6.8993084803506228
  0.4584882517373044 10.1423841425603278  6.0935605787866223
  0.6176348836663041 14.3166265925603291 13.1462190055666213
  0.5380615677013044 12.2295053625603281  4.6198897921766227
  1.8540845669963044 10.1423841425603278  3.9519669071306227
  1.9336578829613038 12.2295053625603281 12.4782961205206213
  1.7745112510323040 14.3166265925603291  5.4256376937406232
  0.6972081996303042 10.1423841425603278 11.6725482189566243
  2.0132311989253044 14.3166265925603291 11.0046253339106226
  2.9313876078743042 14.3166265925603291  7.7050563913606229
  4.2474106071693027 12.2295053625603281  7.0371335063146230
  3.0109609238383044 10.1423841425603278  6.2313856047506224
  3.1701075557673040 14.3166265925603291 13.2840440315316251
  3.0905342398023037 12.2295053625603281  4.7577148181406228
  4.4065572390973040 10.1423841425603278  4.0897919330956229
  4.4861305550623030 12.2295053625603281 12.6161211464856233
  4.3269839231333052 14.3166265925603291  5.5634627197046234
  3.2496808717313037 10.1423841425603278 11.8103732449216210
  5.5634335959393022 10.1423841425603278  6.3692106307156227
  5.7225802278683044 14.3166265925603291 13.4218690574956252
  5.6430069119033037 12.2295053625603281  4.8955398441056230
  6.9590299111983063 10.1423841425603278  4.2276169590596222
  6.8794565952343047 14.3166265925603291  5.7012877456696236
  8.1954795840043015 12.2295053625603281  5.0333648700696232
 12.2818310621293012  5.9681416925603266  0.0236997364466225
 14.7778374961123014  5.9681416925603266  0.5751200490186248
 10.0882130304713051  3.8810204725603263  0.2368906853816233
 10.6176348836663053  5.9681416925603266  3.1462190055666222
 11.9336578829613007  8.0552629225603276  2.4782961205206222
 11.9336578829613007  1.7938992525603332  2.4782961205206222
 12.0132311989253004  5.9681416925603266  1.0046253339106226
 10.6972081996303015  3.8810204725603263  1.6725482189566234
 13.1701075557673040  5.9681416925603266  3.2840440315316242
 14.4861305550623012  8.0552629225603276  2.6161211464856224
 14.4861305550623012  1.7938992525603332  2.6161211464856224
 13.2496808717313002  3.8810204725603263  1.8103732449216219
 12.2818310621293012  5.9681416925603266 10.0236997364466234
 12.6001937285203045  3.8810204725603263  8.5826297476646261
 14.0073782727473013  5.9681416925603266  8.1378049133626220
 13.6890156063553032  8.0552629225603276  9.5788749021456230
 14.7778374961123014  5.9681416925603266 10.5751200490186275
 13.6890156063553032  1.7938992525603332  9.5788749021456230
 10.4065756968623031  8.0552629225603276  8.7958206965996233
 10.0882130304713051  3.8810204725603263 10.2368906853816242
 10.4065756968623031  1.7938992525603332  8.7958206965996233
 11.4953975746973001  5.9681416925603266  9.7920658510806255
 11.6949379350683014  8.0552629225603276  6.8993084803506228
 11.6153646191033033  3.8810204725603263  8.3729792669596215
 11.6949379350683014  1.7938992525603332  6.8993084803506228
 10.6176348836663053  5.9681416925603266 13.1462190055666213
 10.5380615677013036  8.0552629225603276  4.6198897921766227
 11.9336578829613007  8.0552629225603276 12.4782961205206213
 11.7745112510323047  5.9681416925603266  5.4256376937406232
 10.4584882517373003  3.8810204725603263  6.0935605787866223
 10.5380615677013036  1.7938992525603332  4.6198897921766227
 11.8540845669963044  3.8810204725603263  3.9519669071306227
 11.9336578829613007  1.7938992525603332 12.4782961205206213
 12.0132311989253004  5.9681416925603266 11.0046253339106226
 10.6972081996303015  3.8810204725603263 11.6725482189566243
 12.9313876078743011  5.9681416925603266  7.7050563913606229
 14.2474106071693001  8.0552629225603276  7.0371335063146230
 14.2474106071693001  1.7938992525603332  7.0371335063146230
 13.1701075557673040  5.9681416925603266 13.2840440315316251
 13.0905342398023041  8.0552629225603276  4.7577148181406228
 14.4861305550623012  8.0552629225603276 12.6161211464856233
 14.3269839231333052  5.9681416925603266  5.5634627197046234
 13.0109609238383008  3.8810204725603263  6.2313856047506224
 13.0905342398023041  1.7938992525603332  4.7577148181406228
 14.4065572390973013  3.8810204725603263  4.0897919330956229
 14.4861305550623012  1.7938992525603332 12.6161211464856233
 13.2496808717313002  3.8810204725603263 11.8103732449216210
 12.2818310621293012 14.3166265925603291  0.0236997364466225
 14.7778374961123014 14.3166265925603291  0.5751200490186248
 10.0882130304713051 10.1423841425603278  0.2368906853816233
 10.6176348836663053 14.3166265925603291  3.1462190055666222
 11.9336578829613007 12.2295053625603281  2.4782961205206222
 10.6972081996303015 10.1423841425603278  1.6725482189566234
 12.0132311989253004 14.3166265925603291  1.0046253339106226
 13.1701075557673040 14.3166265925603291  3.2840440315316242
 14.4861305550623012 12.2295053625603281  2.6161211464856224
 13.2496808717313002 10.1423841425603278  1.8103732449216219
 12.6001937285203045 10.1423841425603278  8.5826297476646261
 12.2818310621293012 14.3166265925603291 10.0236997364466234
 14.0073782727473013 14.3166265925603291  8.1378049133626220
 13.6890156063553032 12.2295053625603281  9.5788749021456230
 14.7778374961123014 14.3166265925603291 10.5751200490186275
 10.0882130304713051 10.1423841425603278 10.2368906853816242
 10.4065756968623031 12.2295053625603281  8.7958206965996233
 11.4953975746973001 14.3166265925603291  9.7920658510806255
 11.6153646191033033 10.1423841425603278  8.3729792669596215
 11.6949379350683014 12.2295053625603281  6.8993084803506228
 10.4584882517373003 10.1423841425603278  6.0935605787866223
 10.6176348836663053 14.3166265925603291 13.1462190055666213
 10.5380615677013036 12.2295053625603281  4.6198897921766227
 11.8540845669963044 10.1423841425603278  3.9519669071306227
 11.9336578829613007 12.2295053625603281 12.4782961205206213
 11.7745112510323047 14.3166265925603291  5.4256376937406232
 10.6972081996303015 10.1423841425603278 11.6725482189566243
 12.0132311989253004 14.3166265925603291 11.0046253339106226
 12.9313876078743011 14.3166265925603291  7.7050563913606229
 14.2474106071693001 12.2295053625603281  7.0371335063146230
 13.0109609238383008 10.1423841425603278  6.2313856047506224
 13.1701075557673040 14.3166265925603291 13.2840440315316251
 13.0905342398023041 12.2295053625603281  4.7577148181406228
 14.4065572390973013 10.1423841425603278  4.0897919330956229
 14.4861305550623012 12.2295053625603281 12.6161211464856233
 14.3269839231333052 14.3166265925603291  5.5634627197046234
 13.2496808717313002 10.1423841425603278 11.8103732449216210
