Cu
 1.0000000000000000
    15.2635356090502583    0.0000000000000000    0.0000000000000000
     0.0000000000000000   13.0945702242370103    0.0000000000000000
     0.0000000000000000    0.0000000000000000   16.5989754369842686
 Cu 
 276
Cartesian
  1.8050655418303125  3.4638125758490581  1.8599350298714850
  2.1234282082213132  1.3766913558490579  0.4188650410894867
  3.2122500860563137  5.5509338058490592  1.4151101955704855
  4.3010719758133131  3.4638125758490581  2.4113553424434873
  4.6194346422053130  1.3766913558490579  0.9702853536614865
  6.4787157434053126  5.5509338058490592  4.4038456437984852
  6.0266191864313141  3.4638125758490581  0.5254605193604851
  5.7082565200403144  5.5509338058490592  1.9665305081424851
  7.4338037425803130  5.5509338058490592  0.0806356774514851
  6.7970784097973160  3.4638125758490581  2.9627756550164861
  5.3898938536493146  1.3766913558490579  3.4076004969244860
  7.1154410761883131  1.3766913558490579  1.5217056662334869
  8.9747221773893120  5.5509338058490592  4.9552659563704857
  8.5226256204153135  3.4638125758490581  1.0768808319324847
  8.2042629540233118  5.5509338058490592  2.5179508207144847
  9.2930848437803117  3.4638125758490581  3.5141959675884866
  7.8859002876323121  1.3766913558490579  3.9590208094974848
  1.0186320543983127  3.4638125758490581  1.6283011445054876
  1.1385990988043131  1.3766913558490579  0.2092145603844848
  0.1408693633673126  3.4638125758490581  4.9824542989914846
  1.4568923626623127  5.5509338058490592  4.3145314139454856
  1.5364656786263127  3.4638125758490581  2.8408606273354851
  0.2204426793313127  1.3766913558490579  3.5087835123814859
  2.6933420354683131  3.4638125758490581  5.1202793249564866
  4.0093650347633130  5.5509338058490592  4.4523564399104849
  2.7729153514323128  1.3766913558490579  3.6466085383464844
  5.2458147075693127  3.4638125758490581  5.2581043509204850
  1.8050655418303125  3.4638125758490581 11.8599350298714850
  2.1234282082213132  1.3766913558490579 10.4188650410894859
  3.5306127524483135  3.4638125758490581  9.9740402067874854
  3.2122500860563137  5.5509338058490592 11.4151101955704846
  4.9377973085963145  5.5509338058490592  9.5292153648794855
  4.3010719758133131  3.4638125758490581 12.4113553424434873
  4.6194346422053130  1.3766913558490579 10.9702853536614864
  6.4787157434053126  5.5509338058490592 14.4038456437984852
  6.0266191864313141  3.4638125758490581 10.5254605193604860
  5.7082565200403144  5.5509338058490592 11.9665305081424851
  7.4338037425803130  5.5509338058490592 10.0806356774514860
  6.7970784097973160  3.4638125758490581 12.9627756550164861
  5.3898938536493146  1.3766913558490579 13.4076004969244860
  7.1154410761883131  1.3766913558490579 11.5217056662334869
  7.7521664089713127  3.4638125758490581  8.6395656886694852
  6.3449818528233131  1.3766913558490579  9.0843905305774850
  7.5675376212413124  3.4638125758490581  5.4000907982794866
  8.9747221773893120  5.5509338058490592 14.9552659563704857
  8.5226256204153135  3.4638125758490581 11.0768808319324847
  8.2042629540233118  5.5509338058490592 12.5179508207144856
  9.2930848437803117  3.4638125758490581 13.5141959675884866
  7.8859002876323121  1.3766913558490579 13.9590208094974848
  9.1593509531983131  5.5509338058490592  8.1947408543684865
  8.8409882868063132  1.3766913558490579  9.6358108431504839
  1.0186320543983127  3.4638125758490581 11.6283011445054871
  8.7452730586323124  3.4638125758490581  7.1240479612004854
  8.8248463745963139  1.3766913558490579  5.6503771745914850
  1.2181724147693127  5.5509338058490592  8.7355437737754862
  1.1385990988043131  1.3766913558490579 10.2092145603844848
  0.1408693633673126  3.4638125758490581 14.9824542989914846
  0.0612960474023126  5.5509338058490592  6.4561250856014851
  1.4568923626623127  5.5509338058490592 14.3145314139454864
  1.2977457307333131  3.4638125758490581  7.2618729871654857
  1.3773190466973131  1.3766913558490579  5.7882022005554852
  1.5364656786263127  3.4638125758490581 12.8408606273354842
  0.2204426793313127  1.3766913558490579 13.5087835123814859
  2.4546220875753124  3.4638125758490581  9.5412916847854845
  3.7706450868703127  5.5509338058490592  8.8733687997394863
  2.6933420354683131  3.4638125758490581 15.1202793249564866
  2.6137687195033128  5.5509338058490592  6.5939501115654853
  4.0093650347633130  5.5509338058490592 14.4523564399104849
  3.8502184028343134  3.4638125758490581  7.3996980131294849
  2.5341954035393135  1.3766913558490579  8.0676208981754858
  3.9297917187983127  1.3766913558490579  5.9260272265204854
  2.7729153514323128  1.3766913558490579 13.6466085383464844
  5.2458147075693127  3.4638125758490581 15.2581043509204850
  5.1662413916043128  5.5509338058490592  6.7317751375304855
  6.4026910749353148  3.4638125758490581  7.5375230390944852
  5.0866680756403122  1.3766913558490579  8.2054459241404842
  6.4822643908993163  1.3766913558490579  6.0638522524844864
  7.7187140637053133  5.5509338058490592  6.8696001634944857
  7.5675376212413124  3.4638125758490581 15.4000907982794857
  8.8248463745963139  1.3766913558490579 15.6503771745914850
  0.0612960474023126  5.5509338058490592 16.4561250856014851
  1.3773190466973131  1.3766913558490579 15.7882022005554852
  2.6137687195033128  5.5509338058490592 16.5939501115654835
  3.9297917187983127  1.3766913558490579 15.9260272265204890
  6.4822643908993163  1.3766913558490579 16.0638522524844873
  2.1234282082213132  7.6380550258490594  0.4188650410894867
  1.8050655418303125 11.8122974758490606  1.8599350298714850
  3.2122500860563137  9.7251762458490596  1.4151101955704855
  4.6194346422053130  7.6380550258490594  0.9702853536614865
  4.3010719758133131 11.8122974758490606  2.4113553424434873
  6.4787157434053126  9.7251762458490596  4.4038456437984852
  5.3898938536493146  7.6380550258490594  3.4076004969244860
  6.0266191864313141 11.8122974758490606  0.5254605193604851
  5.7082565200403144  9.7251762458490596  1.9665305081424851
  7.1154410761883131  7.6380550258490594  1.5217056662334869
  7.4338037425803130  9.7251762458490596  0.0806356774514851
  6.7970784097973160 11.8122974758490606  2.9627756550164861
  8.9747221773893120  9.7251762458490596  4.9552659563704857
  7.8859002876323121  7.6380550258490594  3.9590208094974848
  8.5226256204153135 11.8122974758490606  1.0768808319324847
  8.2042629540233118  9.7251762458490596  2.5179508207144847
  9.2930848437803117 11.8122974758490606  3.5141959675884866
  1.0186320543983127 11.8122974758490606  1.6283011445054876
  1.1385990988043131  7.6380550258490594  0.2092145603844848
  0.1408693633673126 11.8122974758490606  4.9824542989914846
  1.4568923626623127  9.7251762458490596  4.3145314139454856
  0.2204426793313127  7.6380550258490594  3.5087835123814859
  1.5364656786263127 11.8122974758490606  2.8408606273354851
  2.6933420354683131 11.8122974758490606  5.1202793249564866
  4.0093650347633130  9.7251762458490596  4.4523564399104849
  2.7729153514323128  7.6380550258490594  3.6466085383464844
  5.2458147075693127 11.8122974758490606  5.2581043509204850
  2.1234282082213132  7.6380550258490594 10.4188650410894859
  1.8050655418303125 11.8122974758490606 11.8599350298714850
  3.5306127524483135 11.8122974758490606  9.9740402067874854
  3.2122500860563137  9.7251762458490596 11.4151101955704846
  4.6194346422053130  7.6380550258490594 10.9702853536614864
  4.9377973085963145  9.7251762458490596  9.5292153648794855
  4.3010719758133131 11.8122974758490606 12.4113553424434873
  6.4787157434053126  9.7251762458490596 14.4038456437984852
  5.3898938536493146  7.6380550258490594 13.4076004969244860
  6.0266191864313141 11.8122974758490606 10.5254605193604860
  5.7082565200403144  9.7251762458490596 11.9665305081424851
  7.1154410761883131  7.6380550258490594 11.5217056662334869
  7.4338037425803130  9.7251762458490596 10.0806356774514860
  6.7970784097973160 11.8122974758490606 12.9627756550164861
  6.3449818528233131  7.6380550258490594  9.0843905305774850
  7.7521664089713127 11.8122974758490606  8.6395656886694852
  7.5675376212413124 11.8122974758490606  5.4000907982794866
  8.9747221773893120  9.7251762458490596 14.9552659563704857
  7.8859002876323121  7.6380550258490594 13.9590208094974848
  8.5226256204153135 11.8122974758490606 11.0768808319324847
  8.2042629540233118  9.7251762458490596 12.5179508207144856
  9.2930848437803117 11.8122974758490606 13.5141959675884866
  8.8409882868063132  7.6380550258490594  9.6358108431504839
  9.1593509531983131  9.7251762458490596  8.1947408543684865
  1.0186320543983127 11.8122974758490606 11.6283011445054871
  8.8248463745963139  7.6380550258490594  5.6503771745914850
  8.7452730586323124 11.8122974758490606  7.1240479612004854
  1.1385990988043131  7.6380550258490594 10.2092145603844848
  1.2181724147693127  9.7251762458490596  8.7355437737754862
  0.1408693633673126 11.8122974758490606 14.9824542989914846
  0.0612960474023126  9.7251762458490596  6.4561250856014851
  1.3773190466973131  7.6380550258490594  5.7882022005554852
  1.4568923626623127  9.7251762458490596 14.3145314139454864
  1.2977457307333131 11.8122974758490606  7.2618729871654857
  0.2204426793313127  7.6380550258490594 13.5087835123814859
  1.5364656786263127 11.8122974758490606 12.8408606273354842
  2.4546220875753124 11.8122974758490606  9.5412916847854845
  3.7706450868703127  9.7251762458490596  8.8733687997394863
  2.5341954035393135  7.6380550258490594  8.0676208981754858
  2.6933420354683131 11.8122974758490606 15.1202793249564866
  2.6137687195033128  9.7251762458490596  6.5939501115654853
  3.9297917187983127  7.6380550258490594  5.9260272265204854
  4.0093650347633130  9.7251762458490596 14.4523564399104849
  3.8502184028343134 11.8122974758490606  7.3996980131294849
  2.7729153514323128  7.6380550258490594 13.6466085383464844
  5.0866680756403122  7.6380550258490594  8.2054459241404842
  5.2458147075693127 11.8122974758490606 15.2581043509204850
  5.1662413916043128  9.7251762458490596  6.7317751375304855
  6.4822643908993163  7.6380550258490594  6.0638522524844864
  6.4026910749353148 11.8122974758490606  7.5375230390944852
  7.7187140637053133  9.7251762458490596  6.8696001634944857
  7.5675376212413124 11.8122974758490606 15.4000907982794857
  8.8248463745963139  7.6380550258490594 15.6503771745914850
  0.0612960474023126  9.7251762458490596 16.4561250856014851
  1.3773190466973131  7.6380550258490594 15.7882022005554852
  2.6137687195033128  9.7251762458490596 16.5939501115654835
  3.9297917187983127  7.6380550258490594 15.9260272265204890
  6.4822643908993163  7.6380550258490594 16.0638522524844873
 11.8050655418303130  3.4638125758490581  1.8599350298714850
 12.1234282082213163  1.3766913558490579  0.4188650410894867
 13.2122500860563150  5.5509338058490592  1.4151101955704855
 14.3010719758133131  3.4638125758490581  2.4113553424434873
 14.6194346422053130  1.3766913558490579  0.9702853536614865
  9.9298101765633131  5.5509338058490592  0.6320559900244849
  9.6114475101723134  1.3766913558490579  2.0731259788064857
 11.0186320543983154  3.4638125758490581  1.6283011445054876
 11.1385990988043133  1.3766913558490579  0.2092145603844848
 10.1408693633673153  3.4638125758490581  4.9824542989914846
 11.4568923626623125  5.5509338058490592  4.3145314139454856
 11.5364656786263122  3.4638125758490581  2.8408606273354851
 10.2204426793313132  1.3766913558490579  3.5087835123814859
 12.6933420354683175  3.4638125758490581  5.1202793249564866
 14.0093650347633130  5.5509338058490592  4.4523564399104849
 12.7729153514323155  1.3766913558490579  3.6466085383464844
 15.2458147075693127  3.4638125758490581  5.2581043509204850
 11.8050655418303130  3.4638125758490581 11.8599350298714850
 12.1234282082213163  1.3766913558490579 10.4188650410894859
 13.5306127524483131  3.4638125758490581  9.9740402067874854
 13.2122500860563150  5.5509338058490592 11.4151101955704846
 14.9377973085963163  5.5509338058490592  9.5292153648794855
 14.3010719758133131  3.4638125758490581 12.4113553424434873
 14.6194346422053130  1.3766913558490579 10.9702853536614864
  9.9298101765633131  5.5509338058490592 10.6320559900244866
  9.6114475101723134  1.3766913558490579 12.0731259788064857
 11.0186320543983154  3.4638125758490581 11.6283011445054871
 11.2181724147693167  5.5509338058490592  8.7355437737754862
 11.1385990988043133  1.3766913558490579 10.2092145603844848
 10.1408693633673153  3.4638125758490581 14.9824542989914846
 10.0612960474023119  5.5509338058490592  6.4561250856014851
 11.4568923626623125  5.5509338058490592 14.3145314139454864
 11.2977457307333129  3.4638125758490581  7.2618729871654857
  9.9817227314383121  1.3766913558490579  7.9297958722114856
 11.3773190466973126  1.3766913558490579  5.7882022005554852
 11.5364656786263122  3.4638125758490581 12.8408606273354842
 10.2204426793313132  1.3766913558490579 13.5087835123814859
 12.4546220875753129  3.4638125758490581  9.5412916847854845
 13.7706450868703154  5.5509338058490592  8.8733687997394863
 12.6933420354683175  3.4638125758490581 15.1202793249564866
 12.6137687195033124  5.5509338058490592  6.5939501115654853
 14.0093650347633130  5.5509338058490592 14.4523564399104849
 13.8502184028343169  3.4638125758490581  7.3996980131294849
 12.5341954035393126  1.3766913558490579  8.0676208981754858
 13.9297917187983131  1.3766913558490579  5.9260272265204854
 12.7729153514323155  1.3766913558490579 13.6466085383464844
 15.2458147075693127  3.4638125758490581 15.2581043509204850
 15.1662413916043128  5.5509338058490592  6.7317751375304855
 15.0866680756403131  1.3766913558490579  8.2054459241404842
 10.0612960474023119  5.5509338058490592 16.4561250856014851
 11.3773190466973126  1.3766913558490579 15.7882022005554852
 12.6137687195033124  5.5509338058490592 16.5939501115654835
 13.9297917187983131  1.3766913558490579 15.9260272265204890
 12.1234282082213163  7.6380550258490594  0.4188650410894867
 11.8050655418303130 11.8122974758490606  1.8599350298714850
 13.2122500860563150  9.7251762458490596  1.4151101955704855
 14.6194346422053130  7.6380550258490594  0.9702853536614865
 14.3010719758133131 11.8122974758490606  2.4113553424434873
  9.6114475101723134  7.6380550258490594  2.0731259788064857
  9.9298101765633131  9.7251762458490596  0.6320559900244849
 11.0186320543983154 11.8122974758490606  1.6283011445054876
 11.1385990988043133  7.6380550258490594  0.2092145603844848
 10.1408693633673153 11.8122974758490606  4.9824542989914846
 11.4568923626623125  9.7251762458490596  4.3145314139454856
 10.2204426793313132  7.6380550258490594  3.5087835123814859
 11.5364656786263122 11.8122974758490606  2.8408606273354851
 12.6933420354683175 11.8122974758490606  5.1202793249564866
 14.0093650347633130  9.7251762458490596  4.4523564399104849
 12.7729153514323155  7.6380550258490594  3.6466085383464844
 15.2458147075693127 11.8122974758490606  5.2581043509204850
 12.1234282082213163  7.6380550258490594 10.4188650410894859
 11.8050655418303130 11.8122974758490606 11.8599350298714850
 13.5306127524483131 11.8122974758490606  9.9740402067874854
 13.2122500860563150  9.7251762458490596 11.4151101955704846
 14.6194346422053130  7.6380550258490594 10.9702853536614864
 14.9377973085963163  9.7251762458490596  9.5292153648794855
 14.3010719758133131 11.8122974758490606 12.4113553424434873
  9.6114475101723134  7.6380550258490594 12.0731259788064857
  9.9298101765633131  9.7251762458490596 10.6320559900244866
 11.0186320543983154 11.8122974758490606 11.6283011445054871
 11.1385990988043133  7.6380550258490594 10.2092145603844848
 11.2181724147693167  9.7251762458490596  8.7355437737754862
  9.9817227314383121  7.6380550258490594  7.9297958722114856
 10.1408693633673153 11.8122974758490606 14.9824542989914846
 10.0612960474023119  9.7251762458490596  6.4561250856014851
 11.3773190466973126  7.6380550258490594  5.7882022005554852
 11.4568923626623125  9.7251762458490596 14.3145314139454864
 11.2977457307333129 11.8122974758490606  7.2618729871654857
 10.2204426793313132  7.6380550258490594 13.5087835123814859
 11.5364656786263122 11.8122974758490606 12.8408606273354842
 12.4546220875753129 11.8122974758490606  9.5412916847854845
 13.7706450868703154  9.7251762458490596  8.8733687997394863
 12.5341954035393126  7.6380550258490594  8.0676208981754858
 12.6933420354683175 11.8122974758490606 15.1202793249564866
 12.6137687195033124  9.7251762458490596  6.5939501115654853
 13.9297917187983131  7.6380550258490594  5.9260272265204854
 14.0093650347633130  9.7251762458490596 14.4523564399104849
 13.8502184028343169 11.8122974758490606  7.3996980131294849
 12.7729153514323155  7.6380550258490594 13.6466085383464844
 15.0866680756403131  7.6380550258490594  8.2054459241404842
 15.2458147075693127 11.8122974758490606 15.2581043509204850
 15.1662413916043128  9.7251762458490596  6.7317751375304855
 10.0612960474023119  9.7251762458490596 16.4561250856014851
 11.3773190466973126  7.6380550258490594 15.7882022005554852
 12.6137687195033124  9.7251762458490596 16.5939501115654835
 13.9297917187983131  7.6380550258490594 15.9260272265204890
