Cu
 1.0000000000000000
    12.3504301262978302    0.0000000000000000    0.0000000000000000
     0.0000000000000000   13.2343159365403835    0.0000000000000000
     0.0000000000000000    0.0000000000000000   17.4643916259396370
 Cu 
 272
Cartesian
  0.6389938894792961  4.5227386252168706  0.5890536571904761
  0.6389938894792961 10.7841022952168686  0.5890536571904761
  2.0461784337052973  2.4356173952168705  0.1442288228894766
  3.1350003234622963  4.5227386252168706  1.1404739697624784
  2.0461784337052973  8.6969810652168711  0.1442288228894766
  3.1350003234622963 10.7841022952168686  1.1404739697624784
  5.3126440910542954  2.4356173952168705  3.1329642711174763
  5.3126440910542954  8.6969810652168711  3.1329642711174763
  4.2238222012982964  0.3484961752168703  2.1367191242434771
  4.5421848676892980  2.4356173952168705  0.6956491354614761
  5.9493694238372967  0.3484961752168703  0.2508242935524780
  5.6310067574462970  4.5227386252168706  1.6918942823354772
  4.2238222012982964  6.6098598452168691  2.1367191242434771
  4.5421848676892980  8.6969810652168711  0.6956491354614761
  5.9493694238372967  6.6098598452168691  0.2508242935524780
  5.6310067574462970 10.7841022952168686  1.6918942823354772
  4.2238222012982964 12.8712235152168706  2.1367191242434771
  5.9493694238372967 12.8712235152168706  0.2508242935524780
  7.8086505250382956  2.4356173952168705  3.6843845836894773
  7.8086505250382956  8.6969810652168711  3.6843845836894773
  6.7198286352812948  0.3484961752168703  2.6881394368164759
  7.0381913016722946  2.4356173952168705  1.2470694480334759
  8.1270131914292953  4.5227386252168706  2.2433145949074778
  6.7198286352812948  6.6098598452168691  2.6881394368164759
  7.0381913016722946  8.6969810652168711  1.2470694480334759
  8.1270131914292953 10.7841022952168686  2.2433145949074778
  6.7198286352812948 12.8712235152168706  2.6881394368164759
  0.2908207103112963  2.4356173952168705  3.0436500412644758
  0.2908207103112963  8.6969810652168711  3.0436500412644758
  0.3703940262752963  4.5227386252168706  1.5699792546544762
  0.3703940262752963 10.7841022952168686  1.5699792546544762
  1.5272703831172965  4.5227386252168706  3.8493979522754778
  2.8432933824122961  2.4356173952168705  3.1814750672294765
  1.5272703831172965 10.7841022952168686  3.8493979522754778
  2.8432933824122961  8.6969810652168711  3.1814750672294765
  1.6068436990812964  0.3484961752168703  2.3757271656654755
  1.6068436990812964  6.6098598452168691  2.3757271656654755
  1.6068436990812964 12.8712235152168706  2.3757271656654755
  4.0797430552182963  4.5227386252168706  3.9872229782394761
  4.0797430552182963 10.7841022952168686  3.9872229782394761
  0.9573565558702966  0.3484961752168703  9.1479836684084788
  0.6389938894792961  4.5227386252168706 10.5890536571904779
  0.9573565558702966  6.6098598452168691  9.1479836684084788
  0.6389938894792961 10.7841022952168686 10.5890536571904779
  0.9573565558702966 12.8712235152168706  9.1479836684084788
  2.3645411000972971  4.5227386252168706  8.7031588341064765
  2.0461784337052973  2.4356173952168705 10.1442288228894775
  3.4533629898542966  0.3484961752168703  9.6994039809804775
  3.7717256562452963  2.4356173952168705  8.2583339921984766
  3.1350003234622963  4.5227386252168706 11.1404739697624784
  2.3645411000972971 10.7841022952168686  8.7031588341064765
  2.0461784337052973  8.6969810652168711 10.1442288228894775
  3.4533629898542966  6.6098598452168691  9.6994039809804775
  3.7717256562452963  8.6969810652168711  8.2583339921984766
  3.1350003234622963 10.7841022952168686 11.1404739697624784
  3.4533629898542966 12.8712235152168706  9.6994039809804775
  5.3126440910542954  2.4356173952168705 13.1329642711174763
  5.3126440910542954  8.6969810652168711 13.1329642711174763
  4.2238222012982964  0.3484961752168703 12.1367191242434771
  4.8605475340802977  4.5227386252168706  9.2545791466794753
  4.5421848676892980  2.4356173952168705 10.6956491354614762
  5.9493694238372967  0.3484961752168703 10.2508242935524780
  6.2677320902292966  2.4356173952168705  8.8097543047704772
  5.6310067574462970  4.5227386252168706 11.6918942823354772
  4.2238222012982964  6.6098598452168691 12.1367191242434771
  4.8605475340802977 10.7841022952168686  9.2545791466794753
  4.5421848676892980  8.6969810652168711 10.6956491354614762
  5.9493694238372967  6.6098598452168691 10.2508242935524780
  6.2677320902292966  8.6969810652168711  8.8097543047704772
  5.6310067574462970 10.7841022952168686 11.6918942823354772
  4.2238222012982964 12.8712235152168706 12.1367191242434771
  5.9493694238372967 12.8712235152168706 10.2508242935524780
  5.1789102004722958  0.3484961752168703  7.8135091578964762
  6.5860947566202963  4.5227386252168706  7.3686843159884763
  5.1789102004722958  6.6098598452168691  7.8135091578964762
  6.5860947566202963 10.7841022952168686  7.3686843159884763
  5.1789102004722958 12.8712235152168706  7.8135091578964762
  6.4014659688902951  4.5227386252168706  4.1292094255984759
  7.8086505250382956  2.4356173952168705 13.6843845836894786
  6.4014659688902951 10.7841022952168686  4.1292094255984759
  7.8086505250382956  8.6969810652168711 13.6843845836894786
  6.7198286352812948  0.3484961752168703 12.6881394368164759
  7.3565539680642971  4.5227386252168706  9.8059994592514741
  7.0381913016722946  2.4356173952168705 11.2470694480334750
  8.1270131914292953  4.5227386252168706 12.2433145949074778
  6.7198286352812948  6.6098598452168691 12.6881394368164759
  7.3565539680642971 10.7841022952168686  9.8059994592514741
  7.0381913016722946  8.6969810652168711 11.2470694480334750
  8.1270131914292953 10.7841022952168686 12.2433145949074778
  6.7198286352812948 12.8712235152168706 12.6881394368164759
  7.6749166344552968  0.3484961752168703  8.3649294704694768
  7.9932793008472949  2.4356173952168705  6.9238594816874768
  7.6749166344552968  6.6098598452168691  8.3649294704694768
  7.9932793008472949  8.6969810652168711  6.9238594816874768
  7.6749166344552968 12.8712235152168706  8.3649294704694768
  7.6587747222452975  0.3484961752168703  4.3794958019104762
  7.5792014062812960  4.5227386252168706  5.8531665885194766
  7.6587747222452975  6.6098598452168691  4.3794958019104762
  7.5792014062812960 10.7841022952168686  5.8531665885194766
  7.6587747222452975 12.8712235152168706  4.3794958019104762
  0.0521007624182963  2.4356173952168705  7.4646624010944773
  0.0521007624182963  8.6969810652168711  7.4646624010944773
  0.2112473943462962  0.3484961752168703  4.5173208278744763
  0.2908207103112963  2.4356173952168705 13.0436500412644758
  0.1316740783822963  4.5227386252168706  5.9909916144844768
  0.2112473943462962  6.6098598452168691  4.5173208278744763
  0.2908207103112963  8.6969810652168711 13.0436500412644758
  0.1316740783822963 10.7841022952168686  5.9909916144844768
  0.2112473943462962 12.8712235152168706  4.5173208278744763
  0.3703940262752963  4.5227386252168706 11.5699792546544771
  0.3703940262752963 10.7841022952168686 11.5699792546544771
  1.2885504352242960  4.5227386252168706  8.2704103121044774
  2.6045734345192959  2.4356173952168705  7.6024874270584775
  1.2885504352242960 10.7841022952168686  8.2704103121044774
  2.6045734345192959  8.6969810652168711  7.6024874270584775
  1.3681237511882962  0.3484961752168703  6.7967395254944769
  1.5272703831172965  4.5227386252168706 13.8493979522754778
  1.4476970671522962  2.4356173952168705  5.3230687388844773
  2.7637200664472958  0.3484961752168703  4.6551458538394765
  2.8432933824122961  2.4356173952168705 13.1814750672294778
  2.6841467504832965  4.5227386252168706  6.1288166404484761
  1.3681237511882962  6.6098598452168691  6.7967395254944769
  1.5272703831172965 10.7841022952168686 13.8493979522754778
  1.4476970671522962  8.6969810652168711  5.3230687388844773
  2.7637200664472958  6.6098598452168691  4.6551458538394765
  2.8432933824122961  8.6969810652168711 13.1814750672294778
  2.6841467504832965 10.7841022952168686  6.1288166404484761
  1.3681237511882962 12.8712235152168706  6.7967395254944769
  2.7637200664472958 12.8712235152168706  4.6551458538394765
  1.6068436990812964  0.3484961752168703 12.3757271656654773
  1.6068436990812964  6.6098598452168691 12.3757271656654773
  1.6068436990812964 12.8712235152168706 12.3757271656654773
  3.9205964232892954  0.3484961752168703  6.9345645514594763
  4.0797430552182963  4.5227386252168706 13.9872229782394761
  4.0001697392532964  2.4356173952168705  5.4608937648494766
  5.3161927385482972  0.3484961752168703  4.7929708798034776
  5.2366194225842984  4.5227386252168706  6.2666416664134763
  3.9205964232892954  6.6098598452168691  6.9345645514594763
  4.0797430552182963 10.7841022952168686 13.9872229782394761
  4.0001697392532964  8.6969810652168711  5.4608937648494766
  5.3161927385482972  6.6098598452168691  4.7929708798034776
  5.2366194225842984 10.7841022952168686  6.2666416664134763
  3.9205964232892954 12.8712235152168706  6.9345645514594763
  5.3161927385482972 12.8712235152168706  4.7929708798034776
  6.5526424113542960  2.4356173952168705  5.5987187908134768
  6.5526424113542960  8.6969810652168711  5.5987187908134768
  6.5860947566202963  4.5227386252168706 17.3686843159884745
  6.5860947566202963 10.7841022952168686 17.3686843159884745
  6.4014659688902951  4.5227386252168706 14.1292094255984768
  6.4014659688902951 10.7841022952168686 14.1292094255984768
  7.9932793008472949  2.4356173952168705 16.9238594816874759
  7.9932793008472949  8.6969810652168711 16.9238594816874759
  7.6587747222452975  0.3484961752168703 14.3794958019104762
  7.5792014062812960  4.5227386252168706 15.8531665885194766
  7.6587747222452975  6.6098598452168691 14.3794958019104762
  7.5792014062812960 10.7841022952168686 15.8531665885194766
  7.6587747222452975 12.8712235152168706 14.3794958019104762
  0.2112473943462962  0.3484961752168703 14.5173208278744745
  0.1316740783822963  4.5227386252168706 15.9909916144844768
  0.2112473943462962  6.6098598452168691 14.5173208278744745
  0.1316740783822963 10.7841022952168686 15.9909916144844768
  0.2112473943462962 12.8712235152168706 14.5173208278744745
  1.3681237511882962  0.3484961752168703 16.7967395254944769
  1.4476970671522962  2.4356173952168705 15.3230687388844764
  2.7637200664472958  0.3484961752168703 14.6551458538394765
  2.6841467504832965  4.5227386252168706 16.1288166404484770
  1.3681237511882962  6.6098598452168691 16.7967395254944769
  1.4476970671522962  8.6969810652168711 15.3230687388844764
  2.7637200664472958  6.6098598452168691 14.6551458538394765
  2.6841467504832965 10.7841022952168686 16.1288166404484770
  1.3681237511882962 12.8712235152168706 16.7967395254944769
  2.7637200664472958 12.8712235152168706 14.6551458538394765
  3.9205964232892954  0.3484961752168703 16.9345645514594771
  4.0001697392532964  2.4356173952168705 15.4608937648494749
  5.3161927385482972  0.3484961752168703 14.7929708798034767
  5.2366194225842984  4.5227386252168706 16.2666416664134772
  3.9205964232892954  6.6098598452168691 16.9345645514594771
  4.0001697392532964  8.6969810652168711 15.4608937648494749
  5.3161927385482972  6.6098598452168691 14.7929708798034767
  5.2366194225842984 10.7841022952168686 16.2666416664134772
  3.9205964232892954 12.8712235152168706 16.9345645514594771
  5.3161927385482972 12.8712235152168706 14.7929708798034767
  6.5526424113542960  2.4356173952168705 15.5987187908134768
  6.5526424113542960  8.6969810652168711 15.5987187908134768
 10.6389938894792966  4.5227386252168706  0.5890536571904761
 10.6389938894792966 10.7841022952168686  0.5890536571904761
 12.0461784337052968  2.4356173952168705  0.1442288228894766
 12.0461784337052968  8.6969810652168711  0.1442288228894766
  8.4453758578212952  0.3484961752168703  0.8022446061254769
  8.4453758578212952  6.6098598452168691  0.8022446061254769
  8.4453758578212952 12.8712235152168706  0.8022446061254769
  9.8525604020472954  4.5227386252168706  0.3574197718244783
  9.8525604020472954 10.7841022952168686  0.3574197718244783
  8.9747977110162971  4.5227386252168706  3.7115729263104762
 10.2908207103112961  2.4356173952168705  3.0436500412644758
  8.9747977110162971 10.7841022952168686  3.7115729263104762
 10.2908207103112961  8.6969810652168711  3.0436500412644758
  9.0543710269802968  0.3484961752168703  2.2379021397004770
 10.3703940262752958  4.5227386252168706  1.5699792546544762
  9.0543710269802968  6.6098598452168691  2.2379021397004770
 10.3703940262752958 10.7841022952168686  1.5699792546544762
  9.0543710269802968 12.8712235152168706  2.2379021397004770
 11.5272703831172976  4.5227386252168706  3.8493979522754778
 11.5272703831172976 10.7841022952168686  3.8493979522754778
 11.6068436990812955  0.3484961752168703  2.3757271656654755
 11.6068436990812955  6.6098598452168691  2.3757271656654755
 11.6068436990812955 12.8712235152168706  2.3757271656654755
 10.9573565558702963  0.3484961752168703  9.1479836684084788
 10.6389938894792966  4.5227386252168706 10.5890536571904779
 10.9573565558702963  6.6098598452168691  9.1479836684084788
 10.6389938894792966 10.7841022952168686 10.5890536571904779
 10.9573565558702963 12.8712235152168706  9.1479836684084788
 12.0461784337052968  2.4356173952168705 10.1442288228894775
 12.0461784337052968  8.6969810652168711 10.1442288228894775
  8.4453758578212952  0.3484961752168703 10.8022446061254769
  8.7637385242122949  2.4356173952168705  9.3611746173434760
  8.4453758578212952  6.6098598452168691 10.8022446061254769
  8.7637385242122949  8.6969810652168711  9.3611746173434760
  8.4453758578212952 12.8712235152168706 10.8022446061254769
  9.8525604020472954  4.5227386252168706 10.3574197718244783
  9.8525604020472954 10.7841022952168686 10.3574197718244783
  9.9725274464532969  0.3484961752168703  8.9383331877034760
 10.0521007624182950  2.4356173952168705  7.4646624010944773
  9.9725274464532969  6.6098598452168691  8.9383331877034760
 10.0521007624182950  8.6969810652168711  7.4646624010944773
  9.9725274464532969 12.8712235152168706  8.9383331877034760
  8.8156510790872940  0.3484961752168703  6.6589144995304768
  8.9747977110162971  4.5227386252168706 13.7115729263104775
  8.8952243950512955  2.4356173952168705  5.1852437129204763
 10.2112473943462962  0.3484961752168703  4.5173208278744763
 10.2908207103112961  2.4356173952168705 13.0436500412644758
 10.1316740783822965  4.5227386252168706  5.9909916144844768
  8.8156510790872940  6.6098598452168691  6.6589144995304768
  8.9747977110162971 10.7841022952168686 13.7115729263104775
  8.8952243950512955  8.6969810652168711  5.1852437129204763
 10.2112473943462962  6.6098598452168691  4.5173208278744763
 10.2908207103112961  8.6969810652168711 13.0436500412644758
 10.1316740783822965 10.7841022952168686  5.9909916144844768
  8.8156510790872940 12.8712235152168706  6.6589144995304768
 10.2112473943462962 12.8712235152168706  4.5173208278744763
  9.0543710269802968  0.3484961752168703 12.2379021397004770
 10.3703940262752958  4.5227386252168706 11.5699792546544771
  9.0543710269802968  6.6098598452168691 12.2379021397004770
 10.3703940262752958 10.7841022952168686 11.5699792546544771
  9.0543710269802968 12.8712235152168706 12.2379021397004770
 11.2885504352242965  4.5227386252168706  8.2704103121044774
 11.2885504352242965 10.7841022952168686  8.2704103121044774
 11.3681237511882944  0.3484961752168703  6.7967395254944769
 11.5272703831172976  4.5227386252168706 13.8493979522754778
 11.4476970671522960  2.4356173952168705  5.3230687388844773
 11.3681237511882944  6.6098598452168691  6.7967395254944769
 11.5272703831172976 10.7841022952168686 13.8493979522754778
 11.4476970671522960  8.6969810652168711  5.3230687388844773
 11.3681237511882944 12.8712235152168706  6.7967395254944769
 11.6068436990812955  0.3484961752168703 12.3757271656654773
 11.6068436990812955  6.6098598452168691 12.3757271656654773
 11.6068436990812955 12.8712235152168706 12.3757271656654773
  8.8156510790872940  0.3484961752168703 16.6589144995304750
  8.8952243950512955  2.4356173952168705 15.1852437129204763
 10.2112473943462962  0.3484961752168703 14.5173208278744745
 10.1316740783822965  4.5227386252168706 15.9909916144844768
  8.8156510790872940  6.6098598452168691 16.6589144995304750
  8.8952243950512955  8.6969810652168711 15.1852437129204763
 10.2112473943462962  6.6098598452168691 14.5173208278744745
 10.1316740783822965 10.7841022952168686 15.9909916144844768
  8.8156510790872940 12.8712235152168706 16.6589144995304750
 10.2112473943462962 12.8712235152168706 14.5173208278744745
 11.3681237511882944  0.3484961752168703 16.7967395254944769
 11.4476970671522960  2.4356173952168705 15.3230687388844764
 11.3681237511882944  6.6098598452168691 16.7967395254944769
 11.4476970671522960  8.6969810652168711 15.3230687388844764
 11.3681237511882944 12.8712235152168706 16.7967395254944769
