Cu
 1.0000000000000000
    13.8628182795496500    0.0000000000000000    0.0000000000000000
     0.0000000000000000   14.3364746425162259    0.0000000000000000
     0.0000000000000000    0.0000000000000000   15.9215803392126922
 Cu 
 275
Cartesian
  0.5024881813001443  9.6146247447591193  1.7076474963625579
  0.1841255149091445  5.4403822947591172  3.1487174851445587
  0.5024881813001443  3.3532610747591249  1.7076474963625579
  2.0434066161091442  9.6146247447591193  6.5822777752815576
  2.0434066161091442  3.3532610747591249  6.5822777752815576
  1.5913100591351457  7.5275035147591174  2.7038926508435575
  1.2729473927441459  9.6146247447591193  4.1449626396255574
  2.9984946152841445  9.6146247447591193  2.2590678089345575
  2.3617692825011458  7.5275035147591174  5.1412077864995585
  0.9545847263531444  5.4403822947591172  5.5860326284075583
  1.5913100591351457  1.2661398447591199  2.7038926508435575
  1.2729473927441459  3.3532610747591249  4.1449626396255574
  2.6801319488921447  5.4403822947591172  3.7001377977165593
  2.9984946152841445  3.3532610747591249  2.2590678089345575
  2.3617692825011458  1.2661398447591199  5.1412077864995585
  3.3168572816751443  7.5275035147591174  0.8179978201525575
  1.9096727255271446  5.4403822947591172  1.2628226620605574
  3.3168572816751443  1.2661398447591199  0.8179978201525575
  4.5394130500931436  9.6146247447591193  7.1336980878535581
  4.5394130500931436  3.3532610747591249  7.1336980878535581
  4.0873164931191450  7.5275035147591174  3.2553129634155571
  3.7689538267271434  9.6146247447591193  4.6963829521975571
  4.8577757164841433  7.5275035147591174  5.6926280990715590
  3.4505911603361432  5.4403822947591172  6.1374529409805572
  4.0873164931191450  1.2661398447591199  3.2553129634155571
  3.7689538267271434  3.3532610747591249  4.6963829521975571
  4.8577757164841433  1.2661398447591199  5.6926280990715590
  4.7240418259021446  9.6146247447591193  0.3731729858515580
  4.4056791595101448  5.4403822947591172  1.8142429746335571
  4.7240418259021446  3.3532610747591249  0.3731729858515580
  0.8105055802731442  7.5275035147591174  7.4365364824035574
  0.6513589483441438  5.4403822947591172  0.3838780556235575
  0.8105055802731442  1.2661398447591199  7.4365364824035574
  0.5024881813001443  9.6146247447591193 11.7076474963625579
  0.1841255149091445  5.4403822947591172 13.1487174851445587
  0.5024881813001443  3.3532610747591249 11.7076474963625579
  1.5913100591351457  7.5275035147591174 12.7038926508435566
  1.2729473927441459  9.6146247447591193 14.1449626396255574
  2.9984946152841445  9.6146247447591193 12.2590678089345566
  2.3617692825011458  7.5275035147591174 15.1412077864995585
  0.9545847263531444  5.4403822947591172 15.5860326284075583
  1.5913100591351457  1.2661398447591199 12.7038926508435566
  1.2729473927441459  3.3532610747591249 14.1449626396255574
  2.6801319488921447  5.4403822947591172 13.7001377977165593
  2.9984946152841445  3.3532610747591249 12.2590678089345566
  2.3617692825011458  1.2661398447591199 15.1412077864995585
  3.3168572816751443  7.5275035147591174 10.8179978201525575
  1.9096727255271446  5.4403822947591172 11.2628226620605574
  3.3168572816751443  1.2661398447591199 10.8179978201525575
  3.1322284939451439  7.5275035147591174  7.5785229297625571
  3.1322284939451439  1.2661398447591199  7.5785229297625571
  4.0873164931191450  7.5275035147591174 13.2553129634155571
  3.7689538267271434  9.6146247447591193 14.6963829521975562
  4.8577757164841433  7.5275035147591174 15.6926280990715590
  4.0873164931191450  1.2661398447591199 13.2553129634155571
  3.7689538267271434  3.3532610747591249 14.6963829521975562
  4.8577757164841433  1.2661398447591199 15.6926280990715590
  4.7240418259021446  9.6146247447591193 10.3731729858515571
  4.4056791595101448  5.4403822947591172 11.8142429746335580
  4.7240418259021446  3.3532610747591249 10.3731729858515571
  4.3099639313361440  7.5275035147591174  9.3024800926835578
  4.3895372473001455  5.4403822947591172  7.8288093060745574
  4.3099639313361440  1.2661398447591199  9.3024800926835578
  0.7309322643081444  9.6146247447591193  8.9102072690135579
  1.9673819476391465  7.5275035147591174  9.7159551705775584
  0.6513589483441438  5.4403822947591172 10.3838780556235584
  0.7309322643081444  3.3532610747591249  8.9102072690135579
  2.0469552636031461  5.4403822947591172  8.2422843839675579
  1.9673819476391465  1.2661398447591199  9.7159551705775584
  3.2834049364091449  9.6146247447591193  9.0480322949775580
  3.2834049364091449  3.3532610747591249  9.0480322949775580
  0.1841255149091445 11.7017459647591195  3.1487174851445587
  0.5024881813001443 13.7888671847591162  1.7076474963625579
  2.0434066161091442 13.7888671847591162  6.5822777752815576
  0.9545847263531444 11.7017459647591195  5.5860326284075583
  1.2729473927441459 13.7888671847591162  4.1449626396255574
  2.6801319488921447 11.7017459647591195  3.7001377977165593
  2.9984946152841445 13.7888671847591162  2.2590678089345575
  1.9096727255271446 11.7017459647591195  1.2628226620605574
  4.5394130500931436 13.7888671847591162  7.1336980878535581
  3.4505911603361432 11.7017459647591195  6.1374529409805572
  3.7689538267271434 13.7888671847591162  4.6963829521975571
  4.4056791595101448 11.7017459647591195  1.8142429746335571
  4.7240418259021446 13.7888671847591162  0.3731729858515580
  0.6513589483441438 11.7017459647591195  0.3838780556235575
  0.1841255149091445 11.7017459647591195 13.1487174851445587
  0.5024881813001443 13.7888671847591162 11.7076474963625579
  0.9545847263531444 11.7017459647591195 15.5860326284075583
  1.2729473927441459 13.7888671847591162 14.1449626396255574
  2.6801319488921447 11.7017459647591195 13.7001377977165593
  2.9984946152841445 13.7888671847591162 12.2590678089345566
  1.9096727255271446 11.7017459647591195 11.2628226620605574
  3.7689538267271434 13.7888671847591162 14.6963829521975562
  4.4056791595101448 11.7017459647591195 11.8142429746335580
  4.7240418259021446 13.7888671847591162 10.3731729858515571
  4.3895372473001455 11.7017459647591195  7.8288093060745574
  0.6513589483441438 11.7017459647591195 10.3838780556235584
  0.7309322643081444 13.7888671847591162  8.9102072690135579
  2.0469552636031461 11.7017459647591195  8.2422843839675579
  3.2834049364091449 13.7888671847591162  9.0480322949775580
  7.3697564145341437  7.5275035147591174  4.0383671613545573
  7.6881190809251443  5.4403822947591172  2.5972971725725591
  7.3697564145341437  1.2661398447591199  4.0383671613545573
  9.0953036251521446  7.5275035147591174  2.1524723382705577
  8.7769409587601448  9.6146247447591193  3.5935423270535578
 10.5024881813001443  9.6146247447591193  1.7076474963625579
  9.8657628485171447  7.5275035147591174  4.5897874739265596
  9.0953036251521446  1.2661398447591199  2.1524723382705577
  8.7769409587601448  3.3532610747591249  3.5935423270535578
 10.1841255149091445  5.4403822947591172  3.1487174851445587
 10.5024881813001443  3.3532610747591249  1.7076474963625579
  9.8657628485171447  1.2661398447591199  4.5897874739265596
 12.0434066161091451  9.6146247447591193  6.5822777752815576
 12.0434066161091451  3.3532610747591249  6.5822777752815576
 11.5913100591351466  7.5275035147591174  2.7038926508435575
 11.2729473927441468  9.6146247447591193  4.1449626396255574
 12.9984946152841445  9.6146247447591193  2.2590678089345575
 12.3617692825011467  7.5275035147591174  5.1412077864995585
 10.9545847263531435  5.4403822947591172  5.5860326284075583
 11.5913100591351466  1.2661398447591199  2.7038926508435575
 11.2729473927441468  3.3532610747591249  4.1449626396255574
 12.6801319488921447  5.4403822947591172  3.7001377977165593
 12.9984946152841445  3.3532610747591249  2.2590678089345575
 12.3617692825011467  1.2661398447591199  5.1412077864995585
 13.3168572816751425  7.5275035147591174  0.8179978201525575
 11.9096727255271446  5.4403822947591172  1.2628226620605574
 13.3168572816751425  1.2661398447591199  0.8179978201525575
 13.7689538267271434  9.6146247447591193  4.6963829521975571
  5.4945010492671447  9.6146247447591193  2.8104881215075572
 13.4505911603361437  5.4403822947591172  6.1374529409805572
 13.7689538267271434  3.3532610747591249  4.6963829521975571
  5.1761383828761440  5.4403822947591172  4.2515581102895581
  5.4945010492671447  3.3532610747591249  2.8104881215075572
  6.5833229271021443  7.5275035147591174  3.8067332759885595
  6.5833229271021443  1.2661398447591199  3.8067332759885595
  6.7828632874731447  9.6146247447591193  0.9139759052585585
  6.7032899715081440  5.4403822947591172  2.3876466918675572
  6.7828632874731447  3.3532610747591249  0.9139759052585585
  5.7055602360711442  7.5275035147591174  7.1608864304745570
  7.0215832353661440  9.6146247447591193  6.4929635454285570
  5.5464136041421446  5.4403822947591172  0.1082280036945580
  5.7055602360711442  1.2661398447591199  7.1608864304745570
  7.0215832353661440  3.3532610747591249  6.4929635454285570
  7.1011565513301447  7.5275035147591174  5.0192927588185574
  5.7851335520351439  5.4403822947591172  5.6872156438645582
  7.1011565513301447  1.2661398447591199  5.0192927588185574
  8.0193129602791444  7.5275035147591174  1.7197238162685577
  9.3353359595741452  9.6146247447591193  1.0518009312225587
  8.0193129602791444  1.2661398447591199  1.7197238162685577
  9.3353359595741452  3.3532610747591249  1.0518009312225587
  8.2580329081721437  7.5275035147591174  7.2987114564395590
  9.5740559074671445  9.6146247447591193  6.6307885713935573
  8.0988862762431442  5.4403822947591172  0.2460530296585581
  8.2580329081721437  1.2661398447591199  7.2987114564395590
  9.5740559074671445  3.3532610747591249  6.6307885713935573
  8.3376062241361453  5.4403822947591172  5.8250406698295567
 10.8105055802731442  7.5275035147591174  7.4365364824035574
 10.6513589483441429  5.4403822947591172  0.3838780556235575
 10.8105055802731442  1.2661398447591199  7.4365364824035574
  7.3697564145341437  7.5275035147591174 14.0383671613545573
  7.6881190809251443  5.4403822947591172 12.5972971725725600
  7.3697564145341437  1.2661398447591199 14.0383671613545573
  9.0953036251521446  7.5275035147591174 12.1524723382705577
  8.7769409587601448  9.6146247447591193 13.5935423270535587
 10.5024881813001443  9.6146247447591193 11.7076474963625579
  9.8657628485171447  7.5275035147591174 14.5897874739265596
  9.0953036251521446  1.2661398447591199 12.1524723382705577
  8.7769409587601448  3.3532610747591249 13.5935423270535587
 10.1841255149091445  5.4403822947591172 13.1487174851445587
 10.5024881813001443  3.3532610747591249 11.7076474963625579
  9.8657628485171447  1.2661398447591199 14.5897874739265596
 11.5913100591351466  7.5275035147591174 12.7038926508435566
 11.2729473927441468  9.6146247447591193 14.1449626396255574
 12.9984946152841445  9.6146247447591193 12.2590678089345566
 12.3617692825011467  7.5275035147591174 15.1412077864995585
 10.9545847263531435  5.4403822947591172 15.5860326284075583
 11.5913100591351466  1.2661398447591199 12.7038926508435566
 11.2729473927441468  3.3532610747591249 14.1449626396255574
 12.6801319488921447  5.4403822947591172 13.7001377977165593
 12.9984946152841445  3.3532610747591249 12.2590678089345566
 12.3617692825011467  1.2661398447591199 15.1412077864995585
 13.3168572816751425  7.5275035147591174 10.8179978201525575
 11.9096727255271446  5.4403822947591172 11.2628226620605574
 13.3168572816751425  1.2661398447591199 10.8179978201525575
 13.1322284939451439  7.5275035147591174  7.5785229297625571
 13.1322284939451439  1.2661398447591199  7.5785229297625571
 13.7689538267271434  9.6146247447591193 14.6963829521975562
  5.4945010492671447  9.6146247447591193 12.8104881215075572
 13.7689538267271434  3.3532610747591249 14.6963829521975562
  5.1761383828761440  5.4403822947591172 14.2515581102895581
  5.4945010492671447  3.3532610747591249 12.8104881215075572
  6.5833229271021443  7.5275035147591174 13.8067332759885595
  6.5833229271021443  1.2661398447591199 13.8067332759885595
  6.7828632874731447  9.6146247447591193 10.9139759052585585
  6.7032899715081440  5.4403822947591172 12.3876466918675572
  6.7828632874731447  3.3532610747591249 10.9139759052585585
  5.6259869201061443  9.6146247447591193  8.6345572170845575
  6.8624366034371445  7.5275035147591174  9.4403051186485580
  5.5464136041421446  5.4403822947591172 10.1082280036945580
  5.6259869201061443  3.3532610747591249  8.6345572170845575
  6.9420099194011433  5.4403822947591172  7.9666343320385566
  6.8624366034371445  1.2661398447591199  9.4403051186485580
  7.1011565513301447  7.5275035147591174 15.0192927588185583
  5.7851335520351439  5.4403822947591172 15.6872156438645582
  7.1011565513301447  1.2661398447591199 15.0192927588185583
  8.0193129602791444  7.5275035147591174 11.7197238162685586
  9.3353359595741452  9.6146247447591193 11.0518009312225587
  8.0193129602791444  1.2661398447591199 11.7197238162685586
  9.3353359595741452  3.3532610747591249 11.0518009312225587
  8.1784595922071439  9.6146247447591193  8.7723822430485576
  9.4149092755381449  7.5275035147591174  9.5781301446125582
  8.0988862762431442  5.4403822947591172 10.2460530296585581
  8.1784595922071439  3.3532610747591249  8.7723822430485576
  9.4944825915021447  5.4403822947591172  8.1044593580035578
  9.4149092755381449  1.2661398447591199  9.5781301446125582
  8.3376062241361453  5.4403822947591172 15.8250406698295567
 10.7309322643081444  9.6146247447591193  8.9102072690135579
 11.9673819476391472  7.5275035147591174  9.7159551705775584
 10.6513589483441429  5.4403822947591172 10.3838780556235584
 10.7309322643081444  3.3532610747591249  8.9102072690135579
 12.0469552636031452  5.4403822947591172  8.2422843839675579
 11.9673819476391472  1.2661398447591199  9.7159551705775584
 13.2834049364091449  9.6146247447591193  9.0480322949775580
 13.2834049364091449  3.3532610747591249  9.0480322949775580
  7.6881190809251443 11.7017459647591195  2.5972971725725591
  8.7769409587601448 13.7888671847591162  3.5935423270535578
 10.1841255149091445 11.7017459647591195  3.1487174851445587
 10.5024881813001443 13.7888671847591162  1.7076474963625579
 12.0434066161091451 13.7888671847591162  6.5822777752815576
 10.9545847263531435 11.7017459647591195  5.5860326284075583
 11.2729473927441468 13.7888671847591162  4.1449626396255574
 12.6801319488921447 11.7017459647591195  3.7001377977165593
 12.9984946152841445 13.7888671847591162  2.2590678089345575
 11.9096727255271446 11.7017459647591195  1.2628226620605574
 13.4505911603361437 11.7017459647591195  6.1374529409805572
 13.7689538267271434 13.7888671847591162  4.6963829521975571
  5.1761383828761440 11.7017459647591195  4.2515581102895581
  5.4945010492671447 13.7888671847591162  2.8104881215075572
  6.7032899715081440 11.7017459647591195  2.3876466918675572
  6.7828632874731447 13.7888671847591162  0.9139759052585585
  5.5464136041421446 11.7017459647591195  0.1082280036945580
  7.0215832353661440 13.7888671847591162  6.4929635454285570
  5.7851335520351439 11.7017459647591195  5.6872156438645582
  9.3353359595741452 13.7888671847591162  1.0518009312225587
  8.0988862762431442 11.7017459647591195  0.2460530296585581
  9.5740559074671445 13.7888671847591162  6.6307885713935573
  8.3376062241361453 11.7017459647591195  5.8250406698295567
 10.6513589483441429 11.7017459647591195  0.3838780556235575
  7.6881190809251443 11.7017459647591195 12.5972971725725600
  8.7769409587601448 13.7888671847591162 13.5935423270535587
 10.1841255149091445 11.7017459647591195 13.1487174851445587
 10.5024881813001443 13.7888671847591162 11.7076474963625579
 10.9545847263531435 11.7017459647591195 15.5860326284075583
 11.2729473927441468 13.7888671847591162 14.1449626396255574
 12.6801319488921447 11.7017459647591195 13.7001377977165593
 12.9984946152841445 13.7888671847591162 12.2590678089345566
 11.9096727255271446 11.7017459647591195 11.2628226620605574
 13.7689538267271434 13.7888671847591162 14.6963829521975562
  5.1761383828761440 11.7017459647591195 14.2515581102895581
  5.4945010492671447 13.7888671847591162 12.8104881215075572
  6.7032899715081440 11.7017459647591195 12.3876466918675572
  6.7828632874731447 13.7888671847591162 10.9139759052585585
  5.5464136041421446 11.7017459647591195 10.1082280036945580
  5.6259869201061443 13.7888671847591162  8.6345572170845575
  6.9420099194011433 11.7017459647591195  7.9666343320385566
  5.7851335520351439 11.7017459647591195 15.6872156438645582
  9.3353359595741452 13.7888671847591162 11.0518009312225587
  8.0988862762431442 11.7017459647591195 10.2460530296585581
  8.1784595922071439 13.7888671847591162  8.7723822430485576
  9.4944825915021447 11.7017459647591195  8.1044593580035578
  8.3376062241361453 11.7017459647591195 15.8250406698295567
 10.6513589483441429 11.7017459647591195 10.3838780556235584
 10.7309322643081444 13.7888671847591162  8.9102072690135579
 12.0469552636031452 11.7017459647591195  8.2422843839675579
 13.2834049364091449 13.7888671847591162  9.0480322949775580
