Cu
 1.0000000000000000
    13.6158323015102525    0.0000000000000000    0.0000000000000000
     0.0000000000000000   12.1413502479992985    0.0000000000000000
     0.0000000000000000    0.0000000000000000   15.6262393320013082
 Cu 
 186
Cartesian
  0.8445925814585111  1.7361160140137317  1.3348011940219857
  0.2078672486755115  3.8232372440137308  4.2169411715859875
  0.5262299150675114  5.9103584640137310  2.7758711828039866
  0.8445925814585111  7.9974796840137312  1.3348011940219857
  0.2078672486755115 10.0846009040137314  4.2169411715859875
  2.3855110162675106  1.7361160140137317  6.2094314729409836
  2.3855110162675106  7.9974796840137312  6.2094314729409836
  1.9334144592935125  3.8232372440137308  2.3310463485029844
  1.6150517929025128  1.7361160140137317  3.7721163372849853
  3.3405990154425114  1.7361160140137317  1.8862215065939854
  2.7038736826595127  3.8232372440137308  4.7683614841589863
  1.2966891265115112  5.9103584640137310  5.2131863260669862
  1.9334144592935125 10.0846009040137314  2.3310463485029844
  1.6150517929025128  7.9974796840137312  3.7721163372849853
  3.0222363490505115  5.9103584640137310  3.3272914953759862
  3.3405990154425114  7.9974796840137312  1.8862215065939854
  2.7038736826595127 10.0846009040137314  4.7683614841589863
  3.6589616818335111  3.8232372440137308  0.4451515178119854
  2.2517771256855110  5.9103584640137310  0.8899763597199852
  3.6589616818335111 10.0846009040137314  0.4451515178119854
  4.8815174502515095  1.7361160140137317  6.7608517855129842
  4.8815174502515095  7.9974796840137312  6.7608517855129842
  4.4294208932775119  3.8232372440137308  2.8824666610749849
  4.1110582268855103  1.7361160140137317  4.3235366498569849
  5.1998801166425102  3.8232372440137308  5.3197817967309851
  3.7926955604945101  5.9103584640137310  5.7646066386399850
  4.4294208932775119 10.0846009040137314  2.8824666610749849
  4.1110582268855103  7.9974796840137312  4.3235366498569849
  5.1998801166425102 10.0846009040137314  5.3197817967309851
  5.0661462260605106  1.7361160140137317  0.0003266835109859
  4.7477835596685107  5.9103584640137310  1.4413966722929845
  5.0661462260605106  7.9974796840137312  0.0003266835109859
  1.1526099804315111  3.8232372440137308  7.0636901800629852
  0.9934633485025106  5.9103584640137310  0.0110317532829853
  1.1526099804315111 10.0846009040137314  7.0636901800629852
  0.8445925814585111  1.7361160140137317 11.3348011940219848
  0.2078672486755115  3.8232372440137308 14.2169411715859830
  0.5262299150675114  5.9103584640137310 12.7758711828039839
  0.8445925814585111  7.9974796840137312 11.3348011940219848
  0.2078672486755115 10.0846009040137314 14.2169411715859830
  1.9334144592935125  3.8232372440137308 12.3310463485029853
  1.6150517929025128  1.7361160140137317 13.7721163372849844
  3.3405990154425114  1.7361160140137317 11.8862215065939854
  2.7038736826595127  3.8232372440137308 14.7683614841589836
  1.2966891265115112  5.9103584640137310 15.2131863260669853
  1.9334144592935125 10.0846009040137314 12.3310463485029853
  1.6150517929025128  7.9974796840137312 13.7721163372849844
  3.0222363490505115  5.9103584640137310 13.3272914953759880
  3.3405990154425114  7.9974796840137312 11.8862215065939854
  2.7038736826595127 10.0846009040137314 14.7683614841589836
  3.6589616818335111  3.8232372440137308 10.4451515178119863
  2.2517771256855110  5.9103584640137310 10.8899763597199843
  3.6589616818335111 10.0846009040137314 10.4451515178119863
  3.4743328941035103  3.8232372440137308  7.2056766274219832
  3.4743328941035103 10.0846009040137314  7.2056766274219832
  4.4294208932775119  3.8232372440137308 12.8824666610749823
  4.1110582268855103  1.7361160140137317 14.3235366498569814
  5.1998801166425102  3.8232372440137308 15.3197817967309859
  4.4294208932775119 10.0846009040137314 12.8824666610749823
  4.1110582268855103  7.9974796840137312 14.3235366498569814
  5.1998801166425102 10.0846009040137314 15.3197817967309859
  5.0661462260605106  1.7361160140137317 10.0003266835109859
  4.7477835596685107  5.9103584640137310 11.4413966722929814
  5.0661462260605106  7.9974796840137312 10.0003266835109859
  4.6520683314945108  3.8232372440137308  8.9296337903429865
  4.7316416474585123  5.9103584640137310  7.4559630037339835
  4.6520683314945108 10.0846009040137314  8.9296337903429865
  1.0730366644665112  1.7361160140137317  8.5373609666729848
  2.3094863477975132  3.8232372440137308  9.3431088682369854
  0.9934633485025106  5.9103584640137310 10.0110317532829853
  1.0730366644665112  7.9974796840137312  8.5373609666729848
  2.3890596637615129  5.9103584640137310  7.8694380816269849
  2.3094863477975132 10.0846009040137314  9.3431088682369854
  3.6255093365675117  1.7361160140137317  8.6751859926369868
  3.6255093365675117  7.9974796840137312  8.6751859926369868
  7.7118608146925105  3.8232372440137308  3.6655208590139852
  8.0302234810835120  5.9103584640137310  2.2244508702319870
  7.7118608146925105 10.0846009040137314  3.6655208590139852
  9.4374080253105124  3.8232372440137308  1.7796260359299856
  9.1190453589185125  1.7361160140137317  3.2206960247129857
 10.8445925814585102  1.7361160140137317  1.3348011940219857
 10.2078672486755124  3.8232372440137308  4.2169411715859875
  9.4374080253105124 10.0846009040137314  1.7796260359299856
  9.1190453589185125  7.9974796840137312  3.2206960247129857
 10.5262299150675105  5.9103584640137310  2.7758711828039866
 10.8445925814585102  7.9974796840137312  1.3348011940219857
 10.2078672486755124 10.0846009040137314  4.2169411715859875
 12.3855110162675111  1.7361160140137317  6.2094314729409836
 12.3855110162675111  7.9974796840137312  6.2094314729409836
 11.9334144592935125  3.8232372440137308  2.3310463485029844
 11.6150517929025128  1.7361160140137317  3.7721163372849853
 13.3405990154425105  1.7361160140137317  1.8862215065939854
 12.7038736826595109  3.8232372440137308  4.7683614841589863
 11.2966891265115112  5.9103584640137310  5.2131863260669862
 11.9334144592935125 10.0846009040137314  2.3310463485029844
 11.6150517929025128  7.9974796840137312  3.7721163372849853
 13.0222363490505124  5.9103584640137310  3.3272914953759862
 13.3405990154425105  7.9974796840137312  1.8862215065939854
 12.7038736826595109 10.0846009040137314  4.7683614841589863
 12.2517771256855106  5.9103584640137310  0.8899763597199852
  5.8366054494255097  1.7361160140137317  2.4376418191669842
  5.5182427830345091  5.9103584640137310  3.8787118079489860
  5.8366054494255097  7.9974796840137312  2.4376418191669842
  6.9254273272605111  3.8232372440137308  3.4338869736479873
  6.9254273272605111 10.0846009040137314  3.4338869736479873
  7.1249676876315116  1.7361160140137317  0.5411296029179864
  7.0453943716665117  5.9103584640137310  2.0148003895269850
  7.1249676876315116  7.9974796840137312  0.5411296029179864
  6.0476646362295110  3.8232372440137308  6.7880401281339831
  7.3636876355245109  1.7361160140137317  6.1201172430879849
  6.0476646362295110 10.0846009040137314  6.7880401281339831
  7.3636876355245109  7.9974796840137312  6.1201172430879849
  7.4432609514885106  3.8232372440137308  4.6464464564779853
  6.1272379521935108  5.9103584640137310  5.3143693415239843
  7.4432609514885106 10.0846009040137314  4.6464464564779853
  8.3614173604375104  3.8232372440137308  1.3468775139279856
  9.6774403597325112  1.7361160140137317  0.6789546288819865
  8.3614173604375104 10.0846009040137314  1.3468775139279856
  9.6774403597325112  7.9974796840137312  0.6789546288819865
  8.6001373083305115  3.8232372440137308  6.9258651540989851
  9.9161603076255105  1.7361160140137317  6.2579422690529851
  8.6001373083305115 10.0846009040137314  6.9258651540989851
  9.9161603076255105  7.9974796840137312  6.2579422690529851
  8.6797106242945112  5.9103584640137310  5.4521943674889846
 11.1526099804315102  3.8232372440137308  7.0636901800629852
 10.9934633485025106  5.9103584640137310  0.0110317532829853
 11.1526099804315102 10.0846009040137314  7.0636901800629852
  7.7118608146925105  3.8232372440137308 13.6655208590139807
  8.0302234810835120  5.9103584640137310 12.2244508702319834
  7.7118608146925105 10.0846009040137314 13.6655208590139807
  9.4374080253105124  3.8232372440137308 11.7796260359299829
  9.1190453589185125  1.7361160140137317 13.2206960247129857
 10.8445925814585102  1.7361160140137317 11.3348011940219848
 10.2078672486755124  3.8232372440137308 14.2169411715859830
  9.4374080253105124 10.0846009040137314 11.7796260359299829
  9.1190453589185125  7.9974796840137312 13.2206960247129857
 10.5262299150675105  5.9103584640137310 12.7758711828039839
 10.8445925814585102  7.9974796840137312 11.3348011940219848
 10.2078672486755124 10.0846009040137314 14.2169411715859830
 11.9334144592935125  3.8232372440137308 12.3310463485029853
 11.6150517929025128  1.7361160140137317 13.7721163372849844
 13.3405990154425105  1.7361160140137317 11.8862215065939854
 12.7038736826595109  3.8232372440137308 14.7683614841589836
 11.2966891265115112  5.9103584640137310 15.2131863260669853
 11.9334144592935125 10.0846009040137314 12.3310463485029853
 11.6150517929025128  7.9974796840137312 13.7721163372849844
 13.0222363490505124  5.9103584640137310 13.3272914953759880
 13.3405990154425105  7.9974796840137312 11.8862215065939854
 12.7038736826595109 10.0846009040137314 14.7683614841589836
 12.2517771256855106  5.9103584640137310 10.8899763597199843
 13.4743328941035116  3.8232372440137308  7.2056766274219832
 13.4743328941035116 10.0846009040137314  7.2056766274219832
  5.8366054494255097  1.7361160140137317 12.4376418191669842
  5.5182427830345091  5.9103584640137310 13.8787118079489851
  5.8366054494255097  7.9974796840137312 12.4376418191669842
  6.9254273272605111  3.8232372440137308 13.4338869736479829
  6.9254273272605111 10.0846009040137314 13.4338869736479829
  7.1249676876315116  1.7361160140137317 10.5411296029179855
  7.0453943716665117  5.9103584640137310 12.0148003895269841
  7.1249676876315116  7.9974796840137312 10.5411296029179855
  5.9680913202645112  1.7361160140137317  8.2617109147439862
  7.2045410035955113  3.8232372440137308  9.0674588163079850
  5.8885180043005105  5.9103584640137310  9.7353817013539850
  5.9680913202645112  7.9974796840137312  8.2617109147439862
  7.2841143195595111  5.9103584640137310  7.5937880296979836
  7.2045410035955113 10.0846009040137314  9.0674588163079850
  7.4432609514885106  3.8232372440137308 14.6464464564779853
  6.1272379521935108  5.9103584640137310 15.3143693415239852
  7.4432609514885106 10.0846009040137314 14.6464464564779853
  8.3614173604375104  3.8232372440137308 11.3468775139279856
  9.6774403597325112  1.7361160140137317 10.6789546288819857
  8.3614173604375104 10.0846009040137314 11.3468775139279856
  9.6774403597325112  7.9974796840137312 10.6789546288819857
  8.5205639923655117  1.7361160140137317  8.3995359407079846
  9.7570136756965127  3.8232372440137308  9.2052838422719852
  8.4409906764015119  5.9103584640137310  9.8732067273179851
  8.5205639923655117  7.9974796840137312  8.3995359407079846
  9.8365869916605106  5.9103584640137310  7.7316130556629856
  9.7570136756965127 10.0846009040137314  9.2052838422719852
  8.6797106242945112  5.9103584640137310 15.4521943674889819
 11.0730366644665104  1.7361160140137317  8.5373609666729848
 12.3094863477975132  3.8232372440137308  9.3431088682369854
 10.9934633485025106  5.9103584640137310 10.0110317532829853
 11.0730366644665104  7.9974796840137312  8.5373609666729848
 12.3890596637615129  5.9103584640137310  7.8694380816269849
 12.3094863477975132 10.0846009040137314  9.3431088682369854
