Cu
 1.0000000000000000
    12.1452843513149134    0.0000000000000000    0.0000000000000000
     0.0000000000000000   16.7657101974858200    0.0000000000000000
     0.0000000000000000    0.0000000000000000   13.8502443174948180
 Cu 
 238
Cartesian
  0.0463542422728267 13.7150765671708985  7.6306488857393964
  0.0463542422728267  7.4537128971708917  7.6306488857393964
  0.3647169086648283  1.1923492171708929  6.1895788969573973
  0.6830795750558272  3.2794704471708904  4.7485089081743990
  0.6830795750558272 15.8021977871708899  4.7485089081743990
  1.0014422414478268 13.7150765671708985  3.3074389193923972
  0.3647169086648283 11.6279553371708921  6.1895788969573973
  0.6830795750558272  9.5408341171708919  4.7485089081743990
  1.0014422414478268  7.4537128971708917  3.3074389193923972
  0.3647169086648283  5.3665916771708915  6.1895788969573973
  1.3198049078388268  1.1923492171708929  1.8663689306103963
  1.3198049078388268 11.6279553371708921  1.8663689306103963
  1.3198049078388268  5.3665916771708915  1.8663689306103963
  2.5423606762568260 13.7150765671708985  8.1820691983113960
  2.5423606762568260  7.4537128971708917  8.1820691983113960
  2.0902641192828275  1.1923492171708929  4.3036840738733959
  2.8607233426478258  1.1923492171708929  6.7409992095293978
  1.4535387864998262  3.2794704471708904  7.1858240514383969
  1.4535387864998262 15.8021977871708899  7.1858240514383969
  2.0902641192828275 11.6279553371708921  4.3036840738733959
  1.7719014528908259 13.7150765671708985  5.7447540626553959
  2.8607233426478258 11.6279553371708921  6.7409992095293978
  1.4535387864998262  9.5408341171708919  7.1858240514383969
  2.0902641192828275  5.3665916771708915  4.3036840738733959
  1.7719014528908259  7.4537128971708917  5.7447540626553959
  2.8607233426478258  5.3665916771708915  6.7409992095293978
  2.4086267856738273  3.2794704471708904  2.8626140850913959
  2.4086267856738273 15.8021977871708899  2.8626140850913959
  2.7269894520658267 13.7150765671708985  1.4215440963093970
  2.4086267856738273  9.5408341171708919  2.8626140850913959
  2.7269894520658267  7.4537128971708917  1.4215440963093970
  2.3129115574998260  1.1923492171708929  0.3508512031413968
  2.3129115574998260 11.6279553371708921  0.3508512031413968
  2.3129115574998260  5.3665916771708915  0.3508512031413968
  1.2863525625728274 13.7150765671708985  0.0964034054353968
  1.2863525625728274  7.4537128971708917  0.0964034054353968
  1.0014422414478268 13.7150765671708985 13.3074389193923999
  1.0014422414478268  7.4537128971708917 13.3074389193923999
  1.3198049078388268  1.1923492171708929 11.8663689306103954
  1.3198049078388268 11.6279553371708921 11.8663689306103954
  1.3198049078388268  5.3665916771708915 11.8663689306103954
  1.1351761201088264  1.1923492171708929  8.6268940402203960
  1.1351761201088264 11.6279553371708921  8.6268940402203960
  1.1351761201088264  5.3665916771708915  8.6268940402203960
  2.4086267856738273  3.2794704471708904 12.8626140850913977
  2.4086267856738273 15.8021977871708899 12.8626140850913977
  2.7269894520658267 13.7150765671708985 11.4215440963093968
  2.4086267856738273  9.5408341171708919 12.8626140850913977
  2.7269894520658267  7.4537128971708917 11.4215440963093968
  2.3129115574998260  1.1923492171708929 10.3508512031413957
  2.3924848734638280  3.2794704471708904  8.8771804165323971
  2.3924848734638280 15.8021977871708899  8.8771804165323971
  2.3129115574998260 11.6279553371708921 10.3508512031413957
  2.3924848734638280  9.5408341171708919  8.8771804165323971
  2.3129115574998260  5.3665916771708915 10.3508512031413957
  0.0499028897668286  3.2794704471708904  9.2906554944253976
  0.0499028897668286 15.8021977871708899  9.2906554944253976
  0.0499028897668286  9.5408341171708919  9.2906554944253976
  1.2863525625728274 13.7150765671708985 10.0964034054353977
  1.2863525625728274  7.4537128971708917 10.0964034054353977
  5.3727040406978261  1.1923492171708929  5.0867382718123961
  5.6910667070888277  3.2794704471708904  3.6456682830303979
  5.6910667070888277 15.8021977871708899  3.6456682830303979
  5.3727040406978261 11.6279553371708921  5.0867382718123961
  5.6910667070888277  9.5408341171708919  3.6456682830303979
  5.3727040406978261  5.3665916771708915  5.0867382718123961
  7.0982512513158280  1.1923492171708929  3.2008434487283965
  7.8687104746808263  1.1923492171708929  5.6381585843844002
  8.1870731410728261  3.2794704471708904  4.1970885956023976
  7.0982512513158280 11.6279553371708921  3.2008434487283965
  6.7798885849238273 13.7150765671708985  4.6419134375113966
  8.1870731410728261 15.8021977871708899  4.1970885956023976
  8.5054358074638259 13.7150765671708985  2.7560186068203967
  7.8687104746808263 11.6279553371708921  5.6381585843844002
  7.0982512513158280  5.3665916771708915  3.2008434487283965
  6.7798885849238273  7.4537128971708917  4.6419134375113966
  8.1870731410728261  9.5408341171708919  4.1970885956023976
  8.5054358074638259  7.4537128971708917  2.7560186068203967
  7.8687104746808263  5.3665916771708915  5.6381585843844002
 10.0463542422728249 13.7150765671708985  7.6306488857393964
 10.0463542422728249  7.4537128971708917  7.6306488857393964
  9.5942576852988264  1.1923492171708929  3.7522637613013967
 10.3647169086648283  1.1923492171708929  6.1895788969573973
  8.9575323525168251  3.2794704471708904  6.6344037388653971
 10.6830795750558281  3.2794704471708904  4.7485089081743990
  8.9575323525168251 15.8021977871708899  6.6344037388653971
  9.5942576852988264 11.6279553371708921  3.7522637613013967
  9.2758950189078284 13.7150765671708985  5.1933337500833971
 10.6830795750558281 15.8021977871708899  4.7485089081743990
 11.0014422414478261 13.7150765671708985  3.3074389193923972
 10.3647169086648283 11.6279553371708921  6.1895788969573973
  8.9575323525168251  9.5408341171708919  6.6344037388653971
  9.5942576852988264  5.3665916771708915  3.7522637613013967
  9.2758950189078284  7.4537128971708917  5.1933337500833971
 10.6830795750558281  9.5408341171708919  4.7485089081743990
 11.0014422414478261  7.4537128971708917  3.3074389193923972
 10.3647169086648283  5.3665916771708915  6.1895788969573973
 11.3198049078388259  1.1923492171708929  1.8663689306103963
  9.9126203516908244  3.2794704471708904  2.3111937725183962
  9.9126203516908244 15.8021977871708899  2.3111937725183962
 11.3198049078388259 11.6279553371708921  1.8663689306103963
  9.9126203516908244  9.5408341171708919  2.3111937725183962
 11.3198049078388259  5.3665916771708915  1.8663689306103963
 12.0902641192828266  1.1923492171708929  4.3036840738733959
 11.4535387864998270  3.2794704471708904  7.1858240514383969
  3.1790860090398256  3.2794704471708904  5.2999292207473987
 11.4535387864998270 15.8021977871708899  7.1858240514383969
 12.0902641192828266 11.6279553371708921  4.3036840738733959
 11.7719014528908268 13.7150765671708985  5.7447540626553959
  3.1790860090398256 15.8021977871708899  5.2999292207473987
  3.4974486754308263 13.7150765671708985  3.8588592319653960
 11.4535387864998270  9.5408341171708919  7.1858240514383969
 12.0902641192828266  5.3665916771708915  4.3036840738733959
 11.7719014528908268  7.4537128971708917  5.7447540626553959
  3.1790860090398256  9.5408341171708919  5.2999292207473987
  3.4974486754308263  7.4537128971708917  3.8588592319653960
  4.5862705532658268  1.1923492171708929  4.8551043864463983
  4.5862705532658268 11.6279553371708921  4.8551043864463983
  4.5862705532658268  5.3665916771708915  4.8551043864463983
  4.7062375976718265  3.2794704471708904  3.4360178023253960
  4.7062375976718265 15.8021977871708899  3.4360178023253960
  4.7858109136368263 13.7150765671708985  1.9623470157163974
  4.7062375976718265  9.5408341171708919  3.4360178023253960
  4.7858109136368263  7.4537128971708917  1.9623470157163974
  3.7085078622348262  1.1923492171708929  8.2092575409323967
  4.8653842296008269  1.1923492171708929  0.4886762291063965
  3.5493612303058266  3.2794704471708904  1.1565991141523964
  3.5493612303058266 15.8021977871708899  1.1565991141523964
  3.7085078622348262 11.6279553371708921  8.2092575409323967
  5.0245308615298265 13.7150765671708985  7.5413346558863958
  4.8653842296008269 11.6279553371708921  0.4886762291063965
  3.5493612303058266  9.5408341171708919  1.1565991141523964
  3.7085078622348262  5.3665916771708915  8.2092575409323967
  5.0245308615298265  7.4537128971708917  7.5413346558863958
  4.8653842296008269  5.3665916771708915  0.4886762291063965
  5.1041041774938272  1.1923492171708929  6.0676638692763971
  3.7880811781988268  3.2794704471708904  6.7355867543223988
  3.7880811781988268 15.8021977871708899  6.7355867543223988
  5.1041041774938272 11.6279553371708921  6.0676638692763971
  3.7880811781988268  9.5408341171708919  6.7355867543223988
  5.1041041774938272  5.3665916771708915  6.0676638692763971
  6.0222605864428260  1.1923492171708929  2.7680949267263975
  6.0222605864428260 11.6279553371708921  2.7680949267263975
  7.3382835857378268 13.7150765671708985  2.1001720416803971
  6.0222605864428260  5.3665916771708915  2.7680949267263975
  7.3382835857378268  7.4537128971708917  2.1001720416803971
  6.2609805343358271  1.1923492171708929  8.3470825668973987
  7.4178569017018257  1.1923492171708929  0.6265012550703962
  6.1018339024068267  3.2794704471708904  1.2944241401163965
  6.1018339024068267 15.8021977871708899  1.2944241401163965
  6.2609805343358271 11.6279553371708921  8.3470825668973987
  7.5770035336308261 13.7150765671708985  7.6791596818513961
  7.4178569017018257 11.6279553371708921  0.6265012550703962
  6.1018339024068267  9.5408341171708919  1.2944241401163965
  6.2609805343358271  5.3665916771708915  8.3470825668973987
  7.5770035336308261  7.4537128971708917  7.6791596818513961
  7.4178569017018257  5.3665916771708915  0.6265012550703962
  6.3405538502998260  3.2794704471708904  6.8734117802873955
  6.3405538502998260 15.8021977871708899  6.8734117802873955
  6.3405538502998260  9.5408341171708919  6.8734117802873955
  8.8134532064368241  1.1923492171708929  8.4849075928613971
  9.9703295738028288  1.1923492171708929  0.7643262810353963
  8.6543065745078263  3.2794704471708904  1.4322491660813963
  8.6543065745078263 15.8021977871708899  1.4322491660813963
  8.8134532064368241 11.6279553371708921  8.4849075928613971
  9.9703295738028288 11.6279553371708921  0.7643262810353963
  8.6543065745078263  9.5408341171708919  1.4322491660813963
  8.8134532064368241  5.3665916771708915  8.4849075928613971
  9.9703295738028288  5.3665916771708915  0.7643262810353963
 11.2863525625728265 13.7150765671708985  0.0964034054353968
 11.2863525625728265  7.4537128971708917  0.0964034054353968
  5.6910667070888277  3.2794704471708904 13.6456682830303997
  5.6910667070888277 15.8021977871708899 13.6456682830303997
  5.6910667070888277  9.5408341171708919 13.6456682830303997
  7.0982512513158280  1.1923492171708929 13.2008434487283957
  7.0982512513158280 11.6279553371708921 13.2008434487283957
  8.5054358074638259 13.7150765671708985 12.7560186068204011
  7.0982512513158280  5.3665916771708915 13.2008434487283957
  8.5054358074638259  7.4537128971708917 12.7560186068204011
  9.5942576852988264  1.1923492171708929 13.7522637613013980
  9.5942576852988264 11.6279553371708921 13.7522637613013980
 11.0014422414478261 13.7150765671708985 13.3074389193923999
  9.5942576852988264  5.3665916771708915 13.7522637613013980
 11.0014422414478261  7.4537128971708917 13.3074389193923999
 11.3198049078388259  1.1923492171708929 11.8663689306103954
  9.9126203516908244  3.2794704471708904 12.3111937725183971
  9.9126203516908244 15.8021977871708899 12.3111937725183971
 11.3198049078388259 11.6279553371708921 11.8663689306103954
  9.9126203516908244  9.5408341171708919 12.3111937725183971
 11.3198049078388259  5.3665916771708915 11.8663689306103954
 11.1351761201088273  1.1923492171708929  8.6268940402203960
 11.1351761201088273 11.6279553371708921  8.6268940402203960
 11.1351761201088273  5.3665916771708915  8.6268940402203960
  4.7062375976718265  3.2794704471708904 13.4360178023253951
  4.7062375976718265 15.8021977871708899 13.4360178023253951
  4.7858109136368263 13.7150765671708985 11.9623470157163965
  4.7062375976718265  9.5408341171708919 13.4360178023253951
  4.7858109136368263  7.4537128971708917 11.9623470157163965
  4.8653842296008269  1.1923492171708929 10.4886762291063960
  3.5493612303058266  3.2794704471708904 11.1565991141523977
  4.9449575455648267  3.2794704471708904  9.0150054424963955
  3.5493612303058266 15.8021977871708899 11.1565991141523977
  3.6289345462698264 13.7150765671708985  9.6829283275423972
  4.9449575455648267 15.8021977871708899  9.0150054424963955
  4.8653842296008269 11.6279553371708921 10.4886762291063960
  3.5493612303058266  9.5408341171708919 11.1565991141523977
  3.6289345462698264  7.4537128971708917  9.6829283275423972
  4.9449575455648267  9.5408341171708919  9.0150054424963955
  4.8653842296008269  5.3665916771708915 10.4886762291063960
  6.0222605864428260  1.1923492171708929 12.7680949267264019
  6.0222605864428260 11.6279553371708921 12.7680949267264019
  7.3382835857378268 13.7150765671708985 12.1001720416804019
  6.0222605864428260  5.3665916771708915 12.7680949267264019
  7.3382835857378268  7.4537128971708917 12.1001720416804019
  7.4178569017018257  1.1923492171708929 10.6265012550704014
  6.1018339024068267  3.2794704471708904 11.2944241401164014
  7.4974302176658254  3.2794704471708904  9.1528304684613975
  6.1018339024068267 15.8021977871708899 11.2944241401164014
  6.1814072183708255 13.7150765671708985  9.8207533535063973
  7.4974302176658254 15.8021977871708899  9.1528304684613975
  7.4178569017018257 11.6279553371708921 10.6265012550704014
  6.1018339024068267  9.5408341171708919 11.2944241401164014
  6.1814072183708255  7.4537128971708917  9.8207533535063973
  7.4974302176658254  9.5408341171708919  9.1528304684613975
  7.4178569017018257  5.3665916771708915 10.6265012550704014
  9.9703295738028288  1.1923492171708929 10.7643262810353981
  8.6543065745078263  3.2794704471708904 11.4322491660813981
 10.0499028897668286  3.2794704471708904  9.2906554944253976
  8.6543065745078263 15.8021977871708899 11.4322491660813981
  8.7338798904718260 13.7150765671708985  9.9585783794713976
 10.0499028897668286 15.8021977871708899  9.2906554944253976
  9.9703295738028288 11.6279553371708921 10.7643262810353981
  8.6543065745078263  9.5408341171708919 11.4322491660813981
  8.7338798904718260  7.4537128971708917  9.9585783794713976
 10.0499028897668286  9.5408341171708919  9.2906554944253976
  9.9703295738028288  5.3665916771708915 10.7643262810353981
 11.2863525625728265 13.7150765671708985 10.0964034054353977
 11.2863525625728265  7.4537128971708917 10.0964034054353977
