Cu
 1.0000000000000000
    14.2448914890692464    0.0000000000000000    0.0000000000000000
     0.0000000000000000   14.6730403240123657    0.0000000000000000
     0.0000000000000000    0.0000000000000000   13.3839555615327512
 Cu 
 237
Cartesian
  0.3750152814911872 10.1418661317383574  0.7744716701045968
  0.0566526150991873 12.2289873617383549  2.2155416588875969
  1.7821998376391868 12.2289873617383549  0.3296468281965969
  1.1454745048561872 10.1418661317383574  3.2117868057605987
  0.3750152814911872  3.8805024617383563  0.7744716701045968
  0.0566526150991873  5.9676236917383605  2.2155416588875969
  1.4638371712481875  8.0547449117383536  1.7707168169785976
  1.7821998376391868  5.9676236917383605  0.3296468281965969
  1.1454745048561872  3.8805024617383563  3.2117868057605987
  1.4638371712481875  1.7933812417383561  1.7707168169785976
  3.3231182724481867 12.2289873617383549  5.2042771071155967
  3.3231182724481867  5.9676236917383605  5.2042771071155967
  2.8710217154741882 10.1418661317383574  1.3258919826775966
  2.5526590490831884 12.2289873617383549  2.7669619714595965
  4.2782062716231888 12.2289873617383549  0.8810671407685966
  3.6414809388401883 10.1418661317383574  3.7632071183335976
  2.2342963826921878  8.0547449117383536  4.2080319602415974
  2.8710217154741882  3.8805024617383563  1.3258919826775966
  2.5526590490831884  5.9676236917383605  2.7669619714595965
  3.9598436052311876  8.0547449117383536  2.3221371295505984
  4.2782062716231888  5.9676236917383605  0.8810671407685966
  3.6414809388401883  3.8805024617383563  3.7632071183335976
  2.2342963826921878  1.7933812417383561  4.2080319602415974
  3.9598436052311876  1.7933812417383561  2.3221371295505984
  5.8191247064321860 12.2289873617383549  5.7556974196875972
  5.8191247064321860  5.9676236917383605  5.7556974196875972
  5.3670281494581875 10.1418661317383574  1.8773122952495962
  5.0486654830661859 12.2289873617383549  3.3183822840315962
  6.1374873728231867 10.1418661317383574  4.3146274309055981
  4.7303028166751862  8.0547449117383536  4.7594522728145963
  5.3670281494581875  3.8805024617383563  1.8773122952495962
  5.0486654830661859  5.9676236917383605  3.3183822840315962
  6.1374873728231867  3.8805024617383563  4.3146274309055981
  4.7303028166751862  1.7933812417383561  4.7594522728145963
  5.6853908158491873  8.0547449117383536  0.4362423064675962
  5.6853908158491873  1.7933812417383561  0.4362423064675962
  0.8537675638061872 12.2289873617383549  5.2527879032275964
  0.8537675638061872  5.9676236917383605  5.2527879032275964
  2.0902172366121867 10.1418661317383574  6.0585358142375956
  2.0902172366121867  3.8805024617383563  6.0585358142375956
  0.3750152814911872 10.1418661317383574 10.7744716701045959
  0.0566526150991873 12.2289873617383549 12.2155416588875969
  1.7821998376391868 12.2289873617383549 10.3296468281965979
  1.1454745048561872 10.1418661317383574 13.2117868057605996
  0.3750152814911872  3.8805024617383563 10.7744716701045959
  0.0566526150991873  5.9676236917383605 12.2155416588875969
  1.4638371712481875  8.0547449117383536 11.7707168169785987
  1.7821998376391868  5.9676236917383605 10.3296468281965979
  1.1454745048561872  3.8805024617383563 13.2117868057605996
  1.4638371712481875  1.7933812417383561 11.7707168169785987
  2.8710217154741882 10.1418661317383574 11.3258919826775966
  2.5526590490831884 12.2289873617383549 12.7669619714595974
  4.2782062716231888 12.2289873617383549 10.8810671407685966
  2.8710217154741882  3.8805024617383563 11.3258919826775966
  2.5526590490831884  5.9676236917383605 12.7669619714595974
  3.9598436052311876  8.0547449117383536 12.3221371295505957
  4.2782062716231888  5.9676236917383605 10.8810671407685966
  3.9598436052311876  1.7933812417383561 12.3221371295505957
  4.5965689380141885 10.1418661317383574  9.4399971519865957
  3.1893843818661871  8.0547449117383536  9.8848219938945974
  4.5965689380141885  3.8805024617383563  9.4399971519865957
  3.1893843818661871  1.7933812417383561  9.8848219938945974
  4.4119401502841864 10.1418661317383574  6.2005222615965963
  4.4119401502841864  3.8805024617383563  6.2005222615965963
  5.3670281494581875 10.1418661317383574 11.8773122952495953
  5.0486654830661859 12.2289873617383549 13.3183822840315962
  5.3670281494581875  3.8805024617383563 11.8773122952495953
  5.0486654830661859  5.9676236917383605 13.3183822840315962
  6.0037534822411871 12.2289873617383549  8.9951723176855971
  5.6853908158491873  8.0547449117383536 10.4362423064675962
  6.0037534822411871  5.9676236917383605  8.9951723176855971
  5.6853908158491873  1.7933812417383561 10.4362423064675962
  5.5896755876751865 10.1418661317383574  7.9244794245175969
  5.6692489036391898  8.0547449117383536  6.4508086379085965
  5.5896755876751865  3.8805024617383563  7.9244794245175969
  5.6692489036391898  1.7933812417383561  6.4508086379085965
  0.6150476159131870 12.2289873617383549  9.6738002630565969
  0.6150476159131870  5.9676236917383605  9.6738002630565969
  0.6946209318771874 10.1418661317383574  8.2001294764465964
  0.7741942478411863  8.0547449117383536  6.7264586898375969
  0.6946209318771874  3.8805024617383563  8.2001294764465964
  0.7741942478411863  1.7933812417383561  6.7264586898375969
  2.0106439206471869 12.2289873617383549  7.5322066008475970
  3.2470936039781892 10.1418661317383574  8.3379545024115966
  1.9310706046831865  8.0547449117383536  9.0058773874575966
  2.0106439206471869  5.9676236917383605  7.5322066008475970
  3.3266669199421894  8.0547449117383536  6.8642837158015961
  3.2470936039781892  3.8805024617383563  8.3379545024115966
  1.9310706046831865  1.7933812417383561  9.0058773874575966
  3.3266669199421894  1.7933812417383561  6.8642837158015961
  4.5631165927481883 12.2289873617383549  7.6700316268115971
  4.5631165927481883  5.9676236917383605  7.6700316268115971
  1.4638371712481875 14.3161085817383587  1.7707168169785976
  2.2342963826921878 14.3161085817383587  4.2080319602415974
  3.9598436052311876 14.3161085817383587  2.3221371295505984
  4.7303028166751862 14.3161085817383587  4.7594522728145963
  5.6853908158491873 14.3161085817383587  0.4362423064675962
  1.4638371712481875 14.3161085817383587 11.7707168169785987
  3.9598436052311876 14.3161085817383587 12.3221371295505957
  3.1893843818661871 14.3161085817383587  9.8848219938945974
  5.6853908158491873 14.3161085817383587 10.4362423064675962
  5.6692489036391898 14.3161085817383587  6.4508086379085965
  0.7741942478411863 14.3161085817383587  6.7264586898375969
  1.9310706046831865 14.3161085817383587  9.0058773874575966
  3.3266669199421894 14.3161085817383587  6.8642837158015961
  8.6494680708731906 10.1418661317383574  2.6603664931885964
  8.9678307372641868  8.0547449117383536  1.2192965044065982
  8.6494680708731906  3.8805024617383563  2.6603664931885964
  8.9678307372641868  1.7933812417383561  1.2192965044065982
 10.3750152814911871 10.1418661317383574  0.7744716701045968
 10.0566526150991873 12.2289873617383549  2.2155416588875969
 11.7821998376391903 12.2289873617383549  0.3296468281965969
 11.1454745048561872 10.1418661317383574  3.2117868057605987
 10.3750152814911871  3.8805024617383563  0.7744716701045968
 10.0566526150991873  5.9676236917383605  2.2155416588875969
 11.4638371712481870  8.0547449117383536  1.7707168169785976
 11.7821998376391903  5.9676236917383605  0.3296468281965969
 11.1454745048561872  3.8805024617383563  3.2117868057605987
 11.4638371712481870  1.7933812417383561  1.7707168169785976
 13.3231182724481876 12.2289873617383549  5.2042771071155967
 13.3231182724481876  5.9676236917383605  5.2042771071155967
 12.8710217154741891 10.1418661317383574  1.3258919826775966
 12.5526590490831929 12.2289873617383549  2.7669619714595965
 13.6414809388401892 10.1418661317383574  3.7632071183335976
 12.2342963826921896  8.0547449117383536  4.2080319602415974
 12.8710217154741891  3.8805024617383563  1.3258919826775966
 12.5526590490831929  5.9676236917383605  2.7669619714595965
 13.9598436052311907  8.0547449117383536  2.3221371295505984
 13.6414809388401892  3.8805024617383563  3.7632071183335976
 12.2342963826921896  1.7933812417383561  4.2080319602415974
 13.9598436052311907  1.7933812417383561  2.3221371295505984
  6.7742127056061889 12.2289873617383549  1.4324874533415963
  6.4558500392151883  8.0547449117383536  2.8735574421235972
  6.7742127056061889  5.9676236917383605  1.4324874533415963
  6.4558500392151883  1.7933812417383561  2.8735574421235972
  7.8630345834411877 10.1418661317383574  2.4287326078225986
  7.8630345834411877  3.8805024617383563  2.4287326078225986
  7.9830016278471874  8.0547449117383536  1.0096460237015963
  7.9830016278471874  1.7933812417383561  1.0096460237015963
  6.9852718924101884 10.1418661317383574  5.7828857623085961
  8.3012948917051865 12.2289873617383549  5.1149628772625961
  6.9852718924101884  3.8805024617383563  5.7828857623085961
  8.3012948917051865  5.9676236917383605  5.1149628772625961
  8.3808682076691863 10.1418661317383574  3.6412920906525965
  7.0648452083741882  8.0547449117383536  4.3092149756985973
  8.3808682076691863  3.8805024617383563  3.6412920906525965
  7.0648452083741882  1.7933812417383561  4.3092149756985973
  9.2990246166181869 10.1418661317383574  0.3417231481025969
  9.2990246166181869  3.8805024617383563  0.3417231481025969
  9.5377445645111862 10.1418661317383574  5.9207107882735981
 10.8537675638061870 12.2289873617383549  5.2527879032275964
  9.5377445645111862  3.8805024617383563  5.9207107882735981
 10.8537675638061870  5.9676236917383605  5.2527879032275964
  9.6173178804751895  8.0547449117383536  4.4470400016635958
  9.6173178804751895  1.7933812417383561  4.4470400016635958
 12.0902172366121903 10.1418661317383574  6.0585358142375956
 12.0902172366121903  3.8805024617383563  6.0585358142375956
  8.6494680708731906 10.1418661317383574 12.6603664931885973
  8.9678307372641868  8.0547449117383536 11.2192965044065982
  8.6494680708731906  3.8805024617383563 12.6603664931885973
  8.9678307372641868  1.7933812417383561 11.2192965044065982
 10.3750152814911871 10.1418661317383574 10.7744716701045959
 10.0566526150991873 12.2289873617383549 12.2155416588875969
 11.7821998376391903 12.2289873617383549 10.3296468281965979
 11.1454745048561872 10.1418661317383574 13.2117868057605996
 10.3750152814911871  3.8805024617383563 10.7744716701045959
 10.0566526150991873  5.9676236917383605 12.2155416588875969
 11.4638371712481870  8.0547449117383536 11.7707168169785987
 11.7821998376391903  5.9676236917383605 10.3296468281965979
 11.1454745048561872  3.8805024617383563 13.2117868057605996
 11.4638371712481870  1.7933812417383561 11.7707168169785987
 12.8710217154741891 10.1418661317383574 11.3258919826775966
 12.5526590490831929 12.2289873617383549 12.7669619714595974
 12.8710217154741891  3.8805024617383563 11.3258919826775966
 12.5526590490831929  5.9676236917383605 12.7669619714595974
 13.9598436052311907  8.0547449117383536 12.3221371295505957
 13.9598436052311907  1.7933812417383561 12.3221371295505957
 13.1893843818661907  8.0547449117383536  9.8848219938945974
 13.1893843818661907  1.7933812417383561  9.8848219938945974
  6.7742127056061889 12.2289873617383549 11.4324874533415972
  6.4558500392151883  8.0547449117383536 12.8735574421235981
  6.7742127056061889  5.9676236917383605 11.4324874533415972
  6.4558500392151883  1.7933812417383561 12.8735574421235981
  7.8630345834411877 10.1418661317383574 12.4287326078225995
  7.8630345834411877  3.8805024617383563 12.4287326078225995
  8.0625749438121872 12.2289873617383549  9.5359752370925968
  7.9830016278471874  8.0547449117383536 11.0096460237015954
  8.0625749438121872  5.9676236917383605  9.5359752370925968
  7.9830016278471874  1.7933812417383561 11.0096460237015954
  6.9056985764451868 12.2289873617383549  7.2565565489185957
  8.1421482597761905 10.1418661317383574  8.0623044504825963
  6.8261252604811871  8.0547449117383536  8.7302273355285944
  6.9056985764451868  5.9676236917383605  7.2565565489185957
  8.2217215757401867  8.0547449117383536  6.5886336638725966
  8.1421482597761905  3.8805024617383563  8.0623044504825963
  6.8261252604811871  1.7933812417383561  8.7302273355285944
  8.2217215757401867  1.7933812417383561  6.5886336638725966
  9.2990246166181869 10.1418661317383574 10.3417231481025969
 10.6150476159131912 12.2289873617383549  9.6738002630565969
  9.2990246166181869  3.8805024617383563 10.3417231481025969
 10.6150476159131912  5.9676236917383605  9.6738002630565969
  9.4581712485461864 12.2289873617383549  7.3943815748825967
 10.6946209318771874 10.1418661317383574  8.2001294764465964
  9.3785979325821867  8.0547449117383536  8.8680523614925963
  9.4581712485461864  5.9676236917383605  7.3943815748825967
 10.7741942478411907  8.0547449117383536  6.7264586898375969
 10.6946209318771874  3.8805024617383563  8.2001294764465964
  9.3785979325821867  1.7933812417383561  8.8680523614925963
 10.7741942478411907  1.7933812417383561  6.7264586898375969
 12.0106439206471904 12.2289873617383549  7.5322066008475970
 13.2470936039781932 10.1418661317383574  8.3379545024115966
 11.9310706046831854  8.0547449117383536  9.0058773874575966
 12.0106439206471904  5.9676236917383605  7.5322066008475970
 13.3266669199421912  8.0547449117383536  6.8642837158015961
 13.2470936039781932  3.8805024617383563  8.3379545024115966
 11.9310706046831854  1.7933812417383561  9.0058773874575966
 13.3266669199421912  1.7933812417383561  6.8642837158015961
  8.9678307372641868 14.3161085817383587  1.2192965044065982
 11.4638371712481870 14.3161085817383587  1.7707168169785976
 12.2342963826921896 14.3161085817383587  4.2080319602415974
 13.9598436052311907 14.3161085817383587  2.3221371295505984
  6.4558500392151883 14.3161085817383587  2.8735574421235972
  7.9830016278471874 14.3161085817383587  1.0096460237015963
  7.0648452083741882 14.3161085817383587  4.3092149756985973
  9.6173178804751895 14.3161085817383587  4.4470400016635958
  8.9678307372641868 14.3161085817383587 11.2192965044065982
 11.4638371712481870 14.3161085817383587 11.7707168169785987
 13.9598436052311907 14.3161085817383587 12.3221371295505957
 13.1893843818661907 14.3161085817383587  9.8848219938945974
  6.4558500392151883 14.3161085817383587 12.8735574421235981
  7.9830016278471874 14.3161085817383587 11.0096460237015954
  6.8261252604811871 14.3161085817383587  8.7302273355285944
  8.2217215757401867 14.3161085817383587  6.5886336638725966
  9.3785979325821867 14.3161085817383587  8.8680523614925963
 10.7741942478411907 14.3161085817383587  6.7264586898375969
 11.9310706046831854 14.3161085817383587  9.0058773874575966
 13.3266669199421912 14.3161085817383587  6.8642837158015961
