Cu
 1.0000000000000000
    13.6142568857524431    0.0000000000000000    0.0000000000000000
     0.0000000000000000   12.9993894344451455    0.0000000000000000
     0.0000000000000000    0.0000000000000000   16.0362479215438931
 Cu 
 240
Cartesian
  2.0735344001578500  9.4558015152847403  4.1406788467922819
  2.3918970665488506  7.3686802952847392  2.6996088580102837
  2.0735344001578500  3.1944378452847424  4.1406788467922819
  2.3918970665488506  1.1073166252847422  2.6996088580102837
  3.7990816107758505  9.4558015152847403  2.2547840237082823
  3.4807189443838511 11.5429227452847414  3.6958540124912824
  5.2062661669238501 11.5429227452847414  1.8099591818002825
  4.5695408341408505  9.4558015152847403  4.6920991593642842
  3.7990816107758505  3.1944378452847424  2.2547840237082823
  3.4807189443838511  5.2815590752847470  3.6958540124912824
  4.8879035005328504  7.3686802952847392  3.2510291705822834
  5.2062661669238501  5.2815590752847470  1.8099591818002825
  4.5695408341408505  3.1944378452847424  4.6920991593642842
  4.8879035005328504  1.1073166252847422  3.2510291705822834
  6.7471846017328501 11.5429227452847414  6.6845894607192822
  6.7471846017328501  5.2815590752847470  6.6845894607192822
  6.2950880447588515  9.4558015152847403  2.8062043362812821
  5.9767253783678518 11.5429227452847414  4.2472743250632821
  7.7022726009078504 11.5429227452847414  2.3613794943722821
  7.0655472681248517  9.4558015152847403  5.2435194719372831
  5.6583627119768503  7.3686802952847392  5.6883443138452829
  6.2950880447588515  3.1944378452847424  2.8062043362812821
  5.9767253783678518  5.2815590752847470  4.2472743250632821
  7.3839099345158505  7.3686802952847392  3.8024494831542848
  7.7022726009078504  5.2815590752847470  2.3613794943722821
  7.0655472681248517  3.1944378452847424  5.2435194719372831
  5.6583627119768503  1.1073166252847422  5.6883443138452829
  7.3839099345158505  1.1073166252847422  3.8024494831542848
  8.0206352672988501  9.4558015152847403  0.9203095055902821
  6.6134507111508496  7.3686802952847392  1.3651343474982820
  8.0206352672988501  3.1944378452847424  0.9203095055902821
  6.6134507111508496  1.1073166252847422  1.3651343474982820
  9.2431910357168494 11.5429227452847414  7.2360097732912827
  9.2431910357168494  5.2815590752847470  7.2360097732912827
  8.7910944787428509  9.4558015152847403  3.3576246488532817
  8.4727318123508493 11.5429227452847414  4.7986946376352817
  0.1982790348908501 11.5429227452847414  2.9127998069452818
  9.5615537021078492  9.4558015152847403  5.7949397845092854
  8.1543691459598477  7.3686802952847392  6.2397646264182818
  8.7910944787428509  3.1944378452847424  3.3576246488532817
  8.4727318123508493  5.2815590752847470  4.7986946376352817
  0.1982790348908501  5.2815590752847470  2.9127998069452818
  9.5615537021078492  3.1944378452847424  5.7949397845092854
  8.1543691459598477  1.1073166252847422  6.2397646264182818
  9.4278198115258505 11.5429227452847414  0.4754846712892826
  9.1094571451338506  7.3686802952847392  1.9165546600712817
  9.4278198115258505  5.2815590752847470  0.4754846712892826
  9.1094571451338506  1.1073166252847422  1.9165546600712817
  1.2871009127258501  9.4558015152847403  3.9090449614262841
  1.2871009127258501  3.1944378452847424  3.9090449614262841
  1.4866412730968501 11.5429227452847414  1.0162875906962832
  1.4070679571318503  7.3686802952847392  2.4899583773052818
  1.4866412730968501  5.2815590752847470  1.0162875906962832
  1.4070679571318503  1.1073166252847422  2.4899583773052818
  0.4093382216948499  9.4558015152847403  7.2631981159122816
  1.7253612209898501 11.5429227452847414  6.5952752308662816
  0.2501915897658500  7.3686802952847392  0.2105396891322826
  0.4093382216948499  3.1944378452847424  7.2631981159122816
  1.7253612209898501  5.2815590752847470  6.5952752308662816
  0.2501915897658500  1.1073166252847422  0.2105396891322826
  1.8049345369538501  9.4558015152847403  5.1216044442562820
  0.4889115376588500  7.3686802952847392  5.7895273293022829
  1.8049345369538501  3.1944378452847424  5.1216044442562820
  0.4889115376588500  1.1073166252847422  5.7895273293022829
  2.7230909459028498  9.4558015152847403  1.8220355017062824
  4.0391139451978502 11.5429227452847414  1.1541126166602833
  2.7230909459028498  3.1944378452847424  1.8220355017062824
  4.0391139451978502  5.2815590752847470  1.1541126166602833
  2.9618108937958496  9.4558015152847403  7.4010231418772836
  4.2778338930908495 11.5429227452847414  6.7331002568312819
  2.8026642618668500  7.3686802952847392  0.3483647150962828
  2.9618108937958496  3.1944378452847424  7.4010231418772836
  4.2778338930908495  5.2815590752847470  6.7331002568312819
  2.8026642618668500  1.1073166252847422  0.3483647150962828
  3.0413842097598502  7.3686802952847392  5.9273523552672813
  3.0413842097598502  1.1073166252847422  5.9273523552672813
  5.5142835658968483  9.4558015152847403  7.5388481678412820
  5.3551369339678496  7.3686802952847392  0.4861897410612822
  5.5142835658968483  3.1944378452847424  7.5388481678412820
  5.3551369339678496  1.1073166252847422  0.4861897410612822
  2.0735344001578500  9.4558015152847403 14.1406788467922819
  2.3918970665488506  7.3686802952847392 12.6996088580102828
  2.0735344001578500  3.1944378452847424 14.1406788467922819
  2.3918970665488506  1.1073166252847422 12.6996088580102828
  3.7990816107758505  9.4558015152847403 12.2547840237082859
  3.4807189443838511 11.5429227452847414 13.6958540124912851
  5.2062661669238501 11.5429227452847414 11.8099591818002825
  4.5695408341408505  9.4558015152847403 14.6920991593642842
  3.7990816107758505  3.1944378452847424 12.2547840237082859
  3.4807189443838511  5.2815590752847470 13.6958540124912851
  4.8879035005328504  7.3686802952847392 13.2510291705822834
  5.2062661669238501  5.2815590752847470 11.8099591818002825
  4.5695408341408505  3.1944378452847424 14.6920991593642842
  4.8879035005328504  1.1073166252847422 13.2510291705822834
  6.2950880447588515  9.4558015152847403 12.8062043362812830
  5.9767253783678518 11.5429227452847414 14.2472743250632821
  7.7022726009078504 11.5429227452847414 12.3613794943722830
  7.0655472681248517  9.4558015152847403 15.2435194719372831
  5.6583627119768503  7.3686802952847392 15.6883443138452829
  6.2950880447588515  3.1944378452847424 12.8062043362812830
  5.9767253783678518  5.2815590752847470 14.2472743250632821
  7.3839099345158505  7.3686802952847392 13.8024494831542839
  7.7022726009078504  5.2815590752847470 12.3613794943722830
  7.0655472681248517  3.1944378452847424 15.2435194719372831
  5.6583627119768503  1.1073166252847422 15.6883443138452829
  7.3839099345158505  1.1073166252847422 13.8024494831542839
  8.0206352672988501  9.4558015152847403 10.9203095055902821
  6.6134507111508496  7.3686802952847392 11.3651343474982820
  8.0206352672988501  3.1944378452847424 10.9203095055902821
  6.6134507111508496  1.1073166252847422 11.3651343474982820
  7.8360064795688498  9.4558015152847403  7.6808346152002818
  7.8360064795688498  3.1944378452847424  7.6808346152002818
  8.7910944787428509  9.4558015152847403 13.3576246488532817
  8.4727318123508493 11.5429227452847414 14.7986946376352826
  0.1982790348908501 11.5429227452847414 12.9127998069452818
  9.5615537021078492  9.4558015152847403 15.7949397845092872
  8.7910944787428509  3.1944378452847424 13.3576246488532817
  8.4727318123508493  5.2815590752847470 14.7986946376352826
  0.1982790348908501  5.2815590752847470 12.9127998069452818
  9.5615537021078492  3.1944378452847424 15.7949397845092872
  9.4278198115258505 11.5429227452847414 10.4754846712892835
  9.1094571451338506  7.3686802952847392 11.9165546600712808
  9.4278198115258505  5.2815590752847470 10.4754846712892835
  9.1094571451338506  1.1073166252847422 11.9165546600712808
  1.2871009127258501  9.4558015152847403 13.9090449614262841
  1.2871009127258501  3.1944378452847424 13.9090449614262841
  9.0137419169598498  9.4558015152847403  9.4047917781212824
  9.0933152329238514  7.3686802952847392  7.9311209915122820
  9.0137419169598498  3.1944378452847424  9.4047917781212824
  9.0933152329238514  1.1073166252847422  7.9311209915122820
  1.4866412730968501 11.5429227452847414 11.0162875906962832
  1.4070679571318503  7.3686802952847392 12.4899583773052818
  1.4866412730968501  5.2815590752847470 11.0162875906962832
  1.4070679571318503  1.1073166252847422 12.4899583773052818
  0.3297649057298501 11.5429227452847414  8.7368689025222821
  1.5662145890608501  9.4558015152847403  9.5426168040862827
  0.2501915897658500  7.3686802952847392 10.2105396891322826
  0.3297649057298501  5.2815590752847470  8.7368689025222821
  1.6457879050248498  7.3686802952847392  8.0689460174762822
  1.5662145890608501  3.1944378452847424  9.5426168040862827
  0.2501915897658500  1.1073166252847422 10.2105396891322826
  1.6457879050248498  1.1073166252847422  8.0689460174762822
  1.8049345369538501  9.4558015152847403 15.1216044442562811
  0.4889115376588500  7.3686802952847392 15.7895273293022829
  1.8049345369538501  3.1944378452847424 15.1216044442562811
  0.4889115376588500  1.1073166252847422 15.7895273293022829
  2.7230909459028498  9.4558015152847403 11.8220355017062815
  4.0391139451978502 11.5429227452847414 11.1541126166602833
  2.7230909459028498  3.1944378452847424 11.8220355017062815
  4.0391139451978502  5.2815590752847470 11.1541126166602833
  2.8822375778308502 11.5429227452847414  8.8746939284862822
  4.1186872611618508  9.4558015152847403  9.6804418300502810
  2.8026642618668500  7.3686802952847392 10.3483647150962828
  2.8822375778308502  5.2815590752847470  8.8746939284862822
  4.1982605771258479  7.3686802952847392  8.2067710434412824
  4.1186872611618508  3.1944378452847424  9.6804418300502810
  2.8026642618668500  1.1073166252847422 10.3483647150962828
  4.1982605771258479  1.1073166252847422  8.2067710434412824
  3.0413842097598502  7.3686802952847392 15.9273523552672813
  3.0413842097598502  1.1073166252847422 15.9273523552672813
  5.4347102499318503 11.5429227452847414  9.0125189544512825
  6.6711599332628504  9.4558015152847403  9.8182668560152813
  5.3551369339678496  7.3686802952847392 10.4861897410612812
  5.4347102499318503  5.2815590752847470  9.0125189544512825
  6.7507332492268519  7.3686802952847392  8.3445960694052825
  6.6711599332628504  3.1944378452847424  9.8182668560152813
  5.3551369339678496  1.1073166252847422 10.4861897410612812
  6.7507332492268519  1.1073166252847422  8.3445960694052825
  7.9871829220328499 11.5429227452847414  9.1503439804152826
  7.9871829220328499  5.2815590752847470  9.1503439804152826
 12.0735344001578504  9.4558015152847403  4.1406788467922819
 12.3918970665488484  7.3686802952847392  2.6996088580102837
 12.0735344001578504  3.1944378452847424  4.1406788467922819
 12.3918970665488484  1.1073166252847422  2.6996088580102837
 13.4807189443838507 11.5429227452847414  3.6958540124912824
 13.4807189443838507  5.2815590752847470  3.6958540124912824
 10.1982790348908505 11.5429227452847414  2.9127998069452818
  9.8799163684998472  7.3686802952847392  4.3538697957272827
 10.1982790348908505  5.2815590752847470  2.9127998069452818
  9.8799163684998472  1.1073166252847422  4.3538697957272827
 11.2871009127258493  9.4558015152847403  3.9090449614262841
 11.2871009127258493  3.1944378452847424  3.9090449614262841
 11.4866412730968506 11.5429227452847414  1.0162875906962832
 11.4070679571318507  7.3686802952847392  2.4899583773052818
 11.4866412730968506  5.2815590752847470  1.0162875906962832
 11.4070679571318507  1.1073166252847422  2.4899583773052818
 10.4093382216948509  9.4558015152847403  7.2631981159122816
 11.7253612209898499 11.5429227452847414  6.5952752308662816
 10.2501915897658478  7.3686802952847392  0.2105396891322826
 10.4093382216948509  3.1944378452847424  7.2631981159122816
 11.7253612209898499  5.2815590752847470  6.5952752308662816
 10.2501915897658478  1.1073166252847422  0.2105396891322826
 11.8049345369538496  9.4558015152847403  5.1216044442562820
 10.4889115376588506  7.3686802952847392  5.7895273293022829
 11.8049345369538496  3.1944378452847424  5.1216044442562820
 10.4889115376588506  1.1073166252847422  5.7895273293022829
 12.7230909459028503  9.4558015152847403  1.8220355017062824
 12.7230909459028503  3.1944378452847424  1.8220355017062824
 12.9618108937958514  9.4558015152847403  7.4010231418772836
 12.8026642618668500  7.3686802952847392  0.3483647150962828
 12.9618108937958514  3.1944378452847424  7.4010231418772836
 12.8026642618668500  1.1073166252847422  0.3483647150962828
 13.0413842097598494  7.3686802952847392  5.9273523552672813
 13.0413842097598494  1.1073166252847422  5.9273523552672813
 12.0735344001578504  9.4558015152847403 14.1406788467922819
 12.3918970665488484  7.3686802952847392 12.6996088580102828
 12.0735344001578504  3.1944378452847424 14.1406788467922819
 12.3918970665488484  1.1073166252847422 12.6996088580102828
 13.4807189443838507 11.5429227452847414 13.6958540124912851
 13.4807189443838507  5.2815590752847470 13.6958540124912851
 10.1982790348908505 11.5429227452847414 12.9127998069452818
  9.8799163684998472  7.3686802952847392 14.3538697957272827
 10.1982790348908505  5.2815590752847470 12.9127998069452818
  9.8799163684998472  1.1073166252847422 14.3538697957272827
 11.2871009127258493  9.4558015152847403 13.9090449614262841
 11.2871009127258493  3.1944378452847424 13.9090449614262841
 11.4866412730968506 11.5429227452847414 11.0162875906962832
 11.4070679571318507  7.3686802952847392 12.4899583773052818
 11.4866412730968506  5.2815590752847470 11.0162875906962832
 11.4070679571318507  1.1073166252847422 12.4899583773052818
 10.3297649057298457 11.5429227452847414  8.7368689025222821
 11.5662145890608503  9.4558015152847403  9.5426168040862827
 10.2501915897658478  7.3686802952847392 10.2105396891322826
 10.3297649057298457  5.2815590752847470  8.7368689025222821
 11.6457879050248501  7.3686802952847392  8.0689460174762822
 11.5662145890608503  3.1944378452847424  9.5426168040862827
 10.2501915897658478  1.1073166252847422 10.2105396891322826
 11.6457879050248501  1.1073166252847422  8.0689460174762822
 11.8049345369538496  9.4558015152847403 15.1216044442562811
 10.4889115376588506  7.3686802952847392 15.7895273293022829
 11.8049345369538496  3.1944378452847424 15.1216044442562811
 10.4889115376588506  1.1073166252847422 15.7895273293022829
 12.7230909459028503  9.4558015152847403 11.8220355017062815
 12.7230909459028503  3.1944378452847424 11.8220355017062815
 12.8822375778308498 11.5429227452847414  8.8746939284862822
 12.8026642618668500  7.3686802952847392 10.3483647150962828
 12.8822375778308498  5.2815590752847470  8.8746939284862822
 12.8026642618668500  1.1073166252847422 10.3483647150962828
 13.0413842097598494  7.3686802952847392 15.9273523552672813
 13.0413842097598494  1.1073166252847422 15.9273523552672813
