Cu
 1.0000000000000000
    18.3847794865466625    0.0000000000000000    0.0000000000000000
     0.0000000000000000   12.7988998172858359    0.0000000000000000
     0.0000000000000000    0.0000000000000000   13.6351789366514335
 Cu 
 266
Cartesian
  0.3938525722935804  6.8763169573853027  4.6859319566064324
  0.7122152386845801  4.7891957373853025  3.2448619678244350
  0.3938525722935804  0.6149532873853049  4.6859319566064324
  2.1193997829115805  6.8763169573853027  2.8000371335224341
  1.8010371165195806  8.9634381873853037  4.2411071223054346
  3.5265843390595810  8.9634381873853037  2.3552122916144347
  2.8898590062765805  6.8763169573853027  5.2373522691784364
  2.1193997829115805  0.6149532873853049  2.8000371335224341
  1.8010371165195806  2.7020745173853093  4.2411071223054346
  3.2082216726685808  4.7891957373853025  3.7962822803964356
  3.5265843390595810  2.7020745173853093  2.3552122916144347
  2.8898590062765805  0.6149532873853049  5.2373522691784364
  5.0675027738685818  8.9634381873853037  7.2298425705334335
  5.0675027738685818  2.7020745173853093  7.2298425705334335
  4.6154062168945815  6.8763169573853027  3.3514574460954334
  4.2970435505035818  8.9634381873853037  4.7925274348774343
  6.0225907730435804  8.9634381873853037  2.9066326041864334
  5.3858654402605817  6.8763169573853027  5.7887725817514353
  3.9786808841125803  4.7891957373853025  6.2335974236594351
  4.6154062168945815  0.6149532873853049  3.3514574460954334
  4.2970435505035818  2.7020745173853093  4.7925274348774343
  5.7042281066515823  4.7891957373853025  4.3477025929684361
  6.0225907730435804  2.7020745173853093  2.9066326041864334
  5.3858654402605817  0.6149532873853049  5.7887725817514353
  6.3409534394345801  6.8763169573853027  1.4655626154044343
  4.9337688832865814  4.7891957373853025  1.9103874573124342
  6.3409534394345801  0.6149532873853049  1.4655626154044343
  7.5635092078525812  8.9634381873853037  7.7812628831054340
  7.5635092078525812  2.7020745173853093  7.7812628831054340
  7.1114126508785809  6.8763169573853027  3.9028777586674339
  6.7930499844865802  8.9634381873853037  5.3439477474494339
  7.8818718742435792  6.8763169573853027  6.3401928943234358
  6.4746873180955795  4.7891957373853025  6.7850177362324340
  7.1114126508785809  0.6149532873853049  3.9028777586674339
  6.7930499844865802  2.7020745173853093  5.3439477474494339
  7.8818718742435792  0.6149532873853049  6.3401928943234358
  7.7481379836615805  8.9634381873853037  1.0207377811034348
  7.4297753172695806  4.7891957373853025  2.4618077698854339
  7.7481379836615805  2.7020745173853093  1.0207377811034348
  0.0456793931255799  8.9634381873853037  7.1405283406804338
  0.0456793931255799  2.7020745173853093  7.1405283406804338
  0.1252527090895796  6.8763169573853027  5.6668575540704342
  0.1252527090895796  0.6149532873853049  5.6668575540704342
  1.0434091180385803  6.8763169573853027  2.3672886115204346
  2.3594321173335810  8.9634381873853037  1.6993657264744346
  1.0434091180385803  0.6149532873853049  2.3672886115204346
  2.3594321173335810  2.7020745173853093  1.6993657264744346
  1.2821290659315809  6.8763169573853027  7.9462762516914349
  2.5981520652265813  8.9634381873853037  7.2783533666454341
  2.4390054332975808  6.8763169573853027  0.2256949398644341
  1.1229824340025800  4.7891957373853025  0.8936178249104344
  1.2821290659315809  0.6149532873853049  7.9462762516914349
  2.5981520652265813  2.7020745173853093  7.2783533666454341
  2.4390054332975808  0.6149532873853049  0.2256949398644341
  1.3617023818955807  4.7891957373853025  6.4726054650814335
  3.8346017380325801  6.8763169573853027  8.0841012776554351
  4.9914781053985822  6.8763169573853027  0.3635199658294344
  3.6754551061035796  4.7891957373853025  1.0314428508754343
  3.8346017380325801  0.6149532873853049  8.0841012776554351
  4.9914781053985822  0.6149532873853049  0.3635199658294344
  0.7122152386845801  4.7891957373853025 13.2448619678244377
  2.1193997829115805  6.8763169573853027 12.8000371335224337
  3.5265843390595810  8.9634381873853037 12.3552122916144356
  2.1193997829115805  0.6149532873853049 12.8000371335224337
  3.5265843390595810  2.7020745173853093 12.3552122916144356
  4.6154062168945815  6.8763169573853027 13.3514574460954307
  6.0225907730435804  8.9634381873853037 12.9066326041864343
  4.6154062168945815  0.6149532873853049 13.3514574460954307
  6.0225907730435804  2.7020745173853093 12.9066326041864343
  6.3409534394345801  6.8763169573853027 11.4655626154044334
  4.9337688832865814  4.7891957373853025 11.9103874573124315
  6.3409534394345801  0.6149532873853049 11.4655626154044334
  6.1563246517045798  6.8763169573853027  8.2260877250144304
  6.1563246517045798  0.6149532873853049  8.2260877250144304
  7.7481379836615805  8.9634381873853037 11.0207377811034313
  7.4297753172695806  4.7891957373853025 12.4618077698854357
  7.7481379836615805  2.7020745173853093 11.0207377811034313
  7.3340600890955798  6.8763169573853027  9.9500448879354337
  7.4136334050595813  4.7891957373853025  8.4763741013264333
  7.3340600890955798  0.6149532873853049  9.9500448879354337
  1.0434091180385803  6.8763169573853027 12.3672886115204363
  2.3594321173335810  8.9634381873853037 11.6993657264744328
  1.0434091180385803  0.6149532873853049 12.3672886115204363
  2.3594321173335810  2.7020745173853093 11.6993657264744328
  1.2025557499665800  8.9634381873853037  9.4199470383004336
  2.4390054332975808  6.8763169573853027 10.2256949398644359
  1.1229824340025800  4.7891957373853025 10.8936178249104323
  1.2025557499665800  2.7020745173853093  9.4199470383004336
  2.5185787492615805  4.7891957373853025  8.7520241532554302
  2.4390054332975808  0.6149532873853049 10.2256949398644359
  3.7550284220675811  8.9634381873853037  9.5577720642654338
  4.9914781053985822  6.8763169573853027 10.3635199658294361
  3.6754551061035796  4.7891957373853025 11.0314428508754325
  3.7550284220675811  2.7020745173853093  9.5577720642654338
  5.0710514213625819  4.7891957373853025  8.8898491792194356
  4.9914781053985822  0.6149532873853049 10.3635199658294361
  6.3075010941685807  8.9634381873853037  9.6955970902294322
  6.3075010941685807  2.7020745173853093  9.6955970902294322
  0.7122152386845801 11.0505594073853040  3.2448619678244350
  3.2082216726685808 11.0505594073853040  3.7962822803964356
  3.9786808841125803 11.0505594073853040  6.2335974236594351
  5.7042281066515823 11.0505594073853040  4.3477025929684361
  4.9337688832865814 11.0505594073853040  1.9103874573124342
  6.4746873180955795 11.0505594073853040  6.7850177362324340
  7.4297753172695806 11.0505594073853040  2.4618077698854339
  1.1229824340025800 11.0505594073853040  0.8936178249104344
  1.3617023818955807 11.0505594073853040  6.4726054650814335
  3.6754551061035796 11.0505594073853040  1.0314428508754343
  0.7122152386845801 11.0505594073853040 13.2448619678244377
  4.9337688832865814 11.0505594073853040 11.9103874573124315
  7.4297753172695806 11.0505594073853040 12.4618077698854357
  7.4136334050595813 11.0505594073853040  8.4763741013264333
  1.1229824340025800 11.0505594073853040 10.8936178249104323
  2.5185787492615805 11.0505594073853040  8.7520241532554302
  3.6754551061035796 11.0505594073853040 11.0314428508754325
  5.0710514213625819 11.0505594073853040  8.8898491792194356
 10.3938525722935804  6.8763169573853027  4.6859319566064324
 10.7122152386845837  4.7891957373853025  3.2448619678244350
 10.3938525722935804  0.6149532873853049  4.6859319566064324
 12.1193997829115805  6.8763169573853027  2.8000371335224341
 11.8010371165195806  8.9634381873853037  4.2411071223054346
 13.5265843390595801  8.9634381873853037  2.3552122916144347
 12.8898590062765805  6.8763169573853027  5.2373522691784364
 12.1193997829115805  0.6149532873853049  2.8000371335224341
 11.8010371165195806  2.7020745173853093  4.2411071223054346
 13.2082216726685804  4.7891957373853025  3.7962822803964356
 13.5265843390595801  2.7020745173853093  2.3552122916144347
 12.8898590062765805  0.6149532873853049  5.2373522691784364
 15.0675027738685792  8.9634381873853037  7.2298425705334335
 15.0675027738685792  2.7020745173853093  7.2298425705334335
 14.6154062168945806  6.8763169573853027  3.3514574460954334
 14.2970435505035809  8.9634381873853037  4.7925274348774343
 16.0225907730435821  8.9634381873853037  2.9066326041864334
 15.3858654402605843  6.8763169573853027  5.7887725817514353
 13.9786808841125847  4.7891957373853025  6.2335974236594351
 14.6154062168945806  0.6149532873853049  3.3514574460954334
 14.2970435505035809  2.7020745173853093  4.7925274348774343
 15.7042281066515823  4.7891957373853025  4.3477025929684361
 16.0225907730435821  2.7020745173853093  2.9066326041864334
 15.3858654402605843  0.6149532873853049  5.7887725817514353
 16.3409534394345783  6.8763169573853027  1.4655626154044343
 14.9337688832865805  4.7891957373853025  1.9103874573124342
 16.3409534394345783  0.6149532873853049  1.4655626154044343
 17.5635092078525794  8.9634381873853037  7.7812628831054340
 17.5635092078525794  2.7020745173853093  7.7812628831054340
 17.1114126508785809  6.8763169573853027  3.9028777586674339
 16.7930499844865793  8.9634381873853037  5.3439477474494339
  8.5185972070265805  8.9634381873853037  3.4580529167594336
 17.8818718742435792  6.8763169573853027  6.3401928943234358
 16.4746873180955795  4.7891957373853025  6.7850177362324340
 17.1114126508785809  0.6149532873853049  3.9028777586674339
 16.7930499844865793  2.7020745173853093  5.3439477474494339
  8.2002345406355808  4.7891957373853025  4.8991229055414331
  8.5185972070265805  2.7020745173853093  3.4580529167594336
 17.8818718742435792  0.6149532873853049  6.3401928943234358
 17.7481379836615787  8.9634381873853037  1.0207377811034348
 17.4297753172695806  4.7891957373853025  2.4618077698854339
 17.7481379836615787  2.7020745173853093  1.0207377811034348
  9.6074190848615810  6.8763169573853027  4.4542980712404354
  9.6074190848615810  0.6149532873853049  4.4542980712404354
  9.8069594452325806  8.9634381873853037  1.5615407005104349
  9.7273861292675807  4.7891957373853025  3.0352114871194336
  9.8069594452325806  2.7020745173853093  1.5615407005104349
  8.7296563938305809  6.8763169573853027  7.8084512257264329
 10.0456793931255799  8.9634381873853037  7.1405283406804338
  9.8865327611965803  6.8763169573853027  0.0878699139004344
  8.5705097619015795  4.7891957373853025  0.7557927989464341
  8.7296563938305809  0.6149532873853049  7.8084512257264329
 10.0456793931255799  2.7020745173853093  7.1405283406804338
  9.8865327611965803  0.6149532873853049  0.0878699139004344
 10.1252527090895814  6.8763169573853027  5.6668575540704342
  8.8092297097945806  4.7891957373853025  6.3347804391164333
 10.1252527090895814  0.6149532873853049  5.6668575540704342
 11.0434091180385838  6.8763169573853027  2.3672886115204346
 12.3594321173335793  8.9634381873853037  1.6993657264744346
 11.0434091180385838  0.6149532873853049  2.3672886115204346
 12.3594321173335793  2.7020745173853093  1.6993657264744346
 11.2821290659315814  6.8763169573853027  7.9462762516914349
 12.5981520652265839  8.9634381873853037  7.2783533666454341
 12.4390054332975808  6.8763169573853027  0.2256949398644341
 11.1229824340025800  4.7891957373853025  0.8936178249104344
 11.2821290659315814  0.6149532873853049  7.9462762516914349
 12.5981520652265839  2.7020745173853093  7.2783533666454341
 12.4390054332975808  0.6149532873853049  0.2256949398644341
 11.3617023818955794  4.7891957373853025  6.4726054650814335
 13.8346017380325801  6.8763169573853027  8.0841012776554351
 14.9914781053985848  6.8763169573853027  0.3635199658294344
 13.6754551061035805  4.7891957373853025  1.0314428508754343
 13.8346017380325801  0.6149532873853049  8.0841012776554351
 14.9914781053985848  0.6149532873853049  0.3635199658294344
 10.7122152386845837  4.7891957373853025 13.2448619678244377
 12.1193997829115805  6.8763169573853027 12.8000371335224337
 13.5265843390595801  8.9634381873853037 12.3552122916144356
 12.1193997829115805  0.6149532873853049 12.8000371335224337
 13.5265843390595801  2.7020745173853093 12.3552122916144356
 14.6154062168945806  6.8763169573853027 13.3514574460954307
 16.0225907730435821  8.9634381873853037 12.9066326041864343
 14.6154062168945806  0.6149532873853049 13.3514574460954307
 16.0225907730435821  2.7020745173853093 12.9066326041864343
 16.3409534394345783  6.8763169573853027 11.4655626154044334
 14.9337688832865805  4.7891957373853025 11.9103874573124315
 16.3409534394345783  0.6149532873853049 11.4655626154044334
 16.1563246517045798  6.8763169573853027  8.2260877250144304
 16.1563246517045798  0.6149532873853049  8.2260877250144304
  8.5185972070265805  8.9634381873853037 13.4580529167594314
  8.5185972070265805  2.7020745173853093 13.4580529167594314
 17.7481379836615787  8.9634381873853037 11.0207377811034313
 17.4297753172695806  4.7891957373853025 12.4618077698854357
 17.7481379836615787  2.7020745173853093 11.0207377811034313
 17.3340600890955798  6.8763169573853027  9.9500448879354337
 17.4136334050595813  4.7891957373853025  8.4763741013264333
 17.3340600890955798  0.6149532873853049  9.9500448879354337
  9.8069594452325806  8.9634381873853037 11.5615407005104345
  9.7273861292675807  4.7891957373853025 13.0352114871194296
  9.8069594452325806  2.7020745173853093 11.5615407005104345
  8.6500830778655793  8.9634381873853037  9.2821220123364334
  9.8865327611965803  6.8763169573853027 10.0878699139004340
  8.5705097619015795  4.7891957373853025 10.7557927989464339
  8.6500830778655793  2.7020745173853093  9.2821220123364334
  9.9661060771605801  4.7891957373853025  8.6141991272904299
  9.8865327611965803  0.6149532873853049 10.0878699139004340
 11.0434091180385838  6.8763169573853027 12.3672886115204363
 12.3594321173335793  8.9634381873853037 11.6993657264744328
 11.0434091180385838  0.6149532873853049 12.3672886115204363
 12.3594321173335793  2.7020745173853093 11.6993657264744328
 11.2025557499665798  8.9634381873853037  9.4199470383004336
 12.4390054332975808  6.8763169573853027 10.2256949398644359
 11.1229824340025800  4.7891957373853025 10.8936178249104323
 11.2025557499665798  2.7020745173853093  9.4199470383004336
 12.5185787492615823  4.7891957373853025  8.7520241532554302
 12.4390054332975808  0.6149532873853049 10.2256949398644359
 13.7550284220675803  8.9634381873853037  9.5577720642654338
 14.9914781053985848  6.8763169573853027 10.3635199658294361
 13.6754551061035805  4.7891957373853025 11.0314428508754325
 13.7550284220675803  2.7020745173853093  9.5577720642654338
 15.0710514213625864  4.7891957373853025  8.8898491792194356
 14.9914781053985848  0.6149532873853049 10.3635199658294361
 16.3075010941685790  8.9634381873853037  9.6955970902294322
 16.3075010941685790  2.7020745173853093  9.6955970902294322
 10.7122152386845837 11.0505594073853040  3.2448619678244350
 13.2082216726685804 11.0505594073853040  3.7962822803964356
 13.9786808841125847 11.0505594073853040  6.2335974236594351
 15.7042281066515823 11.0505594073853040  4.3477025929684361
 14.9337688832865805 11.0505594073853040  1.9103874573124342
 16.4746873180955795 11.0505594073853040  6.7850177362324340
  8.2002345406355808 11.0505594073853040  4.8991229055414331
 17.4297753172695806 11.0505594073853040  2.4618077698854339
  9.7273861292675807 11.0505594073853040  3.0352114871194336
  8.5705097619015795 11.0505594073853040  0.7557927989464341
  8.8092297097945806 11.0505594073853040  6.3347804391164333
 11.1229824340025800 11.0505594073853040  0.8936178249104344
 11.3617023818955794 11.0505594073853040  6.4726054650814335
 13.6754551061035805 11.0505594073853040  1.0314428508754343
 10.7122152386845837 11.0505594073853040 13.2448619678244377
 14.9337688832865805 11.0505594073853040 11.9103874573124315
 17.4297753172695806 11.0505594073853040 12.4618077698854357
 17.4136334050595813 11.0505594073853040  8.4763741013264333
  9.7273861292675807 11.0505594073853040 13.0352114871194296
  8.5705097619015795 11.0505594073853040 10.7557927989464339
  9.9661060771605801 11.0505594073853040  8.6141991272904299
 11.1229824340025800 11.0505594073853040 10.8936178249104323
 12.5185787492615823 11.0505594073853040  8.7520241532554302
 13.6754551061035805 11.0505594073853040 11.0314428508754325
 15.0710514213625864 11.0505594073853040  8.8898491792194356
 18.2002345406355808  4.7891957373853025  4.8991229055414331
 18.2002345406355808 11.0505594073853040  4.8991229055414331
