Cu
 1.0000000000000000
    12.7016720952861473    0.0000000000000000    0.0000000000000000
     0.0000000000000000   17.2629062803242235    0.0000000000000000
     0.0000000000000000    0.0000000000000000   15.3488664063230367
 Cu 
 276
Cartesian
  1.0116346984280553  1.0025980551111466  1.1415706025674135
  0.6932720320360555  3.0897192851111486  2.5826405913504127
  2.4188192545760545  3.0897192851111486  0.6967457606594136
  1.7820939217930549  1.0025980551111466  3.5788857382234145
  3.9597376893850540  3.0897192851111486  5.5713760395784133
  3.5076411324110555  1.0025980551111466  1.6929909151404128
  3.1892784660200562  3.0897192851111486  3.1340609039224123
  4.9148256885600539  3.0897192851111486  1.2481660732314128
  4.2781003557770561  1.0025980551111466  4.1303060507964124
  6.4557441233690538  3.0897192851111486  6.1227963521504121
  6.0036475663950553  1.0025980551111466  2.2444112277124124
  5.6852849000030536  3.0897192851111486  3.6854812164944128
  6.7741067897600526  1.0025980551111466  4.6817263633684147
  1.2516670328500541  3.0897192851111486  0.0408991955194145
  0.1743639814480549  1.0025980551111466  6.2878097207364130
  1.4903869807430548  3.0897192851111486  5.6198868356904130
  2.7268366535490540  1.0025980551111466  6.4256347467004131
  1.0116346984280553  1.0025980551111466 11.1415706025674091
  0.6932720320360555  3.0897192851111486 12.5826405913504100
  2.4188192545760545  3.0897192851111486 10.6967457606594145
  1.7820939217930549  1.0025980551111466 13.5788857382234127
  3.5076411324110555  1.0025980551111466 11.6929909151404132
  3.1892784660200562  3.0897192851111486 13.1340609039224105
  4.9148256885600539  3.0897192851111486 11.2481660732314097
  4.2781003557770561  1.0025980551111466 14.1303060507964098
  5.2331883549510545  1.0025980551111466  9.8070960844494088
  5.0485595672210541  1.0025980551111466  6.5676211940594129
  6.0036475663950553  1.0025980551111466 12.2444112277124084
  5.6852849000030536  3.0897192851111486 13.6854812164944093
  6.7741067897600526  1.0025980551111466 14.6817263633684121
  6.6403728991780540  3.0897192851111486  9.3622712501484120
  6.2262950046120524  1.0025980551111466  8.2915783569804145
  1.2516670328500541  3.0897192851111486 10.0408991955194136
  0.0947906654830546  3.0897192851111486  7.7614805073454098
  1.3312403488140550  1.0025980551111466  8.5672284089094095
  2.6472633375840546  3.0897192851111486  7.8993055333104110
  3.8837130209150565  1.0025980551111466  8.7050534348744133
  5.1997360096850542  3.0897192851111486  8.0371305592744093
  1.0116346984280553  9.3510829551111510  1.1415706025674135
  0.6932720320360555  7.2639617251111508  2.5826405913504127
  2.1004565881850543  5.1768405051111506  2.1378157494414136
  2.4188192545760545  7.2639617251111508  0.6967457606594136
  1.7820939217930549  9.3510829551111510  3.5788857382234145
  1.0116346984280553 15.6124466251111524  1.1415706025674135
  0.6932720320360555 13.5253253951111514  2.5826405913504127
  2.1004565881850543 11.4382041751111529  2.1378157494414136
  2.4188192545760545 13.5253253951111514  0.6967457606594136
  1.7820939217930549 15.6124466251111524  3.5788857382234145
  3.9597376893850540  7.2639617251111508  5.5713760395784133
  3.9597376893850540 13.5253253951111514  5.5713760395784133
  2.8709157996290542  5.1768405051111506  4.5751308927044123
  3.5076411324110555  9.3510829551111510  1.6929909151404128
  3.1892784660200562  7.2639617251111508  3.1340609039224123
  4.5964630221680549  5.1768405051111506  2.6892360620134150
  4.9148256885600539  7.2639617251111508  1.2481660732314128
  4.2781003557770561  9.3510829551111510  4.1303060507964124
  2.8709157996290542 11.4382041751111529  4.5751308927044123
  3.5076411324110555 15.6124466251111524  1.6929909151404128
  3.1892784660200562 13.5253253951111514  3.1340609039224123
  4.5964630221680549 11.4382041751111529  2.6892360620134150
  4.9148256885600539 13.5253253951111514  1.2481660732314128
  4.2781003557770561 15.6124466251111524  4.1303060507964124
  3.8260037988030549  5.1768405051111506  0.2519209263574131
  3.8260037988030549 11.4382041751111529  0.2519209263574131
  6.4557441233690538  7.2639617251111508  6.1227963521504121
  6.4557441233690538 13.5253253951111514  6.1227963521504121
  5.3669222336120530  5.1768405051111506  5.1265512052774111
  6.0036475663950553  9.3510829551111510  2.2444112277124124
  5.6852849000030536  7.2639617251111508  3.6854812164944128
  6.7741067897600526  9.3510829551111510  4.6817263633684147
  5.3669222336120530 11.4382041751111529  5.1265512052774111
  6.0036475663950553 15.6124466251111524  2.2444112277124124
  5.6852849000030536 13.5253253951111514  3.6854812164944128
  6.7741067897600526 15.6124466251111524  4.6817263633684147
  6.3220102327860541  5.1768405051111506  0.8033412389304129
  6.3220102327860541 11.4382041751111529  0.8033412389304129
  1.2516670328500541  7.2639617251111508  0.0408991955194145
  1.2516670328500541 13.5253253951111514  0.0408991955194145
  0.1743639814480549  9.3510829551111510  6.2878097207364130
  1.4903869807430548  7.2639617251111508  5.6198868356904130
  0.1743639814480549 15.6124466251111524  6.2878097207364130
  1.4903869807430548 13.5253253951111514  5.6198868356904130
  0.2539372974120546  5.1768405051111506  4.8141389341264107
  0.2539372974120546 11.4382041751111529  4.8141389341264107
  2.7268366535490540  9.3510829551111510  6.4256347467004131
  2.7268366535490540 15.6124466251111524  6.4256347467004131
  1.0116346984280553  9.3510829551111510 11.1415706025674091
  0.6932720320360555  7.2639617251111508 12.5826405913504100
  2.1004565881850543  5.1768405051111506 12.1378157494414118
  2.4188192545760545  7.2639617251111508 10.6967457606594145
  1.7820939217930549  9.3510829551111510 13.5788857382234127
  1.0116346984280553 15.6124466251111524 11.1415706025674091
  0.6932720320360555 13.5253253951111514 12.5826405913504100
  2.1004565881850543 11.4382041751111529 12.1378157494414118
  2.4188192545760545 13.5253253951111514 10.6967457606594145
  1.7820939217930549 15.6124466251111524 13.5788857382234127
  2.8709157996290542  5.1768405051111506 14.5751308927044114
  3.5076411324110555  9.3510829551111510 11.6929909151404132
  3.1892784660200562  7.2639617251111508 13.1340609039224105
  4.5964630221680549  5.1768405051111506 12.6892360620134106
  4.9148256885600539  7.2639617251111508 11.2481660732314097
  4.2781003557770561  9.3510829551111510 14.1303060507964098
  2.8709157996290542 11.4382041751111529 14.5751308927044114
  3.5076411324110555 15.6124466251111524 11.6929909151404132
  3.1892784660200562 13.5253253951111514 13.1340609039224105
  4.5964630221680549 11.4382041751111529 12.6892360620134106
  4.9148256885600539 13.5253253951111514 11.2481660732314097
  4.2781003557770561 15.6124466251111524 14.1303060507964098
  3.8260037988030549  5.1768405051111506 10.2519209263574140
  5.2331883549510545  9.3510829551111510  9.8070960844494088
  3.8260037988030549 11.4382041751111529 10.2519209263574140
  5.2331883549510545 15.6124466251111524  9.8070960844494088
  5.0485595672210541  9.3510829551111510  6.5676211940594129
  5.0485595672210541 15.6124466251111524  6.5676211940594129
  5.3669222336120530  5.1768405051111506 15.1265512052774085
  6.0036475663950553  9.3510829551111510 12.2444112277124084
  5.6852849000030536  7.2639617251111508 13.6854812164944093
  6.7741067897600526  9.3510829551111510 14.6817263633684121
  5.3669222336120530 11.4382041751111529 15.1265512052774085
  6.0036475663950553 15.6124466251111524 12.2444112277124084
  5.6852849000030536 13.5253253951111514 13.6854812164944093
  6.7741067897600526 15.6124466251111524 14.6817263633684121
  6.3220102327860541  5.1768405051111506 10.8033412389304093
  6.6403728991780540  7.2639617251111508  9.3622712501484120
  6.3220102327860541 11.4382041751111529 10.8033412389304093
  6.6403728991780540 13.5253253951111514  9.3622712501484120
  6.3058683205760557  5.1768405051111506  6.8179075703714114
  6.2262950046120524  9.3510829551111510  8.2915783569804145
  6.3058683205760557 11.4382041751111529  6.8179075703714114
  6.2262950046120524 15.6124466251111524  8.2915783569804145
  1.2516670328500541  7.2639617251111508 10.0408991955194136
  1.2516670328500541 13.5253253951111514 10.0408991955194136
  0.0152173495190544  5.1768405051111506  9.2351512939554095
  0.0947906654830546  7.2639617251111508  7.7614805073454098
  1.4108136647780538  5.1768405051111506  7.0935576223004118
  1.3312403488140550  9.3510829551111510  8.5672284089094095
  0.0152173495190544 11.4382041751111529  9.2351512939554095
  0.0947906654830546 13.5253253951111514  7.7614805073454098
  1.4108136647780538 11.4382041751111529  7.0935576223004118
  1.3312403488140550 15.6124466251111524  8.5672284089094095
  0.2539372974120546  5.1768405051111506 14.8141389341264080
  0.2539372974120546 11.4382041751111529 14.8141389341264080
  2.5676900216200540  5.1768405051111506  9.3729763199204097
  2.6472633375840546  7.2639617251111508  7.8993055333104110
  3.9632863368790558  5.1768405051111506  7.2313826482644110
  3.8837130209150565  9.3510829551111510  8.7050534348744133
  2.5676900216200540 11.4382041751111529  9.3729763199204097
  2.6472633375840546 13.5253253951111514  7.8993055333104110
  3.9632863368790558 11.4382041751111529  7.2313826482644110
  3.8837130209150565 15.6124466251111524  8.7050534348744133
  5.1997360096850542  7.2639617251111508  8.0371305592744093
  5.1997360096850542 13.5253253951111514  8.0371305592744093
  9.2860874878100539  1.0025980551111466  3.0274654256514122
 11.0116346984280540  1.0025980551111466  1.1415706025674135
 10.6932720320360559  3.0897192851111486  2.5826405913504127
 12.4188192545760536  3.0897192851111486  0.6967457606594136
 11.7820939217930523  1.0025980551111466  3.5788857382234145
  7.4108321225430549  3.0897192851111486  1.7995863858044125
  8.4996540003780545  1.0025980551111466  2.7958315402854144
  7.6218913093470553  1.0025980551111466  6.1499846947714110
  8.9379143086420534  3.0897192851111486  5.4820618097254128
  9.0174876246060531  1.0025980551111466  4.0083910231154114
  9.9356440335550538  1.0025980551111466  0.7088220805654133
 11.2516670328500545  3.0897192851111486  0.0408991955194145
 10.1743639814480566  1.0025980551111466  6.2878097207364130
 11.4903869807430521  3.0897192851111486  5.6198868356904130
  9.2860874878100539  1.0025980551111466 13.0274654256514104
 11.0116346984280540  1.0025980551111466 11.1415706025674091
 10.6932720320360559  3.0897192851111486 12.5826405913504100
 12.4188192545760536  3.0897192851111486 10.6967457606594145
 11.7820939217930523  1.0025980551111466 13.5788857382234127
  7.4108321225430549  3.0897192851111486 11.7995863858044139
  8.4996540003780545  1.0025980551111466 12.7958315402854126
  8.6991943607490541  3.0897192851111486  9.9030741695554099
  7.5423179933820519  3.0897192851111486  7.6236554813814115
  8.7787676767130556  1.0025980551111466  8.4294033829454094
  9.0174876246060531  1.0025980551111466 14.0083910231154096
  9.9356440335550538  1.0025980551111466 10.7088220805654100
 11.2516670328500545  3.0897192851111486 10.0408991955194136
 10.0947906654830533  3.0897192851111486  7.7614805073454098
 11.3312403488140561  1.0025980551111466  8.5672284089094095
 12.6472633375840520  3.0897192851111486  7.8993055333104110
  9.6044501542010501  5.1768405051111506  1.5863954368694144
  9.2860874878100539  9.3510829551111510  3.0274654256514122
  9.6044501542010501 11.4382041751111529  1.5863954368694144
  9.2860874878100539 15.6124466251111524  3.0274654256514122
 11.0116346984280540  9.3510829551111510  1.1415706025674135
 10.6932720320360559  7.2639617251111508  2.5826405913504127
 12.1004565881850539  5.1768405051111506  2.1378157494414136
 12.4188192545760536  7.2639617251111508  0.6967457606594136
 11.7820939217930523  9.3510829551111510  3.5788857382234145
 11.0116346984280540 15.6124466251111524  1.1415706025674135
 10.6932720320360559 13.5253253951111514  2.5826405913504127
 12.1004565881850539 11.4382041751111529  2.1378157494414136
 12.4188192545760536 13.5253253951111514  0.6967457606594136
 11.7820939217930523 15.6124466251111524  3.5788857382234145
  7.0924694561520543  5.1768405051111506  3.2406563745864139
  7.4108321225430549  7.2639617251111508  1.7995863858044125
  7.0924694561520543 11.4382041751111529  3.2406563745864139
  7.4108321225430549 13.5253253951111514  1.7995863858044125
  8.4996540003780545  9.3510829551111510  2.7958315402854144
  8.4996540003780545 15.6124466251111524  2.7958315402854144
  8.6196210447840542  5.1768405051111506  1.3767449561644125
  8.6196210447840542 11.4382041751111529  1.3767449561644125
  7.6218913093470553  9.3510829551111510  6.1499846947714110
  8.9379143086420534  7.2639617251111508  5.4820618097254128
  7.6218913093470553 15.6124466251111524  6.1499846947714110
  8.9379143086420534 13.5253253951111514  5.4820618097254128
  7.7014646253110541  5.1768405051111506  4.6763139081614122
  9.0174876246060531  9.3510829551111510  4.0083910231154114
  7.7014646253110541 11.4382041751111529  4.6763139081614122
  9.0174876246060531 15.6124466251111524  4.0083910231154114
  9.9356440335550538  9.3510829551111510  0.7088220805654133
 11.2516670328500545  7.2639617251111508  0.0408991955194145
  9.9356440335550538 15.6124466251111524  0.7088220805654133
 11.2516670328500545 13.5253253951111514  0.0408991955194145
 10.1743639814480566  9.3510829551111510  6.2878097207364130
 11.4903869807430521  7.2639617251111508  5.6198868356904130
 10.1743639814480566 15.6124466251111524  6.2878097207364130
 11.4903869807430521 13.5253253951111514  5.6198868356904130
 10.2539372974120546  5.1768405051111506  4.8141389341264107
 10.2539372974120546 11.4382041751111529  4.8141389341264107
  9.6044501542010501  5.1768405051111506 11.5863954368694113
  9.2860874878100539  9.3510829551111510 13.0274654256514104
  9.6044501542010501 11.4382041751111529 11.5863954368694113
  9.2860874878100539 15.6124466251111524 13.0274654256514104
 11.0116346984280540  9.3510829551111510 11.1415706025674091
 10.6932720320360559  7.2639617251111508 12.5826405913504100
 12.1004565881850539  5.1768405051111506 12.1378157494414118
 12.4188192545760536  7.2639617251111508 10.6967457606594145
 11.7820939217930523  9.3510829551111510 13.5788857382234127
 11.0116346984280540 15.6124466251111524 11.1415706025674091
 10.6932720320360559 13.5253253951111514 12.5826405913504100
 12.1004565881850539 11.4382041751111529 12.1378157494414118
 12.4188192545760536 13.5253253951111514 10.6967457606594145
 11.7820939217930523 15.6124466251111524 13.5788857382234127
  7.0924694561520543  5.1768405051111506 13.2406563745864112
  7.4108321225430549  7.2639617251111508 11.7995863858044139
  7.0924694561520543 11.4382041751111529 13.2406563745864112
  7.4108321225430549 13.5253253951111514 11.7995863858044139
  8.4996540003780545  9.3510829551111510 12.7958315402854126
  8.4996540003780545 15.6124466251111524 12.7958315402854126
  8.6196210447840542  5.1768405051111506 11.3767449561644121
  8.6991943607490541  7.2639617251111508  9.9030741695554099
  8.6196210447840542 11.4382041751111529 11.3767449561644121
  8.6991943607490541 13.5253253951111514  9.9030741695554099
  7.4627446774180539  5.1768405051111506  9.0973262679914129
  7.5423179933820519  7.2639617251111508  7.6236554813814115
  8.8583409926770518  5.1768405051111506  6.9557325963354115
  8.7787676767130556  9.3510829551111510  8.4294033829454094
  7.4627446774180539 11.4382041751111529  9.0973262679914129
  7.5423179933820519 13.5253253951111514  7.6236554813814115
  8.8583409926770518 11.4382041751111529  6.9557325963354115
  8.7787676767130556 15.6124466251111524  8.4294033829454094
  7.7014646253110541  5.1768405051111506 14.6763139081614113
  9.0174876246060531  9.3510829551111510 14.0083910231154096
  7.7014646253110541 11.4382041751111529 14.6763139081614113
  9.0174876246060531 15.6124466251111524 14.0083910231154096
  9.9356440335550538  9.3510829551111510 10.7088220805654100
 11.2516670328500545  7.2639617251111508 10.0408991955194136
  9.9356440335550538 15.6124466251111524 10.7088220805654100
 11.2516670328500545 13.5253253951111514 10.0408991955194136
 10.0152173495190553  5.1768405051111506  9.2351512939554095
 10.0947906654830533  7.2639617251111508  7.7614805073454098
 11.4108136647780540  5.1768405051111506  7.0935576223004118
 11.3312403488140561  9.3510829551111510  8.5672284089094095
 10.0152173495190553 11.4382041751111529  9.2351512939554095
 10.0947906654830533 13.5253253951111514  7.7614805073454098
 11.4108136647780540 11.4382041751111529  7.0935576223004118
 11.3312403488140561 15.6124466251111524  8.5672284089094095
 10.2539372974120546  5.1768405051111506 14.8141389341264080
 10.2539372974120546 11.4382041751111529 14.8141389341264080
 12.5676900216200558  5.1768405051111506  9.3729763199204097
 12.6472633375840520  7.2639617251111508  7.8993055333104110
 12.5676900216200558 11.4382041751111529  9.3729763199204097
 12.6472633375840520 13.5253253951111514  7.8993055333104110
