Cu
 1.0000000000000000
    17.4212693889028607    0.0000000000000000    0.0000000000000000
     0.0000000000000000   12.9746600370282490    0.0000000000000000
     0.0000000000000000    0.0000000000000000   16.0506394529650649
 Cu 
 282
Cartesian
  2.1228966990524141  0.9902523131935494  4.7845156341103232
  3.3740394428764144  5.1644947631935487  5.5672539904583198
  2.1228966990524141  7.2516159831935507  4.7845156341103232
  3.3740394428764144 11.4258584331935520  5.5672539904583198
  8.3171685410114140  3.0773735431935494  3.9111911483733222
  8.3694684675804147  0.9902523131935494  2.4363005650683220
  0.8717539552284147  3.0773735431935494  4.0017772777633231
  0.8194540286594147  5.1644947631935487  5.4766678610683224
  8.3171685410114140  9.3387372131935500  3.9111911483733222
  8.3694684675804147  7.2516159831935507  2.4363005650683220
  0.8717539552284147  9.3387372131935500  4.0017772777633231
  0.8194540286594147 11.4258584331935520  5.4766678610683224
  7.1183257237564135  3.0773735431935494  1.6535622087203219
  7.0660257971874145  5.1644947631935487  3.1284527920263239
  7.1183257237564135  9.3387372131935500  1.6535622087203219
  7.0660257971874145 11.4258584331935520  3.1284527920263239
  3.4263393726184139  3.0773735431935494  4.0923634209343227
  4.6774821164424143  0.9902523131935494  4.8751017772813219
  3.4786392991874151  0.9902523131935494  2.6174728376293235
  3.4263393726184139  9.3387372131935500  4.0923634209343227
  4.6774821164424143  7.2516159831935507  4.8751017772813219
  4.7297820430114141  5.1644947631935487  3.4002111939763227
  3.4786392991874151  7.2516159831935507  2.6174728376293235
  4.7297820430114141 11.4258584331935520  3.4002111939763227
  0.9240538849714143  0.9902523131935494  2.5268867082393225
  2.2274965553644148  3.0773735431935494  1.8347344812813220
  2.1751966287954145  5.1644947631935487  3.3096250645873226
  0.9240538849714143  7.2516159831935507  2.5268867082393225
  0.9763538115404149  5.1644947631935487  1.0519961249343224
  2.2274965553644148  9.3387372131935500  1.8347344812813220
  2.1751966287954145 11.4258584331935520  3.3096250645873226
  0.9763538115404149 11.4258584331935520  1.0519961249343224
  8.4217683973234152  5.1644947631935487  0.9614099955443223
  8.4217683973234152 11.4258584331935520  0.9614099955443223
  4.7820819727544146  3.0773735431935494  1.9253206244533230
  4.8343818993234162  0.9902523131935494  0.4504300411473228
  4.7820819727544146  9.3387372131935500  1.9253206244533230
  4.8343818993234162  7.2516159831935507  0.4504300411473228
  2.2797964851064156  0.9902523131935494  0.3598439117583226
  3.5309392289304142  5.1644947631935487  1.1425822681053219
  2.2797964851064156  7.2516159831935507  0.3598439117583226
  3.5309392289304142 11.4258584331935520  1.1425822681053219
  8.4636074743894145  0.9902523131935494  5.4243791114373225
  7.4519571955874166  5.1644947631935487  4.3498553967993221
  8.4636074743894145  7.2516159831935507  5.4243791114373225
  7.4519571955874166 11.4258584331935520  4.3498553967993221
  0.9116477252154145  0.9902523131935494  6.1600498364903222
  0.9116477252154145  7.2516159831935507  6.1600498364903222
  7.0272175027914141  3.0773735431935494  5.7632320868873217
  6.0155672239884144  0.9902523131935494  4.6887083722493239
  7.0272175027914141  9.3387372131935500  5.7632320868873217
  6.0155672239884144  7.2516159831935507  4.6887083722493239
  5.5908275307664139  5.1644947631935487  6.1020850764733217
  5.5908275307664139 11.4258584331935520  6.1020850764733217
  8.2010386743774148  3.0773735431935494  0.7390329104763227
  5.7529984235504141  3.0773735431935494  0.0033621854233221
  8.2010386743774148  9.3387372131935500  0.7390329104763227
  6.7646487023524138  5.1644947631935487  1.0778859000623227
  5.7529984235504141  9.3387372131935500  0.0033621854233221
  6.7646487023524138 11.4258584331935520  1.0778859000623227
  2.1228966990524141  0.9902523131935494 14.7845156341103241
  3.3740394428764144  5.1644947631935487 15.5672539904583225
  2.1228966990524141  7.2516159831935507 14.7845156341103241
  3.3740394428764144 11.4258584331935520 15.5672539904583225
  8.3171685410114140  3.0773735431935494 13.9111911483733230
  8.3694684675804147  0.9902523131935494 12.4363005650683220
  0.8717539552284147  3.0773735431935494 14.0017772777633240
  0.8194540286594147  5.1644947631935487 15.4766678610683179
  8.3171685410114140  9.3387372131935500 13.9111911483733230
  8.3694684675804147  7.2516159831935507 12.4363005650683220
  0.8717539552284147  9.3387372131935500 14.0017772777633240
  0.8194540286594147 11.4258584331935520 15.4766678610683179
  7.1183257237564135  3.0773735431935494 11.6535622087203219
  7.0660257971874145  5.1644947631935487 13.1284527920263230
  7.1183257237564135  9.3387372131935500 11.6535622087203219
  7.0660257971874145 11.4258584331935520 13.1284527920263230
  3.4263393726184139  3.0773735431935494 14.0923634209343227
  4.6774821164424143  0.9902523131935494 14.8751017772813228
  3.4786392991874151  0.9902523131935494 12.6174728376293235
  3.4263393726184139  9.3387372131935500 14.0923634209343227
  4.6774821164424143  7.2516159831935507 14.8751017772813228
  4.7297820430114141  5.1644947631935487 13.4002111939763200
  3.4786392991874151  7.2516159831935507 12.6174728376293235
  4.7297820430114141 11.4258584331935520 13.4002111939763200
  0.9240538849714143  0.9902523131935494 12.5268867082393207
  2.2274965553644148  3.0773735431935494 11.8347344812813233
  2.1751966287954145  5.1644947631935487 13.3096250645873226
  0.9240538849714143  7.2516159831935507 12.5268867082393207
  0.9763538115404149  5.1644947631935487 11.0519961249343233
  2.2274965553644148  9.3387372131935500 11.8347344812813233
  2.1751966287954145 11.4258584331935520 13.3096250645873226
  0.9763538115404149 11.4258584331935520 11.0519961249343233
  8.4217683973234152  5.1644947631935487 10.9614099955443223
  8.4217683973234152 11.4258584331935520 10.9614099955443223
  4.7820819727544146  3.0773735431935494 11.9253206244533239
  4.8343818993234162  0.9902523131935494 10.4504300411473228
  4.7820819727544146  9.3387372131935500 11.9253206244533239
  4.8343818993234162  7.2516159831935507 10.4504300411473228
  2.2797964851064156  0.9902523131935494 10.3598439117583219
  3.5832391554994141  3.0773735431935494  9.6676916848003192
  3.5309392289304142  5.1644947631935487 11.1425822681053219
  2.2797964851064156  7.2516159831935507 10.3598439117583219
  3.5832391554994141  9.3387372131935500  9.6676916848003192
  3.5309392289304142 11.4258584331935520 11.1425822681053219
  3.3596879756164149  0.9902523131935494  6.8957205756793227
  3.3596879756164149  7.2516159831935507  6.8957205756793227
  8.4636074743894145  0.9902523131935494 15.4243791114373217
  7.4519571955874166  5.1644947631935487 14.3498553967993239
  8.4636074743894145  7.2516159831935507 15.4243791114373217
  7.4519571955874166 11.4258584331935520 14.3498553967993239
  1.9232980040184149  3.0773735431935494  7.2345735511293210
  1.4985583107954144  0.9902523131935494  8.6479502553533223
  1.9232980040184149  9.3387372131935500  7.2345735511293210
  0.4869080319934138  5.1644947631935487  7.5734265407143218
  1.4985583107954144  7.2516159831935507  8.6479502553533223
  0.4869080319934138 11.4258584331935520  7.5734265407143218
  2.9349482828204145  5.1644947631935487  8.3090972657673223
  2.9349482828204145 11.4258584331935520  8.3090972657673223
  7.0272175027914141  3.0773735431935494 15.7632320868873173
  6.0155672239884144  0.9902523131935494 14.6887083722493230
  6.6024778095684145  0.9902523131935494  7.1766087911113221
  7.0272175027914141  9.3387372131935500 15.7632320868873173
  6.0155672239884144  7.2516159831935507 14.6887083722493230
  6.6024778095684145  7.2516159831935507  7.1766087911113221
  0.0621683391974148  3.0773735431935494  8.9868032308023231
  7.6141280883714142  3.0773735431935494  8.2511325057503235
  8.0388677815934138  5.1644947631935487  6.8377558015263222
  0.0621683391974148  9.3387372131935500  8.9868032308023231
  7.6141280883714142  9.3387372131935500  8.2511325057503235
  8.0388677815934138 11.4258584331935520  6.8377558015263222
  5.1660878379704140  3.0773735431935494  7.5154617665613204
  4.7413481447484145  0.9902523131935494  8.9288384707853226
  5.1660878379704140  9.3387372131935500  7.5154617665613204
  4.7413481447484145  7.2516159831935507  8.9288384707853226
  8.2010386743774148  3.0773735431935494 10.7390329104763218
  7.1893883955744169  0.9902523131935494  9.6645091958383222
  5.7529984235504141  3.0773735431935494 10.0033621854233221
  6.1777381167724164  5.1644947631935487  8.5899854812003227
  8.2010386743774148  9.3387372131935500 10.7390329104763218
  7.1893883955744169  7.2516159831935507  9.6645091958383222
  6.7646487023524138  5.1644947631935487 11.0778859000623235
  5.7529984235504141  9.3387372131935500 10.0033621854233221
  6.1777381167724164 11.4258584331935520  8.5899854812003227
  6.7646487023524138 11.4258584331935520 11.0778859000623235
 12.1228966990524150  0.9902523131935494  4.7845156341103232
 13.3740394428764162  5.1644947631935487  5.5672539904583198
 12.1228966990524150  7.2516159831935507  4.7845156341103232
 13.3740394428764162 11.4258584331935520  5.5672539904583198
  9.5683112848354135  0.9902523131935494  4.6939295047213205
 10.8717539552284137  3.0773735431935494  4.0017772777633231
 10.8194540286594147  5.1644947631935487  5.4766678610683224
  9.5683112848354135  7.2516159831935507  4.6939295047213205
  9.6206112114044142  5.1644947631935487  3.2190389214153239
 10.8717539552284137  9.3387372131935500  4.0017772777633231
 10.8194540286594147 11.4258584331935520  5.4766678610683224
  9.6206112114044142 11.4258584331935520  3.2190389214153239
 17.1183257237564135  3.0773735431935494  1.6535622087203219
 17.0660257971874145  5.1644947631935487  3.1284527920263239
 17.1183257237564135  9.3387372131935500  1.6535622087203219
 17.0660257971874145 11.4258584331935520  3.1284527920263239
 13.4263393726184148  3.0773735431935494  4.0923634209343227
 14.6774821164424143  0.9902523131935494  4.8751017772813219
 13.4786392991874138  0.9902523131935494  2.6174728376293235
 13.4263393726184148  9.3387372131935500  4.0923634209343227
 14.6774821164424143  7.2516159831935507  4.8751017772813219
 14.7297820430114150  5.1644947631935487  3.4002111939763227
 13.4786392991874138  7.2516159831935507  2.6174728376293235
 14.7297820430114150 11.4258584331935520  3.4002111939763227
  9.6729111411474182  3.0773735431935494  1.7441483518923238
 10.9240538849714142  0.9902523131935494  2.5268867082393225
 12.2274965553644144  3.0773735431935494  1.8347344812813220
 12.1751966287954154  5.1644947631935487  3.3096250645873226
  9.6729111411474182  9.3387372131935500  1.7441483518923238
 10.9240538849714142  7.2516159831935507  2.5268867082393225
 10.9763538115404149  5.1644947631935487  1.0519961249343224
 12.2274965553644144  9.3387372131935500  1.8347344812813220
 12.1751966287954154 11.4258584331935520  3.3096250645873226
 10.9763538115404149 11.4258584331935520  1.0519961249343224
 14.7820819727544155  3.0773735431935494  1.9253206244533230
 14.8343818993234162  0.9902523131935494  0.4504300411473228
 14.7820819727544155  9.3387372131935500  1.9253206244533230
 14.8343818993234162  7.2516159831935507  0.4504300411473228
 12.2797964851064147  0.9902523131935494  0.3598439117583226
 13.5309392289304142  5.1644947631935487  1.1425822681053219
 12.2797964851064147  7.2516159831935507  0.3598439117583226
 13.5309392289304142 11.4258584331935520  1.1425822681053219
 10.9116477252154134  0.9902523131935494  6.1600498364903222
  9.4752577531914142  3.0773735431935494  6.4989028260763204
 10.9116477252154134  7.2516159831935507  6.1600498364903222
  9.4752577531914142  9.3387372131935500  6.4989028260763204
 17.0272175027914159  3.0773735431935494  5.7632320868873217
 16.0155672239884126  0.9902523131935494  4.6887083722493239
 17.0272175027914159  9.3387372131935500  5.7632320868873217
 16.0155672239884126  7.2516159831935507  4.6887083722493239
 15.5908275307664148  5.1644947631935487  6.1020850764733217
 15.5908275307664148 11.4258584331935520  6.1020850764733217
  9.6374286459754135  0.9902523131935494  0.4001799350263235
  9.6374286459754135  7.2516159831935507  0.4001799350263235
 15.7529984235504141  3.0773735431935494  0.0033621854233221
 16.7646487023524138  5.1644947631935487  1.0778859000623227
 15.7529984235504141  9.3387372131935500  0.0033621854233221
 16.7646487023524138 11.4258584331935520  1.0778859000623227
 12.1228966990524150  0.9902523131935494 14.7845156341103241
 13.3740394428764162  5.1644947631935487 15.5672539904583225
 12.1228966990524150  7.2516159831935507 14.7845156341103241
 13.3740394428764162 11.4258584331935520 15.5672539904583225
  9.5683112848354135  0.9902523131935494 14.6939295047213214
 10.8717539552284137  3.0773735431935494 14.0017772777633240
 10.8194540286594147  5.1644947631935487 15.4766678610683179
  9.5683112848354135  7.2516159831935507 14.6939295047213214
  9.6206112114044142  5.1644947631935487 13.2190389214153239
 10.8717539552284137  9.3387372131935500 14.0017772777633240
 10.8194540286594147 11.4258584331935520 15.4766678610683179
  9.6206112114044142 11.4258584331935520 13.2190389214153239
 17.1183257237564135  3.0773735431935494 11.6535622087203219
 17.0660257971874145  5.1644947631935487 13.1284527920263230
 17.1183257237564135  9.3387372131935500 11.6535622087203219
 17.0660257971874145 11.4258584331935520 13.1284527920263230
 13.4263393726184148  3.0773735431935494 14.0923634209343227
 14.6774821164424143  0.9902523131935494 14.8751017772813228
 13.4786392991874138  0.9902523131935494 12.6174728376293235
 13.4263393726184148  9.3387372131935500 14.0923634209343227
 14.6774821164424143  7.2516159831935507 14.8751017772813228
 14.7297820430114150  5.1644947631935487 13.4002111939763200
 13.4786392991874138  7.2516159831935507 12.6174728376293235
 14.7297820430114150 11.4258584331935520 13.4002111939763200
  9.6729111411474182  3.0773735431935494 11.7441483518923242
 10.9240538849714142  0.9902523131935494 12.5268867082393207
 12.2274965553644144  3.0773735431935494 11.8347344812813233
 12.1751966287954154  5.1644947631935487 13.3096250645873226
  9.6729111411474182  9.3387372131935500 11.7441483518923242
 10.9240538849714142  7.2516159831935507 12.5268867082393207
 10.9763538115404149  5.1644947631935487 11.0519961249343233
 12.2274965553644144  9.3387372131935500 11.8347344812813233
 12.1751966287954154 11.4258584331935520 13.3096250645873226
 10.9763538115404149 11.4258584331935520 11.0519961249343233
 14.7820819727544155  3.0773735431935494 11.9253206244533239
 14.8343818993234162  0.9902523131935494 10.4504300411473228
 14.7820819727544155  9.3387372131935500 11.9253206244533239
 14.8343818993234162  7.2516159831935507 10.4504300411473228
 12.2797964851064147  0.9902523131935494 10.3598439117583219
 13.5832391554994132  3.0773735431935494  9.6676916848003192
 13.5309392289304142  5.1644947631935487 11.1425822681053219
 12.2797964851064147  7.2516159831935507 10.3598439117583219
 13.5832391554994132  9.3387372131935500  9.6676916848003192
 13.5309392289304142 11.4258584331935520 11.1425822681053219
 13.3596879756164135  0.9902523131935494  6.8957205756793227
 13.3596879756164135  7.2516159831935507  6.8957205756793227
 11.9232980040184149  3.0773735431935494  7.2345735511293210
 11.4985583107954135  0.9902523131935494  8.6479502553533223
 11.9232980040184149  9.3387372131935500  7.2345735511293210
 10.4869080319934156  5.1644947631935487  7.5734265407143218
 11.4985583107954135  7.2516159831935507  8.6479502553533223
 10.4869080319934156 11.4258584331935520  7.5734265407143218
 12.9349482828204163  5.1644947631935487  8.3090972657673223
 12.9349482828204163 11.4258584331935520  8.3090972657673223
 17.0272175027914159  3.0773735431935494 15.7632320868873173
 16.0155672239884126  0.9902523131935494 14.6887083722493230
 16.6024778095684127  0.9902523131935494  7.1766087911113221
 17.0272175027914159  9.3387372131935500 15.7632320868873173
 16.0155672239884126  7.2516159831935507 14.6887083722493230
 16.6024778095684127  7.2516159831935507  7.1766087911113221
 10.0621683391974148  3.0773735431935494  8.9868032308023231
  9.0505180603954152  0.9902523131935494  7.9122795161643218
  9.6374286459754135  0.9902523131935494 10.4001799350263191
 10.0621683391974148  9.3387372131935500  8.9868032308023231
  9.0505180603954152  7.2516159831935507  7.9122795161643218
  8.6257783671734138  5.1644947631935487  9.3256562203883231
  9.6374286459754135  7.2516159831935507 10.4001799350263191
  8.6257783671734138 11.4258584331935520  9.3256562203883231
 15.1660878379704140  3.0773735431935494  7.5154617665613204
 14.7413481447484180  0.9902523131935494  8.9288384707853226
 15.1660878379704140  9.3387372131935500  7.5154617665613204
 14.7413481447484180  7.2516159831935507  8.9288384707853226
 17.1893883955744151  0.9902523131935494  9.6645091958383222
 15.7529984235504141  3.0773735431935494 10.0033621854233221
 16.1777381167724172  5.1644947631935487  8.5899854812003227
 17.1893883955744151  7.2516159831935507  9.6645091958383222
 16.7646487023524138  5.1644947631935487 11.0778859000623235
 15.7529984235504141  9.3387372131935500 10.0033621854233221
 16.1777381167724172 11.4258584331935520  8.5899854812003227
 16.7646487023524138 11.4258584331935520 11.0778859000623235
