Cu
 1.0000000000000000
    14.2510711361759732    0.0000000000000000    0.0000000000000000
     0.0000000000000000   14.3487500621334689    0.0000000000000000
     0.0000000000000000    0.0000000000000000   17.2953321178151604
 Cu 
 292
Cartesian
  2.1431297170893262  1.5163756760793961  6.1420567275099209
  3.3942724609133261  5.6906181260793955  6.9247950838579193
  2.1431297170893262  7.7777393460793967  6.1420567275099209
  3.3942724609133261 11.9519817960793961  6.9247950838579193
  2.1431297170893262 14.0391030160793964  6.1420567275099209
  8.3374015590483257  3.6034969060793962  5.2687322417729208
  8.3897014856173264  1.5163756760793961  3.7938416584679189
  0.8919869732653264  3.6034969060793962  5.3593183711629209
  0.8396870466963260  5.6906181260793955  6.8342089544679183
  8.3374015590483257  9.8648605760793959  5.2687322417729208
  8.3897014856173264  7.7777393460793967  3.7938416584679189
  0.8919869732653264  9.8648605760793959  5.3593183711629209
  0.8396870466963260 11.9519817960793961  6.8342089544679183
  8.3897014856173264 14.0391030160793964  3.7938416584679189
  7.1385587417933261  3.6034969060793962  3.0111033021199196
  7.0862588152243271  5.6906181260793955  4.4859938854259216
  7.1385587417933261  9.8648605760793959  3.0111033021199196
  7.0862588152243271 11.9519817960793961  4.4859938854259216
  3.4465723906553256  3.6034969060793962  5.4499045143339204
  4.6977151344793260  1.5163756760793961  6.2326428706809196
  3.4988723172243263  1.5163756760793961  3.9750139310289203
  3.4465723906553256  9.8648605760793959  5.4499045143339204
  4.6977151344793260  7.7777393460793967  6.2326428706809196
  4.7500150610483258  5.6906181260793955  4.7577522873759213
  3.4988723172243263  7.7777393460793967  3.9750139310289203
  4.6977151344793260 14.0391030160793964  6.2326428706809196
  4.7500150610483258 11.9519817960793961  4.7577522873759213
  3.4988723172243263 14.0391030160793964  3.9750139310289203
  0.9442869030083262  1.5163756760793961  3.8844278016389211
  2.2477295734013261  3.6034969060793962  3.1922755746809197
  2.1954296468323262  5.6906181260793955  4.6671661579869204
  0.9442869030083262  7.7777393460793967  3.8844278016389211
  0.9965868295773261  5.6906181260793955  2.4095372183339201
  2.2477295734013261  9.8648605760793959  3.1922755746809197
  2.1954296468323262 11.9519817960793961  4.6671661579869204
  0.9442869030083262 14.0391030160793964  3.8844278016389211
  0.9965868295773261 11.9519817960793961  2.4095372183339201
  8.4420014153603304  5.6906181260793955  2.3189510889439191
  8.4420014153603304 11.9519817960793961  2.3189510889439191
  4.8023149907913281  3.6034969060793962  3.2828617178529207
  4.8546149173603297  1.5163756760793961  1.8079711345469205
  4.8023149907913281  9.8648605760793959  3.2828617178529207
  4.8546149173603297  7.7777393460793967  1.8079711345469205
  4.8546149173603297 14.0391030160793964  1.8079711345469205
  2.3000295031433269  1.5163756760793961  1.7173850051579205
  3.6034721735363262  3.6034969060793962  1.0252327781999213
  3.5511722469673268  5.6906181260793955  2.5001233615049197
  2.3000295031433269  7.7777393460793967  1.7173850051579205
  3.6034721735363262  9.8648605760793959  1.0252327781999213
  3.5511722469673268 11.9519817960793961  2.5001233615049197
  2.3000295031433269 14.0391030160793964  1.7173850051579205
  8.4838404924263262  1.5163756760793961  6.7819202048369203
  7.4721902136243274  5.6906181260793955  5.7073964901989198
  8.4838404924263262  7.7777393460793967  6.7819202048369203
  7.4721902136243274 11.9519817960793961  5.7073964901989198
  8.4838404924263262 14.0391030160793964  6.7819202048369203
  0.9318807432523262  1.5163756760793961  7.5175909298899182
  1.5187913288323260  1.5163756760793961  0.0054913487529209
  0.9318807432523262  7.7777393460793967  7.5175909298899182
  1.5187913288323260  7.7777393460793967  0.0054913487529209
  0.9318807432523262 14.0391030160793964  7.5175909298899182
  1.5187913288323260 14.0391030160793964  0.0054913487529209
  7.0474505208283258  3.6034969060793962  7.1207731802869194
  6.0358002420253278  1.5163756760793961  6.0462494656489199
  7.0474505208283258  9.8648605760793959  7.1207731802869194
  6.0358002420253278  7.7777393460793967  6.0462494656489199
  5.6110605488033256  5.6906181260793955  7.4596261698729185
  6.0358002420253278 14.0391030160793964  6.0462494656489199
  5.6110605488033256 11.9519817960793961  7.4596261698729185
  0.0824013572343259  3.6034969060793962  0.3443443242019200
  0.0824013572343259  9.8648605760793959  0.3443443242019200
  4.7615811627853262  1.5163756760793961  0.2863795641849194
  4.7615811627853262  7.7777393460793967  0.2863795641849194
  4.7615811627853262 14.0391030160793964  0.2863795641849194
  8.2212716924143283  3.6034969060793962  2.0965740038759204
  7.2096214136113277  1.5163756760793961  1.0220502892379200
  5.7732314415873276  3.6034969060793962  1.3609032788229198
  8.2212716924143283  9.8648605760793959  2.0965740038759204
  7.2096214136113277  7.7777393460793967  1.0220502892379200
  6.7848817203893255  5.6906181260793955  2.4354269934619204
  5.7732314415873276  9.8648605760793959  1.3609032788229198
  7.2096214136113277 14.0391030160793964  1.0220502892379200
  6.7848817203893255 11.9519817960793961  2.4354269934619204
  2.1431297170893262  1.5163756760793961 16.1420567275099209
  3.3942724609133261  5.6906181260793955 16.9247950838579193
  2.1431297170893262  7.7777393460793967 16.1420567275099209
  3.3942724609133261 11.9519817960793961 16.9247950838579193
  2.1431297170893262 14.0391030160793964 16.1420567275099209
  8.3374015590483257  3.6034969060793962 15.2687322417729163
  8.3897014856173264  1.5163756760793961 13.7938416584679189
  0.8919869732653264  3.6034969060793962 15.3593183711629173
  0.8396870466963260  5.6906181260793955 16.8342089544679183
  8.3374015590483257  9.8648605760793959 15.2687322417729163
  8.3897014856173264  7.7777393460793967 13.7938416584679189
  0.8919869732653264  9.8648605760793959 15.3593183711629173
  0.8396870466963260 11.9519817960793961 16.8342089544679183
  8.3897014856173264 14.0391030160793964 13.7938416584679189
  7.1385587417933261  3.6034969060793962 13.0111033021199205
  7.0862588152243271  5.6906181260793955 14.4859938854259180
  7.1385587417933261  9.8648605760793959 13.0111033021199205
  7.0862588152243271 11.9519817960793961 14.4859938854259180
  3.4465723906553256  3.6034969060793962 15.4499045143339195
  4.6977151344793260  1.5163756760793961 16.2326428706809196
  3.4988723172243263  1.5163756760793961 13.9750139310289221
  3.4465723906553256  9.8648605760793959 15.4499045143339195
  4.6977151344793260  7.7777393460793967 16.2326428706809196
  4.7500150610483258  5.6906181260793955 14.7577522873759222
  3.4988723172243263  7.7777393460793967 13.9750139310289221
  4.6977151344793260 14.0391030160793964 16.2326428706809196
  4.7500150610483258 11.9519817960793961 14.7577522873759222
  3.4988723172243263 14.0391030160793964 13.9750139310289221
  0.9442869030083262  1.5163756760793961 13.8844278016389211
  2.2477295734013261  3.6034969060793962 13.1922755746809166
  2.1954296468323262  5.6906181260793955 14.6671661579869195
  0.9442869030083262  7.7777393460793967 13.8844278016389211
  0.9965868295773261  5.6906181260793955 12.4095372183339165
  2.2477295734013261  9.8648605760793959 13.1922755746809166
  2.1954296468323262 11.9519817960793961 14.6671661579869195
  0.9442869030083262 14.0391030160793964 13.8844278016389211
  0.9965868295773261 11.9519817960793961 12.4095372183339165
  8.4420014153603304  5.6906181260793955 12.3189510889439156
  8.4420014153603304 11.9519817960793961 12.3189510889439156
  4.8023149907913281  3.6034969060793962 13.2828617178529207
  4.8546149173603297  1.5163756760793961 11.8079711345469214
  4.8023149907913281  9.8648605760793959 13.2828617178529207
  4.8546149173603297  7.7777393460793967 11.8079711345469214
  4.8546149173603297 14.0391030160793964 11.8079711345469214
  2.3000295031433269  1.5163756760793961 11.7173850051579205
  3.6034721735363262  3.6034969060793962 11.0252327781999213
  3.5511722469673268  5.6906181260793955 12.5001233615049188
  2.3000295031433269  7.7777393460793967 11.7173850051579205
  3.6034721735363262  9.8648605760793959 11.0252327781999213
  3.5511722469673268 11.9519817960793961 12.5001233615049188
  2.3000295031433269 14.0391030160793964 11.7173850051579205
  3.3799209936533270  1.5163756760793961  8.2532616690789204
  3.3799209936533270  7.7777393460793967  8.2532616690789204
  3.3799209936533270 14.0391030160793964  8.2532616690789204
  8.4838404924263262  1.5163756760793961 16.7819202048369220
  7.4721902136243274  5.6906181260793955 15.7073964901989189
  8.4838404924263262  7.7777393460793967 16.7819202048369220
  7.4721902136243274 11.9519817960793961 15.7073964901989189
  8.4838404924263262 14.0391030160793964 16.7819202048369220
  1.9435310220553261  3.6034969060793962  8.5921146445289196
  1.5187913288323260  1.5163756760793961 10.0054913487529209
  1.9435310220553261  9.8648605760793959  8.5921146445289196
  0.5071410500303264  5.6906181260793955  8.9309676341139195
  1.5187913288323260  7.7777393460793967 10.0054913487529209
  0.5071410500303264 11.9519817960793961  8.9309676341139195
  1.5187913288323260 14.0391030160793964 10.0054913487529209
  2.9551813008573262  5.6906181260793955  9.6666383591669174
  2.9551813008573262 11.9519817960793961  9.6666383591669174
  7.0474505208283258  3.6034969060793962 17.1207731802869176
  6.0358002420253278  1.5163756760793961 16.0462494656489199
  6.6227108276053279  1.5163756760793961  8.5341498845109207
  7.0474505208283258  9.8648605760793959 17.1207731802869176
  6.0358002420253278  7.7777393460793967 16.0462494656489199
  6.6227108276053279  7.7777393460793967  8.5341498845109207
  6.0358002420253278 14.0391030160793964 16.0462494656489199
  6.6227108276053279 14.0391030160793964  8.5341498845109207
  0.0824013572343259  3.6034969060793962 10.3443443242019164
  7.6343611064083268  3.6034969060793962  9.6086735991499204
  8.0591007996303254  5.6906181260793955  8.1952968949259208
  0.0824013572343259  9.8648605760793959 10.3443443242019164
  7.6343611064083268  9.8648605760793959  9.6086735991499204
  8.0591007996303254 11.9519817960793961  8.1952968949259208
  5.1863208560073275  3.6034969060793962  8.8730028599609199
  4.7615811627853262  1.5163756760793961 10.2863795641849194
  5.1863208560073275  9.8648605760793959  8.8730028599609199
  4.7615811627853262  7.7777393460793967 10.2863795641849194
  4.7615811627853262 14.0391030160793964 10.2863795641849194
  8.2212716924143283  3.6034969060793962 12.0965740038759204
  7.2096214136113277  1.5163756760793961 11.0220502892379209
  5.7732314415873276  3.6034969060793962 11.3609032788229207
  6.1979711348093298  5.6906181260793955  9.9475265745999177
  8.2212716924143283  9.8648605760793959 12.0965740038759204
  7.2096214136113277  7.7777393460793967 11.0220502892379209
  6.7848817203893255  5.6906181260793955 12.4354269934619204
  5.7732314415873276  9.8648605760793959 11.3609032788229207
  6.1979711348093298 11.9519817960793961  9.9475265745999177
  7.2096214136113277 14.0391030160793964 11.0220502892379209
  6.7848817203893255 11.9519817960793961 12.4354269934619204
 12.1431297170893302  1.5163756760793961  6.1420567275099209
 13.3942724609133261  5.6906181260793955  6.9247950838579193
 12.1431297170893302  7.7777393460793967  6.1420567275099209
 13.3942724609133261 11.9519817960793961  6.9247950838579193
 12.1431297170893302 14.0391030160793964  6.1420567275099209
  9.5885443028723252  1.5163756760793961  6.0514705981209191
 10.8919869732653289  3.6034969060793962  5.3593183711629209
 10.8396870466963264  5.6906181260793955  6.8342089544679183
  9.5885443028723252  7.7777393460793967  6.0514705981209191
  9.6408442294413295  5.6906181260793955  4.5765800148149198
 10.8919869732653289  9.8648605760793959  5.3593183711629209
 10.8396870466963264 11.9519817960793961  6.8342089544679183
  9.5885443028723252 14.0391030160793964  6.0514705981209191
  9.6408442294413295 11.9519817960793961  4.5765800148149198
 13.4465723906553301  3.6034969060793962  5.4499045143339204
 13.4988723172243255  1.5163756760793961  3.9750139310289203
 13.4465723906553301  9.8648605760793959  5.4499045143339204
 13.4988723172243255  7.7777393460793967  3.9750139310289203
 13.4988723172243255 14.0391030160793964  3.9750139310289203
  9.6931441591843264  3.6034969060793962  3.1016894452919219
 10.9442869030083259  1.5163756760793961  3.8844278016389211
 12.2477295734013296  3.6034969060793962  3.1922755746809197
 12.1954296468323271  5.6906181260793955  4.6671661579869204
  9.6931441591843264  9.8648605760793959  3.1016894452919219
 10.9442869030083259  7.7777393460793967  3.8844278016389211
 10.9965868295773301  5.6906181260793955  2.4095372183339201
 12.2477295734013296  9.8648605760793959  3.1922755746809197
 12.1954296468323271 11.9519817960793961  4.6671661579869204
 10.9442869030083259 14.0391030160793964  3.8844278016389211
 10.9965868295773301 11.9519817960793961  2.4095372183339201
 12.3000295031433264  1.5163756760793961  1.7173850051579205
 13.6034721735363249  3.6034969060793962  1.0252327781999213
 13.5511722469673295  5.6906181260793955  2.5001233615049197
 12.3000295031433264  7.7777393460793967  1.7173850051579205
 13.6034721735363249  9.8648605760793959  1.0252327781999213
 13.5511722469673295 11.9519817960793961  2.5001233615049197
 12.3000295031433264 14.0391030160793964  1.7173850051579205
 10.9318807432523251  1.5163756760793961  7.5175909298899182
 11.5187913288323251  1.5163756760793961  0.0054913487529209
  9.4954907712283259  3.6034969060793962  7.8564439194759199
 10.9318807432523251  7.7777393460793967  7.5175909298899182
 11.5187913288323251  7.7777393460793967  0.0054913487529209
  9.4954907712283259  9.8648605760793959  7.8564439194759199
 10.9318807432523251 14.0391030160793964  7.5175909298899182
 11.5187913288323251 14.0391030160793964  0.0054913487529209
 10.0824013572343265  3.6034969060793962  0.3443443242019200
  9.6576616640123252  1.5163756760793961  1.7577210284259213
 10.0824013572343265  9.8648605760793959  0.3443443242019200
  8.6460113852103255  5.6906181260793955  0.6831973137879199
  9.6576616640123252  7.7777393460793967  1.7577210284259213
  8.6460113852103255 11.9519817960793961  0.6831973137879199
  9.6576616640123252 14.0391030160793964  1.7577210284259213
 12.1431297170893302  1.5163756760793961 16.1420567275099209
 13.3942724609133261  5.6906181260793955 16.9247950838579193
 12.1431297170893302  7.7777393460793967 16.1420567275099209
 13.3942724609133261 11.9519817960793961 16.9247950838579193
 12.1431297170893302 14.0391030160793964 16.1420567275099209
  9.5885443028723252  1.5163756760793961 16.0514705981209218
 10.8919869732653289  3.6034969060793962 15.3593183711629173
 10.8396870466963264  5.6906181260793955 16.8342089544679183
  9.5885443028723252  7.7777393460793967 16.0514705981209218
  9.6408442294413295  5.6906181260793955 14.5765800148149189
 10.8919869732653289  9.8648605760793959 15.3593183711629173
 10.8396870466963264 11.9519817960793961 16.8342089544679183
  9.5885443028723252 14.0391030160793964 16.0514705981209218
  9.6408442294413295 11.9519817960793961 14.5765800148149189
 13.4465723906553301  3.6034969060793962 15.4499045143339195
 13.4988723172243255  1.5163756760793961 13.9750139310289221
 13.4465723906553301  9.8648605760793959 15.4499045143339195
 13.4988723172243255  7.7777393460793967 13.9750139310289221
 13.4988723172243255 14.0391030160793964 13.9750139310289221
  9.6931441591843264  3.6034969060793962 13.1016894452919210
 10.9442869030083259  1.5163756760793961 13.8844278016389211
 12.2477295734013296  3.6034969060793962 13.1922755746809166
 12.1954296468323271  5.6906181260793955 14.6671661579869195
  9.6931441591843264  9.8648605760793959 13.1016894452919210
 10.9442869030083259  7.7777393460793967 13.8844278016389211
 10.9965868295773301  5.6906181260793955 12.4095372183339165
 12.2477295734013296  9.8648605760793959 13.1922755746809166
 12.1954296468323271 11.9519817960793961 14.6671661579869195
 10.9442869030083259 14.0391030160793964 13.8844278016389211
 10.9965868295773301 11.9519817960793961 12.4095372183339165
 12.3000295031433264  1.5163756760793961 11.7173850051579205
 13.6034721735363249  3.6034969060793962 11.0252327781999213
 13.5511722469673295  5.6906181260793955 12.5001233615049188
 12.3000295031433264  7.7777393460793967 11.7173850051579205
 13.6034721735363249  9.8648605760793959 11.0252327781999213
 13.5511722469673295 11.9519817960793961 12.5001233615049188
 12.3000295031433264 14.0391030160793964 11.7173850051579205
 13.3799209936533288  1.5163756760793961  8.2532616690789204
 13.3799209936533288  7.7777393460793967  8.2532616690789204
 13.3799209936533288 14.0391030160793964  8.2532616690789204
 11.9435310220553266  3.6034969060793962  8.5921146445289196
 11.5187913288323251  1.5163756760793961 10.0054913487529209
 11.9435310220553266  9.8648605760793959  8.5921146445289196
 10.5071410500303291  5.6906181260793955  8.9309676341139195
 11.5187913288323251  7.7777393460793967 10.0054913487529209
 10.5071410500303291 11.9519817960793961  8.9309676341139195
 11.5187913288323251 14.0391030160793964 10.0054913487529209
 12.9551813008573262  5.6906181260793955  9.6666383591669174
 12.9551813008573262 11.9519817960793961  9.6666383591669174
 10.0824013572343265  3.6034969060793962 10.3443443242019164
  9.0707510784323251  1.5163756760793961  9.2698206095639204
  9.6576616640123252  1.5163756760793961 11.7577210284259177
 10.0824013572343265  9.8648605760793959 10.3443443242019164
  9.0707510784323251  7.7777393460793967  9.2698206095639204
  8.6460113852103255  5.6906181260793955 10.6831973137879199
  9.6576616640123252  7.7777393460793967 11.7577210284259177
  9.0707510784323251 14.0391030160793964  9.2698206095639204
  8.6460113852103255 11.9519817960793961 10.6831973137879199
  9.6576616640123252 14.0391030160793964 11.7577210284259177
