Cu
 1.0000000000000000
    13.8628182795496500    0.0000000000000000    0.0000000000000000
     0.0000000000000000   14.3364746425162259    0.0000000000000000
     0.0000000000000000    0.0000000000000000   15.9215803392126922
 Cu 
 269
Cartesian
  4.8680393411081440  7.5275035147591174  4.7183928796195582
  4.9203392676771447  9.6146247447591193  3.2435022963145572
  4.8680393411081440  1.2661398447591199  4.7183928796195582
  4.9203392676771447  3.3532610747591249  3.2435022963145572
  3.6691965238531439  7.5275035147591174  2.4607639399665571
  3.6168965972841440  5.4403822947591172  3.9356545232725590
  3.6691965238531439  1.2661398447591199  2.4607639399665571
  1.2283529165391442  9.6146247447591193  5.6823035085275571
  0.0295100992841446  9.6146247447591193  3.4246745688755587
  1.2283529165391442  3.3532610747591249  5.6823035085275571
  1.2806528431081441  5.4403822947591172  4.2074129252225587
  0.0295100992841446  3.3532610747591249  3.4246745688755587
  4.9726391974201452  5.4403822947591172  1.7686117267905574
  1.3329527728511446  7.5275035147591174  2.7325223556995581
  1.3852526994201462  9.6146247447591193  1.2576317723935579
  1.3329527728511446  1.2661398447591199  2.7325223556995581
  1.3852526994201462  3.3532610747591249  1.2576317723935579
  0.1341099555961440  7.5275035147591174  0.4748934160465588
  0.0818100290271442  5.4403822947591172  1.9497839993515571
  0.1341099555961440  1.2661398447591199  0.4748934160465588
  5.0144782744861445  9.6146247447591193  6.2315808426835577
  4.0028279956841448  5.4403822947591172  5.1570571280455590
  5.0144782744861445  3.3532610747591249  6.2315808426835577
  3.5780883028881445  7.5275035147591174  6.5704338181335569
  2.5664380240851443  9.6146247447591193  5.4959101034955591
  3.5780883028881445  1.2661398447591199  6.5704338181335569
  2.5664380240851443  3.3532610747591249  5.4959101034955591
  2.1416983308631439  5.4403822947591172  6.9092868077195568
  4.7519094744741448  7.5275035147591174  1.5462346417225579
  3.7402591956711446  9.6146247447591193  0.4717109270845574
  2.3038692236471441  7.5275035147591174  0.8105639166695573
  4.7519094744741448  1.2661398447591199  1.5462346417225579
  3.7402591956711446  3.3532610747591249  0.4717109270845574
  3.3155195024491437  5.4403822947591172  1.8850876313085578
  2.3038692236471441  1.2661398447591199  0.8105639166695573
  4.8680393411081440  7.5275035147591174 14.7183928796195573
  4.9203392676771447  9.6146247447591193 13.2435022963145563
  4.8680393411081440  1.2661398447591199 14.7183928796195573
  4.9203392676771447  3.3532610747591249 13.2435022963145563
  3.6691965238531439  7.5275035147591174 12.4607639399665580
  3.6168965972841440  5.4403822947591172 13.9356545232725626
  3.6691965238531439  1.2661398447591199 12.4607639399665580
  1.2283529165391442  9.6146247447591193 15.6823035085275571
  0.0295100992841446  9.6146247447591193 13.4246745688755595
  1.2283529165391442  3.3532610747591249 15.6823035085275571
  1.2806528431081441  5.4403822947591172 14.2074129252225596
  0.0295100992841446  3.3532610747591249 13.4246745688755595
  4.9726391974201452  5.4403822947591172 11.7686117267905566
  1.3329527728511446  7.5275035147591174 12.7325223556995581
  1.3852526994201462  9.6146247447591193 11.2576317723935588
  1.3329527728511446  1.2661398447591199 12.7325223556995581
  1.3852526994201462  3.3532610747591249 11.2576317723935588
  0.1341099555961440  7.5275035147591174 10.4748934160465588
  0.0818100290271442  5.4403822947591172 11.9497839993515562
  0.1341099555961440  1.2661398447591199 10.4748934160465588
  4.0028279956841448  5.4403822947591172 15.1570571280455582
  2.5664380240851443  9.6146247447591193 15.4959101034955591
  3.1533486096651444  9.6146247447591193  7.9838105223575573
  2.5664380240851443  3.3532610747591249 15.4959101034955591
  3.1533486096651444  3.3532610747591249  7.9838105223575573
  4.1649988884681441  7.5275035147591174  9.0583342369965578
  4.5897385816901437  5.4403822947591172  7.6449575327725574
  4.1649988884681441  1.2661398447591199  9.0583342369965578
  1.7169586380671440  7.5275035147591174  8.3226634978075573
  1.2922189448451444  9.6146247447591193  9.7360402020315568
  1.7169586380671440  1.2661398447591199  8.3226634978075573
  1.2922189448451444  3.3532610747591249  9.7360402020315568
  4.7519094744741448  7.5275035147591174 11.5462346417225579
  3.7402591956711446  9.6146247447591193 10.4717109270845583
  2.3038692236471441  7.5275035147591174 10.8105639166695582
  2.7286089168691463  5.4403822947591172  9.3971872124465605
  4.7519094744741448  1.2661398447591199 11.5462346417225579
  3.7402591956711446  3.3532610747591249 10.4717109270845583
  3.3155195024491437  5.4403822947591172 11.8850876313085578
  2.3038692236471441  1.2661398447591199 10.8105639166695582
  4.9203392676771447 13.7888671847591162  3.2435022963145572
  3.6168965972841440 11.7017459647591195  3.9356545232725590
  1.2283529165391442 13.7888671847591162  5.6823035085275571
  1.2806528431081441 11.7017459647591195  4.2074129252225587
  0.0295100992841446 13.7888671847591162  3.4246745688755587
  4.9726391974201452 11.7017459647591195  1.7686117267905574
  1.3852526994201462 13.7888671847591162  1.2576317723935579
  0.0818100290271442 11.7017459647591195  1.9497839993515571
  4.0028279956841448 11.7017459647591195  5.1570571280455590
  5.0144782744861445 13.7888671847591162  6.2315808426835577
  2.5664380240851443 13.7888671847591162  5.4959101034955591
  2.1416983308631439 11.7017459647591195  6.9092868077195568
  3.7402591956711446 13.7888671847591162  0.4717109270845574
  3.3155195024491437 11.7017459647591195  1.8850876313085578
  4.9203392676771447 13.7888671847591162 13.2435022963145563
  3.6168965972841440 11.7017459647591195 13.9356545232725626
  1.2283529165391442 13.7888671847591162 15.6823035085275571
  1.2806528431081441 11.7017459647591195 14.2074129252225596
  0.0295100992841446 13.7888671847591162 13.4246745688755595
  4.9726391974201452 11.7017459647591195 11.7686117267905566
  1.3852526994201462 13.7888671847591162 11.2576317723935588
  0.0818100290271442 11.7017459647591195 11.9497839993515562
  4.0028279956841448 11.7017459647591195 15.1570571280455582
  2.5664380240851443 13.7888671847591162 15.4959101034955591
  3.1533486096651444 13.7888671847591162  7.9838105223575573
  4.5897385816901437 11.7017459647591195  7.6449575327725574
  1.2922189448451444 13.7888671847591162  9.7360402020315568
  2.7286089168691463 11.7017459647591195  9.3971872124465605
  3.7402591956711446 13.7888671847591162 10.4717109270845583
  3.3155195024491437 11.7017459647591195 11.8850876313085578
  8.6737674991491431  9.6146247447591193  5.5917173653565584
  9.9249102429731444  5.4403822947591172  6.3744557217045568
  8.6737674991491431  3.3532610747591249  5.5917173653565584
  6.1191820849321443  9.6146247447591193  5.5011312359675575
  7.4226247553251445  7.5275035147591174  4.8089790090095583
  7.3703248287561447  5.4403822947591172  6.2838695923145576
  6.1191820849321443  3.3532610747591249  5.5011312359675575
  6.1714820115011442  5.4403822947591172  4.0262406526615591
  7.4226247553251445  1.2661398447591199  4.8089790090095583
 13.6691965238531434  7.5275035147591174  2.4607639399665571
 13.6168965972841445  5.4403822947591172  3.9356545232725590
 13.6691965238531434  1.2661398447591199  2.4607639399665571
  9.9772101727151430  7.5275035147591174  4.8995651521805579
 11.2283529165391442  9.6146247447591193  5.6823035085275571
 10.0295100992841455  9.6146247447591193  3.4246745688755587
  9.9772101727151430  1.2661398447591199  4.8995651521805579
 11.2283529165391442  3.3532610747591249  5.6823035085275571
 11.2806528431081432  5.4403822947591172  4.2074129252225587
 10.0295100992841455  3.3532610747591249  3.4246745688755587
  6.2237819412441446  7.5275035147591174  2.5513500831385594
  7.4749246850681432  9.6146247447591193  3.3340884394855586
  8.7783673554611443  7.5275035147591174  2.6419362125275576
  8.7260674288921436  5.4403822947591172  4.1168267958335578
  6.2237819412441446  1.2661398447591199  2.5513500831385594
  7.4749246850681432  3.3532610747591249  3.3340884394855586
  7.5272246116371448  5.4403822947591172  1.8591978561805576
  8.7783673554611443  1.2661398447591199  2.6419362125275576
 11.3329527728511437  7.5275035147591174  2.7325223556995581
 11.3852526994201462  9.6146247447591193  1.2576317723935579
 11.3329527728511437  1.2661398447591199  2.7325223556995581
 11.3852526994201462  3.3532610747591249  1.2576317723935579
  8.8306672852031447  9.6146247447591193  1.1670456430045579
 10.1341099555961449  7.5275035147591174  0.4748934160465588
 10.0818100290271442  5.4403822947591172  1.9497839993515571
  8.8306672852031447  3.3532610747591249  1.1670456430045579
 10.1341099555961449  1.2661398447591199  0.4748934160465588
  7.4625185253121433  9.6146247447591193  6.9672515677365574
  6.0261285532881432  7.5275035147591174  7.3061045573225574
  7.4625185253121433  3.3532610747591249  6.9672515677365574
  6.0261285532881432  1.2661398447591199  7.3061045573225574
 13.5780883028881441  7.5275035147591174  6.5704338181335569
 12.5664380240851443  9.6146247447591193  5.4959101034955591
 13.5780883028881441  1.2661398447591199  6.5704338181335569
 12.5664380240851443  3.3532610747591249  5.4959101034955591
 12.1416983308631430  5.4403822947591172  6.9092868077195568
  6.1882994460721443  9.6146247447591193  1.2073816662725587
  5.1766491672701438  5.4403822947591172  0.1328579516345574
  6.1882994460721443  3.3532610747591249  1.2073816662725587
 13.7402591956711451  9.6146247447591193  0.4717109270845574
 12.3038692236471441  7.5275035147591174  0.8105639166695573
 13.7402591956711451  3.3532610747591249  0.4717109270845574
 13.3155195024491437  5.4403822947591172  1.8850876313085578
 12.3038692236471441  1.2661398447591199  0.8105639166695573
  8.6737674991491431  9.6146247447591193 15.5917173653565584
  8.6737674991491431  3.3532610747591249 15.5917173653565584
  6.1191820849321443  9.6146247447591193 15.5011312359675575
  7.4226247553251445  7.5275035147591174 14.8089790090095583
  6.1191820849321443  3.3532610747591249 15.5011312359675575
  6.1714820115011442  5.4403822947591172 14.0262406526615599
  7.4226247553251445  1.2661398447591199 14.8089790090095583
 13.6691965238531434  7.5275035147591174 12.4607639399665580
 13.6168965972841445  5.4403822947591172 13.9356545232725626
 13.6691965238531434  1.2661398447591199 12.4607639399665580
  9.9772101727151430  7.5275035147591174 14.8995651521805570
 11.2283529165391442  9.6146247447591193 15.6823035085275571
 10.0295100992841455  9.6146247447591193 13.4246745688755595
  9.9772101727151430  1.2661398447591199 14.8995651521805570
 11.2283529165391442  3.3532610747591249 15.6823035085275571
 11.2806528431081432  5.4403822947591172 14.2074129252225596
 10.0295100992841455  3.3532610747591249 13.4246745688755595
  6.2237819412441446  7.5275035147591174 12.5513500831385620
  7.4749246850681432  9.6146247447591193 13.3340884394855586
  8.7783673554611443  7.5275035147591174 12.6419362125275576
  8.7260674288921436  5.4403822947591172 14.1168267958335569
  6.2237819412441446  1.2661398447591199 12.5513500831385620
  7.4749246850681432  3.3532610747591249 13.3340884394855586
  7.5272246116371448  5.4403822947591172 11.8591978561805576
  8.7783673554611443  1.2661398447591199 12.6419362125275576
 11.3329527728511437  7.5275035147591174 12.7325223556995581
 11.3852526994201462  9.6146247447591193 11.2576317723935588
 11.3329527728511437  1.2661398447591199 12.7325223556995581
 11.3852526994201462  3.3532610747591249 11.2576317723935588
  8.8306672852031447  9.6146247447591193 11.1670456430045615
 10.1341099555961449  7.5275035147591174 10.4748934160465588
 10.0818100290271442  5.4403822947591172 11.9497839993515562
  8.8306672852031447  3.3532610747591249 11.1670456430045615
 10.1341099555961449  1.2661398447591199 10.4748934160465588
  9.9105587757131453  9.6146247447591193  7.7029223069255579
  9.9105587757131453  3.3532610747591249  7.7029223069255579
  8.4741688041151448  7.5275035147591174  8.0417752823755571
  8.0494291108921452  9.6146247447591193  9.4551519865995584
  8.4741688041151448  1.2661398447591199  8.0417752823755571
  7.0377788320901447  5.4403822947591172  8.3806282719605569
  8.0494291108921452  3.3532610747591249  9.4551519865995584
  9.4858190829171445  5.4403822947591172  9.1162989970135584
 12.5664380240851443  9.6146247447591193 15.4959101034955591
 13.1533486096651444  9.6146247447591193  7.9838105223575573
 12.5664380240851443  3.3532610747591249 15.4959101034955591
 13.1533486096651444  3.3532610747591249  7.9838105223575573
  6.6130391392941439  7.5275035147591174  9.7940049620485574
  5.6013888604921442  9.6146247447591193  8.7194812474105579
  6.1882994460721443  9.6146247447591193 11.2073816662725587
  6.6130391392941439  1.2661398447591199  9.7940049620485574
  5.6013888604921442  3.3532610747591249  8.7194812474105579
  5.1766491672701438  5.4403822947591172 10.1328579516345574
  6.1882994460721443  3.3532610747591249 11.2073816662725587
 11.7169586380671440  7.5275035147591174  8.3226634978075573
 11.2922189448451444  9.6146247447591193  9.7360402020315568
 11.7169586380671440  1.2661398447591199  8.3226634978075573
 11.2922189448451444  3.3532610747591249  9.7360402020315568
 13.7402591956711451  9.6146247447591193 10.4717109270845583
 12.3038692236471441  7.5275035147591174 10.8105639166695582
 12.7286089168691454  5.4403822947591172  9.3971872124465605
 13.7402591956711451  3.3532610747591249 10.4717109270845583
 13.3155195024491437  5.4403822947591172 11.8850876313085578
 12.3038692236471441  1.2661398447591199 10.8105639166695582
  9.9249102429731444 11.7017459647591195  6.3744557217045568
  8.6737674991491431 13.7888671847591162  5.5917173653565584
  7.3703248287561447 11.7017459647591195  6.2838695923145576
  6.1191820849321443 13.7888671847591162  5.5011312359675575
  6.1714820115011442 11.7017459647591195  4.0262406526615591
 13.6168965972841445 11.7017459647591195  3.9356545232725590
 11.2283529165391442 13.7888671847591162  5.6823035085275571
 11.2806528431081432 11.7017459647591195  4.2074129252225587
 10.0295100992841455 13.7888671847591162  3.4246745688755587
  8.7260674288921436 11.7017459647591195  4.1168267958335578
  7.4749246850681432 13.7888671847591162  3.3340884394855586
  7.5272246116371448 11.7017459647591195  1.8591978561805576
 11.3852526994201462 13.7888671847591162  1.2576317723935579
 10.0818100290271442 11.7017459647591195  1.9497839993515571
  8.8306672852031447 13.7888671847591162  1.1670456430045579
  7.4625185253121433 13.7888671847591162  6.9672515677365574
 12.5664380240851443 13.7888671847591162  5.4959101034955591
 12.1416983308631430 11.7017459647591195  6.9092868077195568
  5.1766491672701438 11.7017459647591195  0.1328579516345574
  6.1882994460721443 13.7888671847591162  1.2073816662725587
 13.7402591956711451 13.7888671847591162  0.4717109270845574
 13.3155195024491437 11.7017459647591195  1.8850876313085578
  8.6737674991491431 13.7888671847591162 15.5917173653565584
  6.1191820849321443 13.7888671847591162 15.5011312359675575
  6.1714820115011442 11.7017459647591195 14.0262406526615599
 13.6168965972841445 11.7017459647591195 13.9356545232725626
 11.2283529165391442 13.7888671847591162 15.6823035085275571
 11.2806528431081432 11.7017459647591195 14.2074129252225596
 10.0295100992841455 13.7888671847591162 13.4246745688755595
  8.7260674288921436 11.7017459647591195 14.1168267958335569
  7.4749246850681432 13.7888671847591162 13.3340884394855586
  7.5272246116371448 11.7017459647591195 11.8591978561805576
 11.3852526994201462 13.7888671847591162 11.2576317723935588
 10.0818100290271442 11.7017459647591195 11.9497839993515562
  8.8306672852031447 13.7888671847591162 11.1670456430045615
  9.9105587757131453 13.7888671847591162  7.7029223069255579
  7.0377788320901447 11.7017459647591195  8.3806282719605569
  8.0494291108921452 13.7888671847591162  9.4551519865995584
  9.4858190829171445 11.7017459647591195  9.1162989970135584
 12.5664380240851443 13.7888671847591162 15.4959101034955591
 13.1533486096651444 13.7888671847591162  7.9838105223575573
  5.6013888604921442 13.7888671847591162  8.7194812474105579
  5.1766491672701438 11.7017459647591195 10.1328579516345574
  6.1882994460721443 13.7888671847591162 11.2073816662725587
 11.2922189448451444 13.7888671847591162  9.7360402020315568
 12.7286089168691454 11.7017459647591195  9.3971872124465605
 13.7402591956711451 13.7888671847591162 10.4717109270845583
 13.3155195024491437 11.7017459647591195 11.8850876313085578
