Cu
 1.0000000000000000
    13.2417039395287262    0.0000000000000000    0.0000000000000000
     0.0000000000000000   17.8769687354812916    0.0000000000000000
     0.0000000000000000    0.0000000000000000   13.5443319269512337
 Cu 
 288
Cartesian
  2.7205955681589180  0.9234938876055487  6.3382730513492671
  3.9717383119829184  5.0977363376055465  7.1210114076972655
  3.9717383119829184 17.6204636776055459  7.1210114076972655
  2.7205955681589180 15.5333424576055528  6.3382730513492671
  3.9717383119829184 11.3591000076055479  7.1210114076972655
  2.7205955681589180  9.2719787876055477  6.3382730513492671
  8.9148674101179211  3.0106151076055490  5.4649485656122669
  0.1660101539419178  0.9234938876055487  6.2476869219602662
  8.9671673366869182  0.9234938876055487  3.9900579823072655
  1.4694528243349181  3.0106151076055490  5.5555346950022670
  1.4171528977659178  5.0977363376055465  7.0304252783072654
  0.2183100805109177  5.0977363376055465  4.7727963386542678
  1.4171528977659178 17.6204636776055459  7.0304252783072654
  8.9148674101179211 13.4462212276055482  5.4649485656122669
  0.1660101539419178 15.5333424576055528  6.2476869219602662
  0.2183100805109177 17.6204636776055459  4.7727963386542678
  8.9671673366869182 15.5333424576055528  3.9900579823072655
  1.4694528243349181 13.4462212276055482  5.5555346950022670
  1.4171528977659178 11.3591000076055479  7.0304252783072654
  8.9148674101179211  7.1848575676055475  5.4649485656122669
  0.1660101539419178  9.2719787876055477  6.2476869219602662
  0.2183100805109177 11.3591000076055479  4.7727963386542678
  8.9671673366869182  9.2719787876055477  3.9900579823072655
  1.4694528243349181  7.1848575676055475  5.5555346950022670
  7.7160245928629179  3.0106151076055490  3.2073196259592658
  7.6637246662939180  5.0977363376055465  4.6822102092652678
  7.6637246662939180 17.6204636776055459  4.6822102092652678
  7.7160245928629179 13.4462212276055482  3.2073196259592658
  7.6637246662939180 11.3591000076055479  4.6822102092652678
  7.7160245928629179  7.1848575676055475  3.2073196259592658
  4.0240382417249174  3.0106151076055490  5.6461208381732666
  5.2751809855489178  0.9234938876055487  6.4288591945202658
  4.0763381682939182  0.9234938876055487  4.1712302548682674
  5.3274809121179176  5.0977363376055465  4.9539686112152674
  4.0240382417249174 13.4462212276055482  5.6461208381732666
  5.2751809855489178 15.5333424576055528  6.4288591945202658
  5.3274809121179176 17.6204636776055459  4.9539686112152674
  4.0763381682939182 15.5333424576055528  4.1712302548682674
  4.0240382417249174  7.1848575676055475  5.6461208381732666
  5.2751809855489178  9.2719787876055477  6.4288591945202658
  5.3274809121179176 11.3591000076055479  4.9539686112152674
  4.0763381682939182  9.2719787876055477  4.1712302548682674
  0.2706100102539177  3.0106151076055490  3.2979057691312681
  1.5217527540779181  0.9234938876055487  4.0806441254782673
  2.8251954244709179  3.0106151076055490  3.3884918985202663
  2.7728954979019180  5.0977363376055465  4.8633824818262665
  1.5740526806469179  5.0977363376055465  2.6057535421732663
  2.7728954979019180 17.6204636776055459  4.8633824818262665
  0.2706100102539177 13.4462212276055482  3.2979057691312681
  1.5217527540779181 15.5333424576055528  4.0806441254782673
  1.5740526806469179 17.6204636776055459  2.6057535421732663
  2.8251954244709179 13.4462212276055482  3.3884918985202663
  2.7728954979019180 11.3591000076055479  4.8633824818262665
  0.2706100102539177  7.1848575676055475  3.2979057691312681
  1.5217527540779181  9.2719787876055477  4.0806441254782673
  1.5740526806469179 11.3591000076055479  2.6057535421732663
  2.8251954244709179  7.1848575676055475  3.3884918985202663
  9.0194672664299187  5.0977363376055465  2.5151674127832662
  9.0194672664299187 17.6204636776055459  2.5151674127832662
  9.0194672664299187 11.3591000076055479  2.5151674127832662
  5.3797808418609181  3.0106151076055490  3.4790780416922669
  5.4320807684299197  0.9234938876055487  2.0041874583862667
  5.3797808418609181 13.4462212276055482  3.4790780416922669
  5.4320807684299197 15.5333424576055528  2.0041874583862667
  5.3797808418609181  7.1848575676055475  3.4790780416922669
  5.4320807684299197  9.2719787876055477  2.0041874583862667
  2.8774953542129187  0.9234938876055487  1.9136013289972664
  4.1809380246059176  3.0106151076055490  1.2214491020392670
  4.1286380980369186  5.0977363376055465  2.6963396853442658
  4.1286380980369186 17.6204636776055459  2.6963396853442658
  2.8774953542129187 15.5333424576055528  1.9136013289972664
  4.1809380246059176 13.4462212276055482  1.2214491020392670
  4.1286380980369186 11.3591000076055479  2.6963396853442658
  2.8774953542129187  9.2719787876055477  1.9136013289972664
  4.1809380246059176  7.1848575676055475  1.2214491020392670
  9.0613063434959180  0.9234938876055487  6.9781365286762655
  8.0496560646939184  5.0977363376055465  5.9036128140382678
  8.0496560646939184 17.6204636776055459  5.9036128140382678
  9.0613063434959180 15.5333424576055528  6.9781365286762655
  8.0496560646939184 11.3591000076055479  5.9036128140382678
  9.0613063434959180  9.2719787876055477  6.9781365286762655
  1.5093465943219178  0.9234938876055487  7.7138072537292670
  2.0962571799019183  0.9234938876055487  0.2017076725922666
  0.0729566222979180  3.0106151076055490  8.0526602433152661
  1.5093465943219178 15.5333424576055528  7.7138072537292670
  2.0962571799019183 15.5333424576055528  0.2017076725922666
  0.0729566222979180 13.4462212276055482  8.0526602433152661
  1.5093465943219178  9.2719787876055477  7.7138072537292670
  2.0962571799019183  9.2719787876055477  0.2017076725922666
  0.0729566222979180  7.1848575676055475  8.0526602433152661
  7.6249163718979185  3.0106151076055490  7.3169895041262665
  6.6132660930949179  0.9234938876055487  6.2424657894882678
  6.1885263998729174  5.0977363376055465  7.6558424937122664
  7.6249163718979185 13.4462212276055482  7.3169895041262665
  6.6132660930949179 15.5333424576055528  6.2424657894882678
  6.1885263998729174 17.6204636776055459  7.6558424937122664
  7.6249163718979185  7.1848575676055475  7.3169895041262665
  6.6132660930949179  9.2719787876055477  6.2424657894882678
  6.1885263998729174 11.3591000076055479  7.6558424937122664
  0.6598672083039177  3.0106151076055490  0.5405606480412661
  0.2351275150819176  0.9234938876055487  1.9539373522652672
  0.6598672083039177 13.4462212276055482  0.5405606480412661
  0.2351275150819176 15.5333424576055528  1.9539373522652672
  0.6598672083039177  7.1848575676055475  0.5405606480412661
  0.2351275150819176  9.2719787876055477  1.9539373522652672
  5.3390470138549180  0.9234938876055487  0.4825958880242660
  5.3390470138549180 15.5333424576055528  0.4825958880242660
  5.3390470138549180  9.2719787876055477  0.4825958880242660
  8.7987375434839183  3.0106151076055490  2.2927903277152666
  7.7870872646809195  0.9234938876055487  1.2182666130772661
  6.3506972926569176  3.0106151076055490  1.5571196026622660
  6.7754369858789216  5.0977363376055465  0.1437428984392661
  7.3623475714589190  5.0977363376055465  2.6316433173012665
  6.7754369858789216 17.6204636776055459  0.1437428984392661
  8.7987375434839183 13.4462212276055482  2.2927903277152666
  7.7870872646809195 15.5333424576055528  1.2182666130772661
  7.3623475714589190 17.6204636776055459  2.6316433173012665
  6.3506972926569176 13.4462212276055482  1.5571196026622660
  6.7754369858789216 11.3591000076055479  0.1437428984392661
  8.7987375434839183  7.1848575676055475  2.2927903277152666
  7.7870872646809195  9.2719787876055477  1.2182666130772661
  7.3623475714589190 11.3591000076055479  2.6316433173012665
  6.3506972926569176  7.1848575676055475  1.5571196026622660
  7.7160245928629179  3.0106151076055490 13.2073196259592667
  7.7160245928629179 13.4462212276055482 13.2073196259592667
  7.7160245928629179  7.1848575676055475 13.2073196259592667
  0.2706100102539177  3.0106151076055490 13.2979057691312672
  2.8251954244709179  3.0106151076055490 13.3884918985202663
  1.5740526806469179  5.0977363376055465 12.6057535421732663
  0.2706100102539177 13.4462212276055482 13.2979057691312672
  1.5740526806469179 17.6204636776055459 12.6057535421732663
  2.8251954244709179 13.4462212276055482 13.3884918985202663
  0.2706100102539177  7.1848575676055475 13.2979057691312672
  1.5740526806469179 11.3591000076055479 12.6057535421732663
  2.8251954244709179  7.1848575676055475 13.3884918985202663
  9.0194672664299187  5.0977363376055465 12.5151674127832653
  9.0194672664299187 17.6204636776055459 12.5151674127832653
  9.0194672664299187 11.3591000076055479 12.5151674127832653
  5.3797808418609181  3.0106151076055490 13.4790780416922669
  5.4320807684299197  0.9234938876055487 12.0041874583862676
  5.3797808418609181 13.4462212276055482 13.4790780416922669
  5.4320807684299197 15.5333424576055528 12.0041874583862676
  5.3797808418609181  7.1848575676055475 13.4790780416922669
  5.4320807684299197  9.2719787876055477 12.0041874583862676
  2.8774953542129187  0.9234938876055487 11.9136013289972666
  4.1809380246059176  3.0106151076055490 11.2214491020392675
  4.1286380980369186  5.0977363376055465 12.6963396853442649
  4.1286380980369186 17.6204636776055459 12.6963396853442649
  2.8774953542129187 15.5333424576055528 11.9136013289972666
  4.1809380246059176 13.4462212276055482 11.2214491020392675
  4.1286380980369186 11.3591000076055479 12.6963396853442649
  2.8774953542129187  9.2719787876055477 11.9136013289972666
  4.1809380246059176  7.1848575676055475 11.2214491020392675
  3.9573868447229179  0.9234938876055487  8.4494779929182666
  3.9573868447229179 15.5333424576055528  8.4494779929182666
  3.9573868447229179  9.2719787876055477  8.4494779929182666
  2.5209968731249179  3.0106151076055490  8.7883309683682658
  2.0962571799019183  0.9234938876055487 10.2017076725922671
  1.0846069010999180  5.0977363376055465  9.1271839579532656
  2.5209968731249179 13.4462212276055482  8.7883309683682658
  1.0846069010999180 17.6204636776055459  9.1271839579532656
  2.0962571799019183 15.5333424576055528 10.2017076725922671
  2.5209968731249179  7.1848575676055475  8.7883309683682658
  1.0846069010999180 11.3591000076055479  9.1271839579532656
  2.0962571799019183  9.2719787876055477 10.2017076725922671
  3.5326471519269180  5.0977363376055465  9.8628546830062671
  3.5326471519269180 17.6204636776055459  9.8628546830062671
  3.5326471519269180 11.3591000076055479  9.8628546830062671
  7.2001766786749180  0.9234938876055487  8.7303662083502669
  7.2001766786749180 15.5333424576055528  8.7303662083502669
  7.2001766786749180  9.2719787876055477  8.7303662083502669
  0.6598672083039177  3.0106151076055490 10.5405606480412661
  0.2351275150819176  0.9234938876055487 11.9539373522652674
  8.2118269574779195  3.0106151076055490  9.8048899229892665
  8.6365666506999172  5.0977363376055465  8.3915132187652670
  8.6365666506999172 17.6204636776055459  8.3915132187652670
  0.6598672083039177 13.4462212276055482 10.5405606480412661
  0.2351275150819176 15.5333424576055528 11.9539373522652674
  8.2118269574779195 13.4462212276055482  9.8048899229892665
  8.6365666506999172 11.3591000076055479  8.3915132187652670
  0.6598672083039177  7.1848575676055475 10.5405606480412661
  0.2351275150819176  9.2719787876055477 11.9539373522652674
  8.2118269574779195  7.1848575676055475  9.8048899229892665
  5.7637867070769175  3.0106151076055490  9.0692191838002660
  5.3390470138549180  0.9234938876055487 10.4825958880242656
  5.7637867070769175 13.4462212276055482  9.0692191838002660
  5.3390470138549180 15.5333424576055528 10.4825958880242656
  5.7637867070769175  7.1848575676055475  9.0692191838002660
  5.3390470138549180  9.2719787876055477 10.4825958880242656
  8.7987375434839183  3.0106151076055490 12.2927903277152666
  7.7870872646809195  0.9234938876055487 11.2182666130772670
  6.3506972926569176  3.0106151076055490 11.5571196026622669
  6.7754369858789216  5.0977363376055465 10.1437428984392657
  7.3623475714589190  5.0977363376055465 12.6316433173012665
  6.7754369858789216 17.6204636776055459 10.1437428984392657
  8.7987375434839183 13.4462212276055482 12.2927903277152666
  7.7870872646809195 15.5333424576055528 11.2182666130772670
  7.3623475714589190 17.6204636776055459 12.6316433173012665
  6.3506972926569176 13.4462212276055482 11.5571196026622669
  6.7754369858789216 11.3591000076055479 10.1437428984392657
  8.7987375434839183  7.1848575676055475 12.2927903277152666
  7.7870872646809195  9.2719787876055477 11.2182666130772670
  7.3623475714589190 11.3591000076055479 12.6316433173012665
  6.3506972926569176  7.1848575676055475 11.5571196026622669
 12.7205955681589185  0.9234938876055487  6.3382730513492671
 12.7205955681589185 15.5333424576055528  6.3382730513492671
 12.7205955681589185  9.2719787876055477  6.3382730513492671
 10.1660101539419205  0.9234938876055487  6.2476869219602662
 11.4694528243349172  3.0106151076055490  5.5555346950022670
 11.4171528977659200  5.0977363376055465  7.0304252783072654
 10.2183100805109177  5.0977363376055465  4.7727963386542678
 11.4171528977659200 17.6204636776055459  7.0304252783072654
 10.1660101539419205 15.5333424576055528  6.2476869219602662
 10.2183100805109177 17.6204636776055459  4.7727963386542678
 11.4694528243349172 13.4462212276055482  5.5555346950022670
 11.4171528977659200 11.3591000076055479  7.0304252783072654
 10.1660101539419205  9.2719787876055477  6.2476869219602662
 10.2183100805109177 11.3591000076055479  4.7727963386542678
 11.4694528243349172  7.1848575676055475  5.5555346950022670
 10.2706100102539182  3.0106151076055490  3.2979057691312681
 11.5217527540779177  0.9234938876055487  4.0806441254782673
 12.8251954244709214  3.0106151076055490  3.3884918985202663
 12.7728954979019189  5.0977363376055465  4.8633824818262665
 11.5740526806469184  5.0977363376055465  2.6057535421732663
 12.7728954979019189 17.6204636776055459  4.8633824818262665
 10.2706100102539182 13.4462212276055482  3.2979057691312681
 11.5217527540779177 15.5333424576055528  4.0806441254782673
 11.5740526806469184 17.6204636776055459  2.6057535421732663
 12.8251954244709214 13.4462212276055482  3.3884918985202663
 12.7728954979019189 11.3591000076055479  4.8633824818262665
 10.2706100102539182  7.1848575676055475  3.2979057691312681
 11.5217527540779177  9.2719787876055477  4.0806441254782673
 11.5740526806469184 11.3591000076055479  2.6057535421732663
 12.8251954244709214  7.1848575676055475  3.3884918985202663
 12.8774953542129182  0.9234938876055487  1.9136013289972664
 12.8774953542129182 15.5333424576055528  1.9136013289972664
 12.8774953542129182  9.2719787876055477  1.9136013289972664
 11.5093465943219169  0.9234938876055487  7.7138072537292670
 12.0962571799019170  0.9234938876055487  0.2017076725922666
 10.0729566222979212  3.0106151076055490  8.0526602433152661
 11.5093465943219169 15.5333424576055528  7.7138072537292670
 12.0962571799019170 15.5333424576055528  0.2017076725922666
 10.0729566222979212 13.4462212276055482  8.0526602433152661
 11.5093465943219169  9.2719787876055477  7.7138072537292670
 12.0962571799019170  9.2719787876055477  0.2017076725922666
 10.0729566222979212  7.1848575676055475  8.0526602433152661
 10.6598672083039183  3.0106151076055490  0.5405606480412661
 10.2351275150819170  0.9234938876055487  1.9539373522652672
  9.2234772362799173  5.0977363376055465  0.8794136376272664
 10.6598672083039183 13.4462212276055482  0.5405606480412661
  9.2234772362799173 17.6204636776055459  0.8794136376272664
 10.2351275150819170 15.5333424576055528  1.9539373522652672
 10.6598672083039183  7.1848575676055475  0.5405606480412661
  9.2234772362799173 11.3591000076055479  0.8794136376272664
 10.2351275150819170  9.2719787876055477  1.9539373522652672
 10.2706100102539182  3.0106151076055490 13.2979057691312672
 12.8251954244709214  3.0106151076055490 13.3884918985202663
 11.5740526806469184  5.0977363376055465 12.6057535421732663
 10.2706100102539182 13.4462212276055482 13.2979057691312672
 11.5740526806469184 17.6204636776055459 12.6057535421732663
 12.8251954244709214 13.4462212276055482 13.3884918985202663
 10.2706100102539182  7.1848575676055475 13.2979057691312672
 11.5740526806469184 11.3591000076055479 12.6057535421732663
 12.8251954244709214  7.1848575676055475 13.3884918985202663
 12.8774953542129182  0.9234938876055487 11.9136013289972666
 12.8774953542129182 15.5333424576055528 11.9136013289972666
 12.8774953542129182  9.2719787876055477 11.9136013289972666
 12.5209968731249184  3.0106151076055490  8.7883309683682658
 12.0962571799019170  0.9234938876055487 10.2017076725922671
 11.0846069010999173  5.0977363376055465  9.1271839579532656
 12.5209968731249184 13.4462212276055482  8.7883309683682658
 11.0846069010999173 17.6204636776055459  9.1271839579532656
 12.0962571799019170 15.5333424576055528 10.2017076725922671
 12.5209968731249184  7.1848575676055475  8.7883309683682658
 11.0846069010999173 11.3591000076055479  9.1271839579532656
 12.0962571799019170  9.2719787876055477 10.2017076725922671
 10.6598672083039183  3.0106151076055490 10.5405606480412661
  9.6482169295019204  0.9234938876055487  9.4660369334032666
 10.2351275150819170  0.9234938876055487 11.9539373522652674
  9.2234772362799173  5.0977363376055465 10.8794136376272661
 10.6598672083039183 13.4462212276055482 10.5405606480412661
  9.6482169295019204 15.5333424576055528  9.4660369334032666
  9.2234772362799173 17.6204636776055459 10.8794136376272661
 10.2351275150819170 15.5333424576055528 11.9539373522652674
 10.6598672083039183  7.1848575676055475 10.5405606480412661
  9.6482169295019204  9.2719787876055477  9.4660369334032666
  9.2234772362799173 11.3591000076055479 10.8794136376272661
 10.2351275150819170  9.2719787876055477 11.9539373522652674
