Cu
 1.0000000000000000
    13.3850227713800258    0.0000000000000000    0.0000000000000000
     0.0000000000000000   12.7337680465935854    0.0000000000000000
     0.0000000000000000    0.0000000000000000   13.4682658310425509
 Cu 
 176
Cartesian
  1.0717734953953419  5.5015159681328143  8.4985065063560672
  6.0149025935303433  7.5886371881328145  6.8424436642710686
  6.0672025200993422  9.6757584181328156  5.3675530809660676
  6.0149025935303433  1.3272735181328166  6.8424436642710686
  6.0672025200993422  3.4143947481328216  5.3675530809660676
  4.8160597762753410  7.5886371881328145  4.5848147246180675
  4.7637598497063420  5.5015159681328143  6.0597053079240677
  4.8160597762753410  1.3272735181328166  4.5848147246180675
  1.1240734251373417  7.5886371881328145  7.0236159368320665
  2.3752161689613418  9.6757584181328156  7.8063542931790657
  1.1763733517063426  9.6757584181328156  5.5487253535270691
  1.1240734251373417  1.3272735181328166  7.0236159368320665
  2.3752161689613418  3.4143947481328216  7.8063542931790657
  2.4275160955303416  5.5015159681328143  6.3314637098740683
  1.1763733517063426  3.4143947481328216  5.5487253535270691
  6.1195024498423427  5.5015159681328143  3.8926625114420679
  2.4798160252733430  7.5886371881328145  4.8565731403510686
  2.5321159518423437  9.6757584181328156  3.3816825570450684
  2.4798160252733430  1.3272735181328166  4.8565731403510686
  2.5321159518423437  3.4143947481328216  3.3816825570450684
  1.2809732080183416  7.5886371881328145  2.5989442006980688
  1.2286732814493417  5.5015159681328143  4.0738347840030675
  1.2809732080183416  1.3272735181328166  2.5989442006980688
  6.1613415269083429  9.6757584181328156  8.3556316273350681
  5.1496912481063433  5.5015159681328143  7.2811079126970695
  6.1613415269083429  3.4143947481328216  8.3556316273350681
  0.6326823353393420  5.5015159681328143  1.2403497816650679
  4.7249515553103416  7.5886371881328145  8.6944846027850655
  3.7133012765073419  9.6757584181328156  7.6199608881470695
  4.3002118620873420  9.6757584181328156  0.1078613070090680
  4.7249515553103416  1.3272735181328166  8.6944846027850655
  3.7133012765073419  3.4143947481328216  7.6199608881470695
  3.2885615832853414  5.5015159681328143  9.0333375923710655
  4.3002118620873420  3.4143947481328216  0.1078613070090680
  5.3118621408903426  7.5886371881328145  1.1823850216480678
  5.3118621408903426  1.3272735181328166  1.1823850216480678
  2.8638218904893415  7.5886371881328145  0.4467142824590679
  2.4390821972673424  9.6757584181328156  1.8600909866830675
  2.8638218904893415  1.3272735181328166  0.4467142824590679
  2.4390821972673424  3.4143947481328216  1.8600909866830675
  5.8987727268963441  7.5886371881328145  3.6702854263740678
  4.8871224480933435  9.6757584181328156  2.5957617117360670
  3.4507324760693425  7.5886371881328145  2.9346147013210668
  3.8754721692913443  5.5015159681328143  1.5212379970980678
  5.8987727268963441  1.3272735181328166  3.6702854263740678
  4.8871224480933435  3.4143947481328216  2.5957617117360670
  4.4623827548713413  5.5015159681328143  4.0091384159600683
  3.4507324760693425  1.3272735181328166  2.9346147013210668
  2.5321159518423437  9.6757584181328156 13.3816825570450693
  2.5321159518423437  3.4143947481328216 13.3816825570450693
  1.2809732080183416  7.5886371881328145 12.5989442006980656
  1.2809732080183416  1.3272735181328166 12.5989442006980656
  1.0574220281353421  9.6757584181328156  9.8269730915770683
  1.0574220281353421  3.4143947481328216  9.8269730915770683
  0.6326823353393420  5.5015159681328143 11.2403497816650688
  4.3002118620873420  9.6757584181328156 10.1078613070090686
  4.3002118620873420  3.4143947481328216 10.1078613070090686
  5.3118621408903426  7.5886371881328145 11.1823850216480665
  5.7366018341123413  5.5015159681328143  9.7690083174240687
  5.3118621408903426  1.3272735181328166 11.1823850216480665
  2.8638218904893415  7.5886371881328145 10.4467142824590642
  2.4390821972673424  9.6757584181328156 11.8600909866830673
  2.8638218904893415  1.3272735181328166 10.4467142824590642
  2.4390821972673424  3.4143947481328216 11.8600909866830673
  4.8871224480933435  9.6757584181328156 12.5957617117360652
  3.4507324760693425  7.5886371881328145 12.9346147013210651
  3.8754721692913443  5.5015159681328143 11.5212379970980674
  4.8871224480933435  3.4143947481328216 12.5957617117360652
  3.4507324760693425  1.3272735181328166 12.9346147013210651
  1.0717734953953419 11.7628796381328158  8.4985065063560672
  4.7637598497063420 11.7628796381328158  6.0597053079240677
  2.4275160955303416 11.7628796381328158  6.3314637098740683
  6.1195024498423427 11.7628796381328158  3.8926625114420679
  1.2286732814493417 11.7628796381328158  4.0738347840030675
  5.1496912481063433 11.7628796381328158  7.2811079126970695
  0.6326823353393420 11.7628796381328158  1.2403497816650679
  3.2885615832853414 11.7628796381328158  9.0333375923710655
  3.8754721692913443 11.7628796381328158  1.5212379970980678
  4.4623827548713413 11.7628796381328158  4.0091384159600683
  0.6326823353393420 11.7628796381328158 11.2403497816650688
  5.7366018341123413 11.7628796381328158  9.7690083174240687
  3.8754721692913443 11.7628796381328158 11.5212379970980674
  9.8206307515713416  9.6757584181328156  7.7157681500080688
 11.0717734953953428  5.5015159681328143  8.4985065063560672
  9.8206307515713416  3.4143947481328216  7.7157681500080688
  7.2660453373543428  9.6757584181328156  7.6251820206190670
  8.5694880077473421  7.5886371881328145  6.9330297936610688
  8.5171880811783414  5.5015159681328143  8.4079203769660680
  7.2660453373543428  3.4143947481328216  7.6251820206190670
  7.3183452639233426  5.5015159681328143  6.1502914373130677
  8.5694880077473421  1.3272735181328166  6.9330297936610688
 11.1240734251373414  7.5886371881328145  7.0236159368320665
 12.3752161689613445  9.6757584181328156  7.8063542931790657
 11.1763733517063457  9.6757584181328156  5.5487253535270691
 11.1240734251373414  1.3272735181328166  7.0236159368320665
 12.3752161689613445  3.4143947481328216  7.8063542931790657
 12.4275160955303416  5.5015159681328143  6.3314637098740683
 11.1763733517063457  3.4143947481328216  5.5487253535270691
  7.3706451936663413  7.5886371881328145  4.6754008677900698
  8.6217879374903426  9.6757584181328156  5.4581392241370681
  9.9252306078833428  7.5886371881328145  4.7659869971790680
  9.8729306813143420  5.5015159681328143  6.2408775804850682
  7.3706451936663413  1.3272735181328166  4.6754008677900698
  8.6217879374903426  3.4143947481328216  5.4581392241370681
  8.6740878640593415  5.5015159681328143  3.9832486408320675
  9.9252306078833428  1.3272735181328166  4.7659869971790680
 12.4798160252733457  7.5886371881328145  4.8565731403510686
 12.5321159518423428  9.6757584181328156  3.3816825570450684
 12.4798160252733457  1.3272735181328166  4.8565731403510686
 12.5321159518423428  3.4143947481328216  3.3816825570450684
  9.9775305376253431  9.6757584181328156  3.2910964276560675
 11.2809732080183416  7.5886371881328145  2.5989442006980688
 11.2286732814493444  5.5015159681328143  4.0738347840030675
  9.9775305376253431  3.4143947481328216  3.2910964276560675
 11.2809732080183416  1.3272735181328166  2.5989442006980688
  9.6210320565373415  7.5886371881328145  0.1658260670270679
  8.6093817777343435  9.6757584181328156  9.0913023523880678
  9.1962923633143454  9.6757584181328156  1.5792027712510683
  7.1729918057103434  7.5886371881328145  9.4301553419740678
  9.6210320565373415  1.3272735181328166  0.1658260670270679
  8.6093817777343435  3.4143947481328216  9.0913023523880678
  8.1846420845123422  5.5015159681328143  0.5046790566120681
  9.1962923633143454  3.4143947481328216  1.5792027712510683
  7.1729918057103434  1.3272735181328166  9.4301553419740678
 10.6326823353393429  5.5015159681328143  1.2403497816650679
 13.2885615832853450  5.5015159681328143  9.0333375923710655
  7.7599023917163414  7.5886371881328145  1.9180557467000676
  6.7482521129143427  9.6757584181328156  0.8435320320620677
  7.3351626984943428  9.6757584181328156  3.3314324509240683
  7.7599023917163414  1.3272735181328166  1.9180557467000676
  6.7482521129143427  3.4143947481328216  0.8435320320620677
  6.3235124196923422  5.5015159681328143  2.2569087362860683
  7.3351626984943428  3.4143947481328216  3.3314324509240683
 12.8638218904893442  7.5886371881328145  0.4467142824590679
 12.4390821972673429  9.6757584181328156  1.8600909866830675
 12.8638218904893442  1.3272735181328166  0.4467142824590679
 12.4390821972673429  3.4143947481328216  1.8600909866830675
 12.5321159518423428  9.6757584181328156 13.3816825570450693
 12.5321159518423428  3.4143947481328216 13.3816825570450693
  9.9775305376253431  9.6757584181328156 13.2910964276560684
 11.2809732080183416  7.5886371881328145 12.5989442006980656
  9.9775305376253431  3.4143947481328216 13.2910964276560684
 11.2809732080183416  1.3272735181328166 12.5989442006980656
 11.0574220281353455  9.6757584181328156  9.8269730915770683
 11.0574220281353455  3.4143947481328216  9.8269730915770683
  9.6210320565373415  7.5886371881328145 10.1658260670270639
  9.1962923633143454  9.6757584181328156 11.5792027712510670
  9.6210320565373415  1.3272735181328166 10.1658260670270639
  8.1846420845123422  5.5015159681328143 10.5046790566120674
  9.1962923633143454  3.4143947481328216 11.5792027712510670
 10.6326823353393429  5.5015159681328143 11.2403497816650688
  7.7599023917163414  7.5886371881328145 11.9180557467000678
  6.7482521129143427  9.6757584181328156 10.8435320320620665
  7.3351626984943428  9.6757584181328156 13.3314324509240656
  7.7599023917163414  1.3272735181328166 11.9180557467000678
  6.7482521129143427  3.4143947481328216 10.8435320320620665
  6.3235124196923422  5.5015159681328143 12.2569087362860678
  7.3351626984943428  3.4143947481328216 13.3314324509240656
 12.8638218904893442  7.5886371881328145 10.4467142824590642
 12.4390821972673429  9.6757584181328156 11.8600909866830673
 12.8638218904893442  1.3272735181328166 10.4467142824590642
 12.4390821972673429  3.4143947481328216 11.8600909866830673
 11.0717734953953428 11.7628796381328158  8.4985065063560672
  8.5171880811783414 11.7628796381328158  8.4079203769660680
  7.3183452639233426 11.7628796381328158  6.1502914373130677
 12.4275160955303416 11.7628796381328158  6.3314637098740683
  9.8729306813143420 11.7628796381328158  6.2408775804850682
  8.6740878640593415 11.7628796381328158  3.9832486408320675
 11.2286732814493444 11.7628796381328158  4.0738347840030675
  8.1846420845123422 11.7628796381328158  0.5046790566120681
 10.6326823353393429 11.7628796381328158  1.2403497816650679
 13.2885615832853450 11.7628796381328158  9.0333375923710655
  6.3235124196923422 11.7628796381328158  2.2569087362860683
  8.1846420845123422 11.7628796381328158 10.5046790566120674
 10.6326823353393429 11.7628796381328158 11.2403497816650688
  6.3235124196923422 11.7628796381328158 12.2569087362860678
