Cu
 1.0000000000000000
    16.4322891483123961    0.0000000000000000    0.0000000000000000
     0.0000000000000000   12.8686059290835484    0.0000000000000000
     0.0000000000000000    0.0000000000000000   17.3779207443184944
 Cu 
 286
Cartesian
  3.5048502138956197  9.2917933805487287  5.3638875676661399
  4.7559929577196201  5.1175509305487275  6.1466259240141383
  3.5048502138956197  3.0304297105487343  5.3638875676661399
  9.6991220558546232  7.2046721505487277  4.4905630819291398
  0.9502647996786201  9.2917933805487287  5.2733014382771390
  9.7514219824236203  9.2917933805487287  3.0156724986241388
  2.2537074700716202  7.2046721505487277  4.5811492113191399
  2.2014075435026199  5.1175509305487275  6.0560397946241391
  9.6991220558546232  0.9433084805487296  4.4905630819291398
  0.9502647996786201  3.0304297105487343  5.2733014382771390
  1.0025647262476198  5.1175509305487275  3.7984108549711406
  9.7514219824236203  3.0304297105487343  3.0156724986241388
  2.2537074700716202  0.9433084805487296  4.5811492113191399
  8.5002792385996191  7.2046721505487277  2.2329341422761395
  8.4479793120306237  5.1175509305487275  3.7078247255821415
  8.5002792385996191  0.9433084805487296  2.2329341422761395
  4.8082928874616195  7.2046721505487277  4.6717353544901394
  6.0594356312856199  9.2917933805487287  5.4544737108371386
  4.8605928140306203  9.2917933805487287  3.1968447711851407
  4.8082928874616195  0.9433084805487296  4.6717353544901394
  6.0594356312856199  3.0304297105487343  5.4544737108371386
  6.1117355578546197  5.1175509305487275  3.9795831275321412
  4.8605928140306203  3.0304297105487343  3.1968447711851407
  1.0548646559906203  7.2046721505487277  2.3235202854481418
  2.3060073998146198  9.2917933805487287  3.1062586417951401
  3.6094500702076200  7.2046721505487277  2.4141064148371392
  3.5571501436386201  5.1175509305487275  3.8889969981431398
  1.0548646559906203  0.9433084805487296  2.3235202854481418
  2.3060073998146198  3.0304297105487343  3.1062586417951401
  2.3583073263836201  5.1175509305487275  1.6313680584901391
  3.6094500702076200  0.9433084805487296  2.4141064148371392
  9.8037219121666208  5.1175509305487275  1.5407819291001390
  6.1640354875976202  7.2046721505487277  2.5046925580091397
  6.2163354141666218  9.2917933805487287  1.0298019747031395
  6.1640354875976202  0.9433084805487296  2.5046925580091397
  6.2163354141666218  3.0304297105487343  1.0298019747031395
  3.6617499999496208  9.2917933805487287  0.9392158453141395
  4.9651926703426197  7.2046721505487277  0.2470636183561404
  4.9128927437736198  5.1175509305487275  1.7219542016611387
  3.6617499999496208  3.0304297105487343  0.9392158453141395
  4.9651926703426197  0.9433084805487296  0.2470636183561404
  9.8455609892326201  9.2917933805487287  6.0037510449931393
  8.8339107104306205  5.1175509305487275  4.9292273303551406
  9.8455609892326201  3.0304297105487343  6.0037510449931393
  2.2936012400586199  9.2917933805487287  6.7394217700461390
  0.8572112680346203  7.2046721505487277  7.0782747596321389
  2.2936012400586199  3.0304297105487343  6.7394217700461390
  0.8572112680346203  0.9433084805487296  7.0782747596321389
  8.4091710176346233  7.2046721505487277  6.3426040204431384
  7.3975207388316200  9.2917933805487287  5.2680803058051406
  8.4091710176346233  0.9433084805487296  6.3426040204431384
  7.3975207388316200  3.0304297105487343  5.2680803058051406
  6.9727810456096195  5.1175509305487275  6.6814570100291384
  1.0193821608186198  9.2917933805487287  0.9795518685821405
  1.0193821608186198  3.0304297105487343  0.9795518685821405
  9.5829921892206205  7.2046721505487277  1.3184048440321394
  8.5713419104176243  9.2917933805487287  0.2438811293941390
  7.1349519383936215  7.2046721505487277  0.5827341189791388
  9.5829921892206205  0.9433084805487296  1.3184048440321394
  8.5713419104176243  3.0304297105487343  0.2438811293941390
  8.1466022171956194  5.1175509305487275  1.6572578336181394
  7.1349519383936215  0.9433084805487296  0.5827341189791388
  3.5048502138956197  9.2917933805487287 15.3638875676661399
  4.7559929577196201  5.1175509305487275 16.1466259240141383
  3.5048502138956197  3.0304297105487343 15.3638875676661399
  9.6991220558546232  7.2046721505487277 14.4905630819291389
  0.9502647996786201  9.2917933805487287 15.2733014382771390
  9.7514219824236203  9.2917933805487287 13.0156724986241379
  2.2537074700716202  7.2046721505487277 14.5811492113191399
  2.2014075435026199  5.1175509305487275 16.0560397946241409
  9.6991220558546232  0.9433084805487296 14.4905630819291389
  0.9502647996786201  3.0304297105487343 15.2733014382771390
  1.0025647262476198  5.1175509305487275 13.7984108549711415
  9.7514219824236203  3.0304297105487343 13.0156724986241379
  2.2537074700716202  0.9433084805487296 14.5811492113191399
  8.5002792385996191  7.2046721505487277 12.2329341422761395
  8.4479793120306237  5.1175509305487275 13.7078247255821406
  8.5002792385996191  0.9433084805487296 12.2329341422761395
  4.8082928874616195  7.2046721505487277 14.6717353544901421
  6.0594356312856199  9.2917933805487287 15.4544737108371386
  4.8605928140306203  9.2917933805487287 13.1968447711851447
  4.8082928874616195  0.9433084805487296 14.6717353544901421
  6.0594356312856199  3.0304297105487343 15.4544737108371386
  6.1117355578546197  5.1175509305487275 13.9795831275321412
  4.8605928140306203  3.0304297105487343 13.1968447711851447
  1.0548646559906203  7.2046721505487277 12.3235202854481436
  2.3060073998146198  9.2917933805487287 13.1062586417951401
  3.6094500702076200  7.2046721505487277 12.4141064148371392
  3.5571501436386201  5.1175509305487275 13.8889969981431385
  1.0548646559906203  0.9433084805487296 12.3235202854481436
  2.3060073998146198  3.0304297105487343 13.1062586417951401
  2.3583073263836201  5.1175509305487275 11.6313680584901391
  3.6094500702076200  0.9433084805487296 12.4141064148371392
  9.8037219121666208  5.1175509305487275 11.5407819291001381
  6.1640354875976202  7.2046721505487277 12.5046925580091397
  6.2163354141666218  9.2917933805487287 11.0298019747031404
  6.1640354875976202  0.9433084805487296 12.5046925580091397
  6.2163354141666218  3.0304297105487343 11.0298019747031404
  3.6617499999496208  9.2917933805487287 10.9392158453141395
  4.9651926703426197  7.2046721505487277 10.2470636183561403
  4.9128927437736198  5.1175509305487275 11.7219542016611395
  3.6617499999496208  3.0304297105487343 10.9392158453141395
  4.9651926703426197  0.9433084805487296 10.2470636183561403
  4.7416414904596200  9.2917933805487287  7.4750925092351395
  4.7416414904596200  3.0304297105487343  7.4750925092351395
  9.8455609892326201  9.2917933805487287 16.0037510449931375
  8.8339107104306205  5.1175509305487275 14.9292273303551397
  9.8455609892326201  3.0304297105487343 16.0037510449931375
  3.3052515188616201  7.2046721505487277  7.8139454846851386
  2.2936012400586199  9.2917933805487287 16.7394217700461390
  2.8805118256386200  9.2917933805487287  9.2273221889091399
  0.8572112680346203  7.2046721505487277 17.0782747596321371
  3.3052515188616201  0.9433084805487296  7.8139454846851386
  2.2936012400586199  3.0304297105487343 16.7394217700461390
  1.8688615468366205  5.1175509305487275  8.1527984742701385
  2.8805118256386200  3.0304297105487343  9.2273221889091399
  0.8572112680346203  0.9433084805487296 17.0782747596321371
  4.3169017976636201  5.1175509305487275  8.8884691993231399
  8.4091710176346233  7.2046721505487277 16.3426040204431402
  7.3975207388316200  9.2917933805487287 15.2680803058051442
  7.9844313244116218  9.2917933805487287  7.7559807246671388
  8.4091710176346233  0.9433084805487296 16.3426040204431402
  7.3975207388316200  3.0304297105487343 15.2680803058051442
  6.9727810456096195  5.1175509305487275 16.6814570100291384
  7.9844313244116218  3.0304297105487343  7.7559807246671388
  1.4441218540406202  7.2046721505487277  9.5661751643581425
  0.4324715752386198  9.2917933805487287  8.4916514497201394
  1.0193821608186198  9.2917933805487287 10.9795518685821403
  8.9960816032146198  7.2046721505487277  8.8305044393061394
  9.4208212964366194  5.1175509305487275  7.4171277350821390
  1.4441218540406202  0.9433084805487296  9.5661751643581425
  0.4324715752386198  3.0304297105487343  8.4916514497201394
  0.0077318820166198  5.1175509305487275  9.9050281539441389
  1.0193821608186198  3.0304297105487343 10.9795518685821403
  8.9960816032146198  0.9433084805487296  8.8305044393061394
  6.5480413528136197  7.2046721505487277  8.0948337001171389
  6.1233016595916201  9.2917933805487287  9.5082104043411384
  6.5480413528136197  0.9433084805487296  8.0948337001171389
  6.1233016595916201  3.0304297105487343  9.5082104043411384
  9.5829921892206205  7.2046721505487277 11.3184048440321394
  8.5713419104176243  9.2917933805487287 10.2438811293941399
  7.1349519383936215  7.2046721505487277 10.5827341189791397
  7.5596916316156237  5.1175509305487275  9.1693574147561385
  9.5829921892206205  0.9433084805487296 11.3184048440321394
  8.5713419104176243  3.0304297105487343 10.2438811293941399
  8.1466022171956194  5.1175509305487275 11.6572578336181429
  7.1349519383936215  0.9433084805487296 10.5827341189791397
  4.7559929577196201 11.3789146005487289  6.1466259240141383
  2.2014075435026199 11.3789146005487289  6.0560397946241391
  1.0025647262476198 11.3789146005487289  3.7984108549711406
  8.4479793120306237 11.3789146005487289  3.7078247255821415
  6.1117355578546197 11.3789146005487289  3.9795831275321412
  3.5571501436386201 11.3789146005487289  3.8889969981431398
  2.3583073263836201 11.3789146005487289  1.6313680584901391
  9.8037219121666208 11.3789146005487289  1.5407819291001390
  4.9128927437736198 11.3789146005487289  1.7219542016611387
  8.8339107104306205 11.3789146005487289  4.9292273303551406
  6.9727810456096195 11.3789146005487289  6.6814570100291384
  8.1466022171956194 11.3789146005487289  1.6572578336181394
  4.7559929577196201 11.3789146005487289 16.1466259240141383
  2.2014075435026199 11.3789146005487289 16.0560397946241409
  1.0025647262476198 11.3789146005487289 13.7984108549711415
  8.4479793120306237 11.3789146005487289 13.7078247255821406
  6.1117355578546197 11.3789146005487289 13.9795831275321412
  3.5571501436386201 11.3789146005487289 13.8889969981431385
  2.3583073263836201 11.3789146005487289 11.6313680584901391
  9.8037219121666208 11.3789146005487289 11.5407819291001381
  4.9128927437736198 11.3789146005487289 11.7219542016611395
  8.8339107104306205 11.3789146005487289 14.9292273303551397
  1.8688615468366205 11.3789146005487289  8.1527984742701385
  4.3169017976636201 11.3789146005487289  8.8884691993231399
  6.9727810456096195 11.3789146005487289 16.6814570100291384
  9.4208212964366194 11.3789146005487289  7.4171277350821390
  0.0077318820166198 11.3789146005487289  9.9050281539441389
  7.5596916316156237 11.3789146005487289  9.1693574147561385
  8.1466022171956194 11.3789146005487289 11.6572578336181429
 13.5048502138956206  9.2917933805487287  5.3638875676661399
 14.7559929577196201  5.1175509305487275  6.1466259240141383
 13.5048502138956206  3.0304297105487343  5.3638875676661399
 10.9502647996786227  9.2917933805487287  5.2733014382771390
 12.2537074700716193  7.2046721505487277  4.5811492113191399
 12.2014075435026239  5.1175509305487275  6.0560397946241391
 10.9502647996786227  3.0304297105487343  5.2733014382771390
 11.0025647262476198  5.1175509305487275  3.7984108549711406
 12.2537074700716193  0.9433084805487296  4.5811492113191399
 14.8082928874616204  7.2046721505487277  4.6717353544901394
 16.0594356312856164  9.2917933805487287  5.4544737108371386
 14.8605928140306229  9.2917933805487287  3.1968447711851407
 14.8082928874616204  0.9433084805487296  4.6717353544901394
 16.0594356312856164  3.0304297105487343  5.4544737108371386
 16.1117355578546224  5.1175509305487275  3.9795831275321412
 14.8605928140306229  3.0304297105487343  3.1968447711851407
 11.0548646559906203  7.2046721505487277  2.3235202854481418
 12.3060073998146198  9.2917933805487287  3.1062586417951401
 13.6094500702076200  7.2046721505487277  2.4141064148371392
 13.5571501436386210  5.1175509305487275  3.8889969981431398
 11.0548646559906203  0.9433084805487296  2.3235202854481418
 12.3060073998146198  3.0304297105487343  3.1062586417951401
 12.3583073263836205  5.1175509305487275  1.6313680584901391
 13.6094500702076200  0.9433084805487296  2.4141064148371392
 16.1640354875976229  7.2046721505487277  2.5046925580091397
 16.2163354141666218  9.2917933805487287  1.0298019747031395
 16.1640354875976229  0.9433084805487296  2.5046925580091397
 16.2163354141666218  3.0304297105487343  1.0298019747031395
 13.6617499999496204  9.2917933805487287  0.9392158453141395
 14.9651926703426206  7.2046721505487277  0.2470636183561404
 14.9128927437736198  5.1175509305487275  1.7219542016611387
 13.6617499999496204  3.0304297105487343  0.9392158453141395
 14.9651926703426206  0.9433084805487296  0.2470636183561404
 12.2936012400586190  9.2917933805487287  6.7394217700461390
 10.8572112680346233  7.2046721505487277  7.0782747596321389
 12.2936012400586190  3.0304297105487343  6.7394217700461390
 10.8572112680346233  0.9433084805487296  7.0782747596321389
 11.0193821608186191  9.2917933805487287  0.9795518685821405
 11.0193821608186191  3.0304297105487343  0.9795518685821405
 13.5048502138956206  9.2917933805487287 15.3638875676661399
 14.7559929577196201  5.1175509305487275 16.1466259240141383
 13.5048502138956206  3.0304297105487343 15.3638875676661399
 10.9502647996786227  9.2917933805487287 15.2733014382771390
 12.2537074700716193  7.2046721505487277 14.5811492113191399
 12.2014075435026239  5.1175509305487275 16.0560397946241409
 10.9502647996786227  3.0304297105487343 15.2733014382771390
 11.0025647262476198  5.1175509305487275 13.7984108549711415
 12.2537074700716193  0.9433084805487296 14.5811492113191399
 14.8082928874616204  7.2046721505487277 14.6717353544901421
 16.0594356312856164  9.2917933805487287 15.4544737108371386
 14.8605928140306229  9.2917933805487287 13.1968447711851447
 14.8082928874616204  0.9433084805487296 14.6717353544901421
 16.0594356312856164  3.0304297105487343 15.4544737108371386
 16.1117355578546224  5.1175509305487275 13.9795831275321412
 14.8605928140306229  3.0304297105487343 13.1968447711851447
 11.0548646559906203  7.2046721505487277 12.3235202854481436
 12.3060073998146198  9.2917933805487287 13.1062586417951401
 13.6094500702076200  7.2046721505487277 12.4141064148371392
 13.5571501436386210  5.1175509305487275 13.8889969981431385
 11.0548646559906203  0.9433084805487296 12.3235202854481436
 12.3060073998146198  3.0304297105487343 13.1062586417951401
 12.3583073263836205  5.1175509305487275 11.6313680584901391
 13.6094500702076200  0.9433084805487296 12.4141064148371392
 16.1640354875976229  7.2046721505487277 12.5046925580091397
 16.2163354141666218  9.2917933805487287 11.0298019747031404
 16.1640354875976229  0.9433084805487296 12.5046925580091397
 16.2163354141666218  3.0304297105487343 11.0298019747031404
 13.6617499999496204  9.2917933805487287 10.9392158453141395
 14.9651926703426206  7.2046721505487277 10.2470636183561403
 14.9128927437736198  5.1175509305487275 11.7219542016611395
 13.6617499999496204  3.0304297105487343 10.9392158453141395
 14.9651926703426206  0.9433084805487296 10.2470636183561403
 14.7416414904596227  9.2917933805487287  7.4750925092351395
 14.7416414904596227  3.0304297105487343  7.4750925092351395
 13.3052515188616205  7.2046721505487277  7.8139454846851386
 12.2936012400586190  9.2917933805487287 16.7394217700461390
 12.8805118256386191  9.2917933805487287  9.2273221889091399
 10.8572112680346233  7.2046721505487277 17.0782747596321371
 13.3052515188616205  0.9433084805487296  7.8139454846851386
 12.2936012400586190  3.0304297105487343 16.7394217700461390
 11.8688615468366194  5.1175509305487275  8.1527984742701385
 12.8805118256386191  3.0304297105487343  9.2273221889091399
 10.8572112680346233  0.9433084805487296 17.0782747596321371
 14.3169017976636201  5.1175509305487275  8.8884691993231399
 11.4441218540406204  7.2046721505487277  9.5661751643581425
 10.4324715752386190  9.2917933805487287  8.4916514497201394
 11.0193821608186191  9.2917933805487287 10.9795518685821403
 11.4441218540406204  0.9433084805487296  9.5661751643581425
 10.4324715752386190  3.0304297105487343  8.4916514497201394
 10.0077318820166212  5.1175509305487275  9.9050281539441389
 11.0193821608186191  3.0304297105487343 10.9795518685821403
 16.1233016595916183  9.2917933805487287  9.5082104043411384
 16.1233016595916183  3.0304297105487343  9.5082104043411384
 14.7559929577196201 11.3789146005487289  6.1466259240141383
 12.2014075435026239 11.3789146005487289  6.0560397946241391
 11.0025647262476198 11.3789146005487289  3.7984108549711406
 16.1117355578546224 11.3789146005487289  3.9795831275321412
 13.5571501436386210 11.3789146005487289  3.8889969981431398
 12.3583073263836205 11.3789146005487289  1.6313680584901391
 14.9128927437736198 11.3789146005487289  1.7219542016611387
 14.7559929577196201 11.3789146005487289 16.1466259240141383
 12.2014075435026239 11.3789146005487289 16.0560397946241409
 11.0025647262476198 11.3789146005487289 13.7984108549711415
 16.1117355578546224 11.3789146005487289 13.9795831275321412
 13.5571501436386210 11.3789146005487289 13.8889969981431385
 12.3583073263836205 11.3789146005487289 11.6313680584901391
 14.9128927437736198 11.3789146005487289 11.7219542016611395
 11.8688615468366194 11.3789146005487289  8.1527984742701385
 14.3169017976636201 11.3789146005487289  8.8884691993231399
 10.0077318820166212 11.3789146005487289  9.9050281539441389
