Cu
 1.0000000000000000
    15.6950178420110991    0.0000000000000000    0.0000000000000000
     0.0000000000000000   13.2901742322688143    0.0000000000000000
     0.0000000000000000    0.0000000000000000   16.0083582008269083
 Cu 
 294
Cartesian
  1.1720130713499444  2.2185920836704764  8.8580036799419517
  7.3662849133089443  0.1314708536704754  7.9846791942049515
  7.4185848398779468  2.2185920836704764  6.5097886108999505
  6.1674420960539438  0.1314708536704754  5.7270502545519504
  2.4754557449159442  0.1314708536704754  8.1658514667659503
  3.7265984887399446  2.2185920836704764  8.9485898231129504
  2.5277556714849458  2.2185920836704764  6.6909608834609520
  1.2766129276619447  0.1314708536704754  5.9082225271129509
  3.8311983450519458  0.1314708536704754  5.9988086702849515
  3.8834982716209474  2.2185920836704764  4.5239180869789513
  1.3289128574039450  2.2185920836704764  4.4333319575899512
  2.6323555277969444  0.1314708536704754  3.7411797306319516
  2.4088043479139447  2.2185920836704764  0.9692086215109508
  7.5127238466869448  2.2185920836704764  9.4978671572689510
  0.9724143763159452  0.1314708536704754  1.3080615969609508
  0.5476746830929446  2.2185920836704764  2.7214383011849512
  6.0763338750889462  0.1314708536704754  9.8367201327189502
  5.0646835962859464  2.2185920836704764  8.7621964180809524
  5.6515941818659465  2.2185920836704764  1.2500968369429510
  6.6632444606689463  0.1314708536704754  2.3246205515819511
  4.2152042102679443  0.1314708536704754  1.5889498123929509
  3.7904645170459457  2.2185920836704764  3.0023265166169506
  7.2501550466749469  0.1314708536704754  4.8125209563079512
  6.2385047678719472  2.2185920836704764  3.7379972416699507
  4.8021147958479444  0.1314708536704754  4.0768502312549506
  6.1674420960539438  0.1314708536704754 15.7270502545519513
  1.2766129276619447  0.1314708536704754 15.9082225271129509
  3.8311983450519458  0.1314708536704754 15.9988086702849515
  3.8834982716209474  2.2185920836704764 14.5239180869789557
  1.3289128574039450  2.2185920836704764 14.4333319575899512
  2.6323555277969444  0.1314708536704754 13.7411797306319521
  2.4088043479139447  2.2185920836704764 10.9692086215109512
  0.9724143763159452  0.1314708536704754 11.3080615969609504
  0.5476746830929446  2.2185920836704764 12.7214383011849517
  5.6515941818659465  2.2185920836704764 11.2500968369429515
  6.6632444606689463  0.1314708536704754 12.3246205515819511
  4.2152042102679443  0.1314708536704754 11.5889498123929506
  3.7904645170459457  2.2185920836704764 13.0023265166169502
  7.2501550466749469  0.1314708536704754 14.8125209563079512
  6.2385047678719472  2.2185920836704764 13.7379972416699516
  4.8021147958479444  0.1314708536704754 14.0768502312549515
  4.6399439030639460  4.3057133036704798  0.1755731223049501
  4.6399439030639460 10.5670769736704795  0.1755731223049501
  2.4231558151739447  4.3057133036704798  9.6407420362899501
  1.1720130713499444  6.3928345236704800  8.8580036799419517
  2.4231558151739447 10.5670769736704795  9.6407420362899501
  1.1720130713499444 12.6541981936704797  8.8580036799419517
  7.3662849133089443  8.4799557536704793  7.9846791942049515
  7.4185848398779468  6.3928345236704800  6.5097886108999505
  7.4185848398779468 12.6541981936704797  6.5097886108999505
  6.1151421694849466  4.3057133036704798  7.2019408378579524
  6.1674420960539438  8.4799557536704793  5.7270502545519504
  6.1151421694849466 10.5670769736704795  7.2019408378579524
  2.4754557449159442  8.4799557536704793  8.1658514667659503
  3.7265984887399446  6.3928345236704800  8.9485898231129504
  3.7788984153089444  4.3057133036704798  7.4736992398079520
  2.5277556714849458  6.3928345236704800  6.6909608834609520
  3.7265984887399446 12.6541981936704797  8.9485898231129504
  3.7788984153089444 10.5670769736704795  7.4736992398079520
  2.5277556714849458 12.6541981936704797  6.6909608834609520
  1.2243130010929448  4.3057133036704798  7.3831131104189511
  0.0254701838379452  4.3057133036704798  5.1254841707659509
  1.2766129276619447  8.4799557536704793  5.9082225271129509
  1.2243130010929448 10.5670769736704795  7.3831131104189511
  0.0254701838379452 10.5670769736704795  5.1254841707659509
  7.4708847696209455  4.3057133036704798  5.0348980413759508
  7.4708847696209455 10.5670769736704795  5.0348980413759508
  3.8311983450519458  8.4799557536704793  5.9988086702849515
  3.8834982716209474  6.3928345236704800  4.5239180869789513
  3.8834982716209474 12.6541981936704797  4.5239180869789513
  2.5800556012279454  4.3057133036704798  5.2160703139369504
  1.3289128574039450  6.3928345236704800  4.4333319575899512
  2.6323555277969444  8.4799557536704793  3.7411797306319516
  2.5800556012279454 10.5670769736704795  5.2160703139369504
  1.3289128574039450 12.6541981936704797  4.4333319575899512
  2.4088043479139447  6.3928345236704800  0.9692086215109508
  2.4088043479139447 12.6541981936704797  0.9692086215109508
  6.5010735678849452  4.3057133036704798  8.4233434426309515
  7.5127238466869448  6.3928345236704800  9.4978671572689510
  6.5010735678849452 10.5670769736704795  8.4233434426309515
  7.5127238466869448 12.6541981936704797  9.4978671572689510
  0.9724143763159452  8.4799557536704793  1.3080615969609508
  0.5476746830929446  6.3928345236704800  2.7214383011849512
  0.5476746830929446 12.6541981936704797  2.7214383011849512
  1.9840646551179455  4.3057133036704798  2.3825853115989508
  1.9840646551179455 10.5670769736704795  2.3825853115989508
  6.0763338750889462  8.4799557536704793  9.8367201327189502
  5.0646835962859464  6.3928345236704800  8.7621964180809524
  4.6399439030639460  4.3057133036704798 10.1755731223049501
  5.6515941818659465  6.3928345236704800  1.2500968369429510
  5.0646835962859464 12.6541981936704797  8.7621964180809524
  4.6399439030639460 10.5670769736704795 10.1755731223049501
  5.6515941818659465 12.6541981936704797  1.2500968369429510
  7.0879841538909458  4.3057133036704798  0.9112438473579508
  6.6632444606689463  8.4799557536704793  2.3246205515819511
  7.0879841538909458 10.5670769736704795  0.9112438473579508
  4.2152042102679443  8.4799557536704793  1.5889498123929509
  3.7904645170459457  6.3928345236704800  3.0023265166169506
  3.7904645170459457 12.6541981936704797  3.0023265166169506
  5.2268544890699467  4.3057133036704798  2.6634735270319507
  7.2501550466749469  8.4799557536704793  4.8125209563079512
  6.2385047678719472  6.3928345236704800  3.7379972416699507
  5.8137650746499459  4.3057133036704798  5.1513739458939511
  4.8021147958479444  8.4799557536704793  4.0768502312549506
  5.2268544890699467 10.5670769736704795  2.6634735270319507
  6.2385047678719472 12.6541981936704797  3.7379972416699507
  5.8137650746499459 10.5670769736704795  5.1513739458939511
  6.1674420960539438  8.4799557536704793 15.7270502545519513
  0.0254701838379452  4.3057133036704798 15.1254841707659509
  1.2766129276619447  8.4799557536704793 15.9082225271129509
  0.0254701838379452 10.5670769736704795 15.1254841707659509
  7.4708847696209455  4.3057133036704798 15.0348980413759499
  7.4708847696209455 10.5670769736704795 15.0348980413759499
  3.8311983450519458  8.4799557536704793 15.9988086702849515
  3.8834982716209474  6.3928345236704800 14.5239180869789557
  3.8834982716209474 12.6541981936704797 14.5239180869789557
  2.5800556012279454  4.3057133036704798 15.2160703139369495
  1.3289128574039450  6.3928345236704800 14.4333319575899512
  2.6323555277969444  8.4799557536704793 13.7411797306319521
  2.5800556012279454 10.5670769736704795 15.2160703139369495
  1.3289128574039450 12.6541981936704797 14.4333319575899512
  2.4088043479139447  6.3928345236704800 10.9692086215109512
  2.4088043479139447 12.6541981936704797 10.9692086215109512
  0.9724143763159452  8.4799557536704793 11.3080615969609504
  0.5476746830929446  6.3928345236704800 12.7214383011849517
  0.5476746830929446 12.6541981936704797 12.7214383011849517
  1.9840646551179455  4.3057133036704798 12.3825853115989517
  1.9840646551179455 10.5670769736704795 12.3825853115989517
  5.6515941818659465  6.3928345236704800 11.2500968369429515
  5.6515941818659465 12.6541981936704797 11.2500968369429515
  7.0879841538909458  4.3057133036704798 10.9112438473579516
  6.6632444606689463  8.4799557536704793 12.3246205515819511
  7.0879841538909458 10.5670769736704795 10.9112438473579516
  4.2152042102679443  8.4799557536704793 11.5889498123929506
  3.7904645170459457  6.3928345236704800 13.0023265166169502
  3.7904645170459457 12.6541981936704797 13.0023265166169502
  5.2268544890699467  4.3057133036704798 12.6634735270319503
  7.2501550466749469  8.4799557536704793 14.8125209563079512
  6.2385047678719472  6.3928345236704800 13.7379972416699516
  5.8137650746499459  4.3057133036704798 15.1513739458939511
  4.8021147958479444  8.4799557536704793 14.0768502312549515
  5.2268544890699467 10.5670769736704795 12.6634735270319503
  6.2385047678719472 12.6541981936704797 13.7379972416699516
  5.8137650746499459 10.5670769736704795 15.1513739458939511
  9.9607640975129481  2.2185920836704764  0.2335378823219507
  8.5243741254889489  0.1314708536704754  0.5723908719079507
 11.1720130713499444  2.2185920836704764  8.8580036799419517
  8.6174276571329482  2.2185920836704764  8.7674175505529508
  9.9208703275259484  0.1314708536704754  8.0752653235949516
 12.4754557449159442  0.1314708536704754  8.1658514667659503
 13.7265984887399490  2.2185920836704764  8.9485898231129504
 12.5277556714849450  2.2185920836704764  6.6909608834609520
  8.7220275134449441  0.1314708536704754  5.8176363977239527
  9.9731702572689436  2.2185920836704764  6.6003747540709519
 11.2766129276619473  0.1314708536704754  5.9082225271129509
 13.8311983450519449  0.1314708536704754  5.9988086702849515
 13.8834982716209510  2.2185920836704764  4.5239180869789513
 11.3289128574039459  2.2185920836704764  4.4333319575899512
 12.6323555277969479  0.1314708536704754  3.7411797306319516
 12.4088043479139447  2.2185920836704764  0.9692086215109508
 10.9724143763159443  0.1314708536704754  1.3080615969609508
  9.9607640975129481  2.2185920836704764 10.2335378823219507
 10.5476746830929482  2.2185920836704764  2.7214383011849512
  8.5243741254889489  0.1314708536704754 10.5723908719079507
 15.0646835962859491  2.2185920836704764  8.7621964180809524
 15.6515941818659492  2.2185920836704764  1.2500968369429510
  9.1112847114949478  0.1314708536704754  3.0602912766339507
  8.0996344326929446  2.2185920836704764  1.9857675619959507
  8.6865450182729447  2.2185920836704764  4.4736679808579520
 14.2152042102679488  0.1314708536704754  1.5889498123929509
 13.7904645170459439  2.2185920836704764  3.0023265166169506
 14.8021147958479489  0.1314708536704754  4.0768502312549506
  8.7220275134449441  0.1314708536704754 15.8176363977239518
 11.2766129276619473  0.1314708536704754 15.9082225271129509
 13.8311983450519449  0.1314708536704754 15.9988086702849515
 13.8834982716209510  2.2185920836704764 14.5239180869789557
 11.3289128574039459  2.2185920836704764 14.4333319575899512
 12.6323555277969479  0.1314708536704754 13.7411797306319521
 12.4088043479139447  2.2185920836704764 10.9692086215109512
 10.9724143763159443  0.1314708536704754 11.3080615969609504
 10.5476746830929482  2.2185920836704764 12.7214383011849517
 15.6515941818659492  2.2185920836704764 11.2500968369429515
  9.1112847114949478  0.1314708536704754 13.0602912766339507
  8.0996344326929446  2.2185920836704764 11.9857675619959512
  8.6865450182729447  2.2185920836704764 14.4736679808579520
 14.2152042102679488  0.1314708536704754 11.5889498123929506
 13.7904645170459439  2.2185920836704764 13.0023265166169502
 14.8021147958479489  0.1314708536704754 14.0768502312549515
  9.9607640975129481  6.3928345236704800  0.2335378823219507
  8.5243741254889489  8.4799557536704793  0.5723908719079507
  9.9607640975129481 12.6541981936704797  0.2335378823219507
 14.6399439030639442  4.3057133036704798  0.1755731223049501
 14.6399439030639442 10.5670769736704795  0.1755731223049501
 12.4231558151739492  4.3057133036704798  9.6407420362899501
 11.1720130713499444  6.3928345236704800  8.8580036799419517
 12.4231558151739492 10.5670769736704795  9.6407420362899501
 11.1720130713499444 12.6541981936704797  8.8580036799419517
  9.8685704009569442  4.3057133036704798  9.5501559068999509
  8.6174276571329482  6.3928345236704800  8.7674175505529508
  8.6697275837019454  4.3057133036704798  7.2925269672469524
  9.9208703275259484  8.4799557536704793  8.0752653235949516
  9.8685704009569442 10.5670769736704795  9.5501559068999509
  8.6174276571329482 12.6541981936704797  8.7674175505529508
  8.6697275837019454 10.5670769736704795  7.2925269672469524
 12.4754557449159442  8.4799557536704793  8.1658514667659503
 13.7265984887399490  6.3928345236704800  8.9485898231129504
 13.7788984153089480  4.3057133036704798  7.4736992398079520
 12.5277556714849450  6.3928345236704800  6.6909608834609520
 13.7265984887399490 12.6541981936704797  8.9485898231129504
 13.7788984153089480 10.5670769736704795  7.4736992398079520
 12.5277556714849450 12.6541981936704797  6.6909608834609520
 11.2243130010929484  4.3057133036704798  7.3831131104189511
  8.7220275134449441  8.4799557536704793  5.8176363977239527
  9.9731702572689436  6.3928345236704800  6.6003747540709519
 10.0254701838379443  4.3057133036704798  5.1254841707659509
 11.2766129276619473  8.4799557536704793  5.9082225271129509
 11.2243130010929484 10.5670769736704795  7.3831131104189511
  9.9731702572689436 12.6541981936704797  6.6003747540709519
 10.0254701838379443 10.5670769736704795  5.1254841707659509
 13.8311983450519449  8.4799557536704793  5.9988086702849515
 13.8834982716209510  6.3928345236704800  4.5239180869789513
 13.8834982716209510 12.6541981936704797  4.5239180869789513
 12.5800556012279472  4.3057133036704798  5.2160703139369504
 11.3289128574039459  6.3928345236704800  4.4333319575899512
 12.6323555277969479  8.4799557536704793  3.7411797306319516
 12.5800556012279472 10.5670769736704795  5.2160703139369504
 11.3289128574039459 12.6541981936704797  4.4333319575899512
 12.4088043479139447  6.3928345236704800  0.9692086215109508
 12.4088043479139447 12.6541981936704797  0.9692086215109508
 10.9724143763159443  8.4799557536704793  1.3080615969609508
  9.9607640975129481  6.3928345236704800 10.2335378823219507
  9.5360244042909450  4.3057133036704798  1.6469145865459511
 10.5476746830929482  6.3928345236704800  2.7214383011849512
  8.5243741254889489  8.4799557536704793 10.5723908719079507
  9.9607640975129481 12.6541981936704797 10.2335378823219507
  9.5360244042909450 10.5670769736704795  1.6469145865459511
 10.5476746830929482 12.6541981936704797  2.7214383011849512
 11.9840646551179475  4.3057133036704798  2.3825853115989508
 11.9840646551179475 10.5670769736704795  2.3825853115989508
 15.0646835962859491  6.3928345236704800  8.7621964180809524
 14.6399439030639442  4.3057133036704798 10.1755731223049501
 15.6515941818659492  6.3928345236704800  1.2500968369429510
 15.0646835962859491 12.6541981936704797  8.7621964180809524
 14.6399439030639442 10.5670769736704795 10.1755731223049501
 15.6515941818659492 12.6541981936704797  1.2500968369429510
  9.1112847114949478  8.4799557536704793  3.0602912766339507
  8.0996344326929446  6.3928345236704800  1.9857675619959507
  7.6748947394709459  4.3057133036704798  3.3991442662199511
  8.6865450182729447  6.3928345236704800  4.4736679808579520
  8.0996344326929446 12.6541981936704797  1.9857675619959507
  7.6748947394709459 10.5670769736704795  3.3991442662199511
  8.6865450182729447 12.6541981936704797  4.4736679808579520
 14.2152042102679488  8.4799557536704793  1.5889498123929509
 13.7904645170459439  6.3928345236704800  3.0023265166169506
 13.7904645170459439 12.6541981936704797  3.0023265166169506
 15.2268544890699467  4.3057133036704798  2.6634735270319507
 14.8021147958479489  8.4799557536704793  4.0768502312549506
 15.2268544890699467 10.5670769736704795  2.6634735270319507
  8.7220275134449441  8.4799557536704793 15.8176363977239518
 10.0254701838379443  4.3057133036704798 15.1254841707659509
 11.2766129276619473  8.4799557536704793 15.9082225271129509
 10.0254701838379443 10.5670769736704795 15.1254841707659509
 13.8311983450519449  8.4799557536704793 15.9988086702849515
 13.8834982716209510  6.3928345236704800 14.5239180869789557
 13.8834982716209510 12.6541981936704797 14.5239180869789557
 12.5800556012279472  4.3057133036704798 15.2160703139369495
 11.3289128574039459  6.3928345236704800 14.4333319575899512
 12.6323555277969479  8.4799557536704793 13.7411797306319521
 12.5800556012279472 10.5670769736704795 15.2160703139369495
 11.3289128574039459 12.6541981936704797 14.4333319575899512
 12.4088043479139447  6.3928345236704800 10.9692086215109512
 12.4088043479139447 12.6541981936704797 10.9692086215109512
 10.9724143763159443  8.4799557536704793 11.3080615969609504
  9.5360244042909450  4.3057133036704798 11.6469145865459502
 10.5476746830929482  6.3928345236704800 12.7214383011849517
  9.5360244042909450 10.5670769736704795 11.6469145865459502
 10.5476746830929482 12.6541981936704797 12.7214383011849517
 11.9840646551179475  4.3057133036704798 12.3825853115989517
 11.9840646551179475 10.5670769736704795 12.3825853115989517
 15.6515941818659492  6.3928345236704800 11.2500968369429515
 15.6515941818659492 12.6541981936704797 11.2500968369429515
  9.1112847114949478  8.4799557536704793 13.0602912766339507
  8.0996344326929446  6.3928345236704800 11.9857675619959512
  7.6748947394709459  4.3057133036704798 13.3991442662199507
  8.6865450182729447  6.3928345236704800 14.4736679808579520
  8.0996344326929446 12.6541981936704797 11.9857675619959512
  7.6748947394709459 10.5670769736704795 13.3991442662199507
  8.6865450182729447 12.6541981936704797 14.4736679808579520
 14.2152042102679488  8.4799557536704793 11.5889498123929506
 13.7904645170459439  6.3928345236704800 13.0023265166169502
 13.7904645170459439 12.6541981936704797 13.0023265166169502
 15.2268544890699467  4.3057133036704798 12.6634735270319503
 14.8021147958479489  8.4799557536704793 14.0768502312549515
 15.2268544890699467 10.5670769736704795 12.6634735270319503
