Cu
 1.0000000000000000
    13.1181472876316541    0.0000000000000000    0.0000000000000000
     0.0000000000000000   15.8230181921899664    0.0000000000000000
     0.0000000000000000    0.0000000000000000   15.3351149487590810
 Cu 
 237
Cartesian
  2.4540754064542920  1.6248101006195981  2.2070178991270808
  2.4540754064542920 12.0604162206195973  2.2070178991270808
  2.5063753330232927 14.1475374506196019  0.7321273158220798
  2.4540754064542920  5.7990525606195966  2.2070178991270808
  2.5063753330232927  7.8861737806195968  0.7321273158220798
  1.2029326626302925  3.7119313306195956  1.4242795427800821
  1.2029326626302925  9.9732950006195971  1.4242795427800821
  1.5888640610302929  3.7119313306195956  2.6456821475530816
  2.6005143398322925 14.1475374506196019  3.7202058621910812
  1.5888640610302929  9.9732950006195971  2.6456821475530816
  2.6005143398322925  7.8861737806195968  3.7202058621910812
  1.1641243682342921  1.6248101006195981  4.0590588376410812
  1.1641243682342921 12.0604162206195973  4.0590588376410812
  0.1524740894312924 14.1475374506196019  2.9845351230030825
  1.1641243682342921  5.7990525606195966  4.0590588376410812
  0.1524740894312924  7.8861737806195968  2.9845351230030825
  2.4540754064542920  1.6248101006195981 12.2070178991270843
  2.4540754064542920 12.0604162206195973 12.2070178991270843
  2.5063753330232927 14.1475374506196019 10.7321273158220816
  2.4540754064542920  5.7990525606195966 12.2070178991270843
  2.5063753330232927  7.8861737806195968 10.7321273158220816
  1.2552325891992915  1.6248101006195981  9.9493889594740796
  1.2029326626302925  3.7119313306195956 11.4242795427800807
  1.2552325891992915 12.0604162206195973  9.9493889594740796
  1.2029326626302925  9.9732950006195971 11.4242795427800807
  1.2552325891992915  5.7990525606195966  9.9493889594740796
  2.5586752627662932  3.7119313306195956  9.2572367462980836
  2.5586752627662932  9.9732950006195971  9.2572367462980836
  1.5888640610302929  3.7119313306195956 12.6456821475530834
  2.6005143398322925 14.1475374506196019 13.7202058621910830
  1.5888640610302929  9.9732950006195971 12.6456821475530834
  2.6005143398322925  7.8861737806195968 13.7202058621910830
  1.1641243682342921  1.6248101006195981 14.0590588376410803
  1.1641243682342921 12.0604162206195973 14.0590588376410803
  0.1524740894312924 14.1475374506196019 12.9845351230030808
  0.7393846750112925 14.1475374506196019  5.4724355418650799
  1.1641243682342921  5.7990525606195966 14.0590588376410803
  0.1524740894312924  7.8861737806195968 12.9845351230030808
  0.7393846750112925  7.8861737806195968  5.4724355418650799
  1.7510349538142924  1.6248101006195981  6.5469592565040804
  2.1757746470362918  3.7119313306195956  5.1335825522800800
  1.7510349538142924 12.0604162206195973  6.5469592565040804
  2.1757746470362918  9.9732950006195971  5.1335825522800800
  1.7510349538142924  5.7990525606195966  6.5469592565040804
  2.3379455398202929  1.6248101006195981  9.0348596612300831
  0.3146449822152944  3.7119313306195956  6.8858122319540804
  0.9015555677952918  3.7119313306195956  9.3737126508160813
  2.3379455398202929 12.0604162206195973  9.0348596612300831
  1.3262952610172931 14.1475374506196019  7.9603359465920809
  0.3146449822152944  9.9732950006195971  6.8858122319540804
  2.3379455398202929  5.7990525606195966  9.0348596612300831
  1.3262952610172931  7.8861737806195968  7.9603359465920809
  0.9015555677952918  9.9732950006195971  9.3737126508160813
  2.1757746470362918  3.7119313306195956 15.1335825522800853
  2.1757746470362918  9.9732950006195971 15.1335825522800853
  7.5109463083192924  3.7119313306195956  3.8630807412120798
  6.2598035644952921 14.1475374506196019  3.0803423848640819
  7.5109463083192924  9.9732950006195971  3.8630807412120798
  6.2598035644952921  7.8861737806195968  3.0803423848640819
 12.4540754064542920  1.6248101006195981  2.2070178991270808
  5.0086608206712926  1.6248101006195981  2.2976040285170809
  4.9563608941022927  3.7119313306195956  3.7724946118220801
  3.7575180768472922  3.7119313306195956  1.5148656721690821
 12.4540754064542920 12.0604162206195973  2.2070178991270808
  3.7052181502782924 14.1475374506196019  2.9897562554750801
 12.5063753330232927 14.1475374506196019  0.7321273158220798
  5.0086608206712926 12.0604162206195973  2.2976040285170809
  4.9563608941022927  9.9732950006195971  3.7724946118220801
 12.4540754064542920  5.7990525606195966  2.2070178991270808
  3.7052181502782924  7.8861737806195968  2.9897562554750801
  3.7575180768472922  9.9732950006195971  1.5148656721690821
 12.5063753330232927  7.8861737806195968  0.7321273158220798
  5.0086608206712926  5.7990525606195966  2.2976040285170809
 11.2029326626302925  3.7119313306195956  1.4242795427800821
 11.2029326626302925  9.9732950006195971  1.4242795427800821
  7.5632462380612919  1.6248101006195981  2.3881901716880805
  8.8666889084542930  3.7119313306195956  1.6960379447300813
  7.5632462380612919 12.0604162206195973  2.3881901716880805
  8.8143889818852923 14.1475374506196019  3.1709285280350796
  7.6155461646302927 14.1475374506196019  0.9132995883830812
  7.5632462380612919  5.7990525606195966  2.3881901716880805
  8.8143889818852923  7.8861737806195968  3.1709285280350796
  8.8666889084542930  9.9732950006195971  1.6960379447300813
  7.6155461646302927  7.8861737806195968  0.9132995883830812
  3.8098180065902922  1.6248101006195981  0.0399751026460820
  6.3644034208072924  1.6248101006195981  0.1305612320350802
  6.3121034942382925  3.7119313306195956  1.6054518153410804
  3.8098180065902922 12.0604162206195973  0.0399751026460820
  5.0609607504142922 14.1475374506196019  0.8227134589930813
  6.3644034208072924 12.0604162206195973  0.1305612320350802
  6.3121034942382925  9.9732950006195971  1.6054518153410804
  3.8098180065902922  5.7990525606195966  0.0399751026460820
  5.0609607504142922  7.8861737806195968  0.8227134589930813
  6.3644034208072924  5.7990525606195966  0.1305612320350802
  8.9189888381972935  1.6248101006195981  0.2211473752070807
  8.9189888381972935 12.0604162206195973  0.2211473752070807
  8.9189888381972935  5.7990525606195966  0.2211473752070807
 11.5888640610302929  3.7119313306195956  2.6456821475530816
 12.6005143398322925 14.1475374506196019  3.7202058621910812
 11.5888640610302929  9.9732950006195971  2.6456821475530816
 12.6005143398322925  7.8861737806195968  3.7202058621910812
  3.6121646186342926  1.6248101006195981  4.7947295768300799
  5.0485545906582923 14.1475374506196019  4.4558765872440800
  3.6121646186342926 12.0604162206195973  4.7947295768300799
  5.0485545906582923  7.8861737806195968  4.4558765872440800
  3.6121646186342926  5.7990525606195966  4.7947295768300799
 11.1641243682342921  1.6248101006195981  4.0590588376410812
  9.7277343962092928  3.7119313306195956  4.3979118272270794
 11.1641243682342921 12.0604162206195973  4.0590588376410812
 10.1524740894312924 14.1475374506196019  2.9845351230030825
 11.1641243682342921  5.7990525606195966  4.0590588376410812
 10.1524740894312924  7.8861737806195968  2.9845351230030825
  9.7277343962092928  9.9732950006195971  4.3979118272270794
  7.5109463083192924  3.7119313306195956 13.8630807412120802
  6.2598035644952921 14.1475374506196019 13.0803423848640819
  7.5109463083192924  9.9732950006195971 13.8630807412120802
  6.2598035644952921  7.8861737806195968 13.0803423848640819
 12.4540754064542920  1.6248101006195981 12.2070178991270843
  5.0086608206712926  1.6248101006195981 12.2976040285170818
  4.9563608941022927  3.7119313306195956 13.7724946118220828
  3.7575180768472922  3.7119313306195956 11.5148656721690816
 12.4540754064542920 12.0604162206195973 12.2070178991270843
  3.7052181502782924 14.1475374506196019 12.9897562554750792
 12.5063753330232927 14.1475374506196019 10.7321273158220816
  5.0086608206712926 12.0604162206195973 12.2976040285170818
  4.9563608941022927  9.9732950006195971 13.7724946118220828
 12.4540754064542920  5.7990525606195966 12.2070178991270843
  3.7052181502782924  7.8861737806195968 12.9897562554750792
  3.7575180768472922  9.9732950006195971 11.5148656721690816
 12.5063753330232927  7.8861737806195968 10.7321273158220816
  5.0086608206712926  5.7990525606195966 12.2976040285170818
 11.2552325891992915  1.6248101006195981  9.9493889594740796
 11.2029326626302925  3.7119313306195956 11.4242795427800807
 11.2552325891992915 12.0604162206195973  9.9493889594740796
 11.2029326626302925  9.9732950006195971 11.4242795427800807
 11.2552325891992915  5.7990525606195966  9.9493889594740796
  7.5632462380612919  1.6248101006195981 12.3881901716880822
  8.8666889084542930  3.7119313306195956 11.6960379447300848
  7.5632462380612919 12.0604162206195973 12.3881901716880822
  8.8143889818852923 14.1475374506196019 13.1709285280350805
  7.6155461646302927 14.1475374506196019 10.9132995883830812
  7.5632462380612919  5.7990525606195966 12.3881901716880822
  8.8143889818852923  7.8861737806195968 13.1709285280350805
  8.8666889084542930  9.9732950006195971 11.6960379447300848
  7.6155461646302927  7.8861737806195968 10.9132995883830812
  3.8098180065902922  1.6248101006195981 10.0399751026460855
  6.3644034208072924  1.6248101006195981 10.1305612320350846
  6.3121034942382925  3.7119313306195956 11.6054518153410839
  5.1132606769832929  3.7119313306195956  9.3478228756880810
  3.8098180065902922 12.0604162206195973 10.0399751026460855
  5.0609607504142922 14.1475374506196019 10.8227134589930838
  6.3644034208072924 12.0604162206195973 10.1305612320350846
  6.3121034942382925  9.9732950006195971 11.6054518153410839
  3.8098180065902922  5.7990525606195966 10.0399751026460855
  5.0609607504142922  7.8861737806195968 10.8227134589930838
  5.1132606769832929  9.9732950006195971  9.3478228756880810
  6.3644034208072924  5.7990525606195966 10.1305612320350846
 12.5586752627662932  3.7119313306195956  9.2572367462980836
 12.5586752627662932  9.9732950006195971  9.2572367462980836
  8.9189888381972935  1.6248101006195981 10.2211473752070816
  8.9189888381972935 12.0604162206195973 10.2211473752070816
  8.9712887647662942 14.1475374506196019  8.7462567919010805
  8.9189888381972935  5.7990525606195966 10.2211473752070816
  8.9712887647662942  7.8861737806195968  8.7462567919010805
  7.7201460209422921  1.6248101006195981  7.9635184355540813
  7.6678460943732922  3.7119313306195956  9.4384090188590797
  6.4167033505492928 14.1475374506196019  8.6556706625120796
  7.7201460209422921 12.0604162206195973  7.9635184355540813
  7.6678460943732922  9.9732950006195971  9.4384090188590797
  6.4167033505492928  7.8861737806195968  8.6556706625120796
  7.7201460209422921  5.7990525606195966  7.9635184355540813
  7.4965948410592933 14.1475374506196019  5.1915473264330823
  7.4965948410592933  7.8861737806195968  5.1915473264330823
 11.5888640610302929  3.7119313306195956 12.6456821475530834
 12.6005143398322925 14.1475374506196019 13.7202058621910830
 11.5888640610302929  9.9732950006195971 12.6456821475530834
 12.6005143398322925  7.8861737806195968 13.7202058621910830
  6.0602048694612929  1.6248101006195981  5.5304003018830805
  3.6121646186342926  1.6248101006195981 14.7947295768300791
  4.6238148974362927  3.7119313306195956  5.8692532914680804
  6.0602048694612929 12.0604162206195973  5.5304003018830805
  5.0485545906582923 14.1475374506196019 14.4558765872440844
  5.6354651762382924 14.1475374506196019  6.9437770061070818
  3.6121646186342926 12.0604162206195973 14.7947295768300791
  6.0602048694612929  5.7990525606195966  5.5304003018830805
  5.0485545906582923  7.8861737806195968 14.4558765872440844
  4.6238148974362927  9.9732950006195971  5.8692532914680804
  5.6354651762382924  7.8861737806195968  6.9437770061070818
  3.6121646186342926  5.7990525606195966 14.7947295768300791
  7.0718551482632925  3.7119313306195956  6.6049240165210819
  7.0718551482632925  9.9732950006195971  6.6049240165210819
 11.1641243682342921  1.6248101006195981 14.0590588376410803
  9.7277343962092928  3.7119313306195956 14.3979118272270803
 11.1641243682342921 12.0604162206195973 14.0590588376410803
 10.1524740894312924 14.1475374506196019 12.9845351230030808
 10.7393846750112925 14.1475374506196019  5.4724355418650799
 11.1641243682342921  5.7990525606195966 14.0590588376410803
 10.1524740894312924  7.8861737806195968 12.9845351230030808
  9.7277343962092928  9.9732950006195971 14.3979118272270803
 10.7393846750112925  7.8861737806195968  5.4724355418650799
  4.1990752046402919  1.6248101006195981  7.2826299815560800
 11.7510349538142922  1.6248101006195981  6.5469592565040804
 12.1757746470362918  3.7119313306195956  5.1335825522800800
  2.7626852326162923  3.7119313306195956  7.6214829711420826
  4.1990752046402919 12.0604162206195973  7.2826299815560800
  3.1874249258382923 14.1475374506196019  6.2081062669180795
  3.7743355114182924 14.1475374506196019  8.6960066857800804
 11.7510349538142922 12.0604162206195973  6.5469592565040804
 12.1757746470362918  9.9732950006195971  5.1335825522800800
  4.1990752046402919  5.7990525606195966  7.2826299815560800
  3.1874249258382923  7.8861737806195968  6.2081062669180795
  2.7626852326162923  9.9732950006195971  7.6214829711420826
  3.7743355114182924  7.8861737806195968  8.6960066857800804
 11.7510349538142922  5.7990525606195966  6.5469592565040804
  9.3029947034132920  1.6248101006195981  5.8112885173150817
  9.3029947034132920 12.0604162206195973  5.8112885173150817
  8.8782550101912925 14.1475374506196019  7.2246652215390803
  9.3029947034132920  5.7990525606195966  5.8112885173150817
  8.8782550101912925  7.8861737806195968  7.2246652215390803
 12.3379455398202929  1.6248101006195981  9.0348596612300831
  9.8899052889932921  1.6248101006195981  8.2991889361770834
 10.3146449822152952  3.7119313306195956  6.8858122319540804
 10.9015555677952918  3.7119313306195956  9.3737126508160813
 12.3379455398202929 12.0604162206195973  9.0348596612300831
 11.3262952610172931 14.1475374506196019  7.9603359465920809
  9.8899052889932921 12.0604162206195973  8.2991889361770834
 10.3146449822152952  9.9732950006195971  6.8858122319540804
 12.3379455398202929  5.7990525606195966  9.0348596612300831
 11.3262952610172931  7.8861737806195968  7.9603359465920809
 10.9015555677952918  9.9732950006195971  9.3737126508160813
  9.8899052889932921  5.7990525606195966  8.2991889361770834
  7.4965948410592933 14.1475374506196019 15.1915473264330831
  7.4965948410592933  7.8861737806195968 15.1915473264330831
 12.1757746470362918  3.7119313306195956 15.1335825522800853
 12.1757746470362918  9.9732950006195971 15.1335825522800853
 12.7626852326162918  3.7119313306195956  7.6214829711420826
 12.7626852326162918  9.9732950006195971  7.6214829711420826
