Cu
 1.0000000000000000
    14.2448914890692464    0.0000000000000000    0.0000000000000000
     0.0000000000000000   14.6730403240123657    0.0000000000000000
     0.0000000000000000    0.0000000000000000   13.3839555615327512
 Cu 
 223
Cartesian
  1.2046218993121873  8.0547449117383536  4.9964550535385959
  1.2046218993121873  1.7933812417383561  4.9964550535385959
  6.1477509974471882 10.1418661317383574  3.3403922114535973
  6.2000509240161872 12.2289873617383549  1.8655016281485963
  6.1477509974471882  3.8805024617383563  3.3403922114535973
  6.2000509240161872  5.9676236917383605  1.8655016281485963
  4.9489081801921877 10.1418661317383574  1.0827632718005962
  4.8966082536231870  8.0547449117383536  2.5576538551065982
  4.9489081801921877  3.8805024617383563  1.0827632718005962
  4.8966082536231870  1.7933812417383561  2.5576538551065982
  1.2569218290541868 10.1418661317383574  3.5215644840145970
  2.5080645728781876 12.2289873617383549  4.3043028403615962
  1.3092217556231873 12.2289873617383549  2.0466739007095978
  1.2569218290541868  3.8805024617383563  3.5215644840145970
  2.5080645728781876  5.9676236917383605  4.3043028403615962
  2.5603644994471875  8.0547449117383536  2.8294122570565978
  1.3092217556231873  5.9676236917383605  2.0466739007095978
  2.5603644994471875  1.7933812417383561  2.8294122570565978
  0.0580790118001868 10.1418661317383574  1.2639355443615967
  0.0057790852311870  8.0547449117383536  2.7388261276675969
  0.0580790118001868  3.8805024617383563  1.2639355443615967
  0.0057790852311870  1.7933812417383561  2.7388261276675969
  6.2523508537591894  8.0547449117383536  0.3906110586245966
  6.2523508537591894  1.7933812417383561  0.3906110586245966
  2.6126644291901870 10.1418661317383574  1.3545216875335973
  2.6126644291901870  3.8805024617383563  1.3545216875335973
  1.3615216853661869  8.0547449117383536  0.5717833311855962
  1.3615216853661869  1.7933812417383561  0.5717833311855962
  6.2941899308251870 12.2289873617383549  4.8535801745175968
  5.2825396520231873  8.0547449117383536  3.7790564598795982
  6.2941899308251870  5.9676236917383605  4.8535801745175968
  5.2825396520231873  1.7933812417383561  3.7790564598795982
  4.8577999592271865 10.1418661317383574  5.1924331499675960
  3.8461496804241868 12.2289873617383549  4.1179094353295982
  4.8577999592271865  3.8805024617383563  5.1924331499675960
  3.8461496804241868  5.9676236917383605  4.1179094353295982
  3.4214099872021864  8.0547449117383536  5.5312861395535959
  3.4214099872021864  1.7933812417383561  5.5312861395535959
  6.0316211308131873 10.1418661317383574  0.1682339735565970
  6.0316211308131873  3.8805024617383563  0.1682339735565970
  4.5952311587881862  8.0547449117383536  0.5070869631425969
  4.5952311587881862  1.7933812417383561  0.5070869631425969
  6.1477509974471882 10.1418661317383574 13.3403922114535973
  6.2000509240161872 12.2289873617383549 11.8655016281485963
  6.1477509974471882  3.8805024617383563 13.3403922114535973
  6.2000509240161872  5.9676236917383605 11.8655016281485963
  4.9489081801921877 10.1418661317383574 11.0827632718005962
  4.8966082536231870  8.0547449117383536 12.5576538551065973
  4.9489081801921877  3.8805024617383563 11.0827632718005962
  4.8966082536231870  1.7933812417383561 12.5576538551065973
  1.3092217556231873 12.2289873617383549 12.0466739007095978
  2.5603644994471875  8.0547449117383536 12.8294122570565978
  1.3092217556231873  5.9676236917383605 12.0466739007095978
  2.5603644994471875  1.7933812417383561 12.8294122570565978
  0.0580790118001868 10.1418661317383574 11.2639355443615976
  0.0057790852311870  8.0547449117383536 12.7388261276675969
  0.0580790118001868  3.8805024617383563 11.2639355443615976
  0.0057790852311870  1.7933812417383561 12.7388261276675969
  6.2523508537591894  8.0547449117383536 10.3906110586245966
  6.2523508537591894  1.7933812417383561 10.3906110586245966
  2.6126644291901870 10.1418661317383574 11.3545216875335981
  2.6649643557591896 12.2289873617383549  9.8796311042275970
  2.6126644291901870  3.8805024617383563 11.3545216875335981
  2.6649643557591896  5.9676236917383605  9.8796311042275970
  0.1103789415421872 12.2289873617383549  9.7890449748385961
  1.4138216119351870 10.1418661317383574  9.0968927478805970
  1.3615216853661869  8.0547449117383536 10.5717833311855962
  0.1103789415421872  5.9676236917383605  9.7890449748385961
  1.4138216119351870  3.8805024617383563  9.0968927478805970
  1.3615216853661869  1.7933812417383561 10.5717833311855962
  1.1902704320521873 12.2289873617383549  6.3249216387595970
  1.1902704320521873  5.9676236917383605  6.3249216387595970
  0.7655307392561870  8.0547449117383536  7.7382983288475966
  0.7655307392561870  1.7933812417383561  7.7382983288475966
  4.4330602660041869 12.2289873617383549  6.6058098541915964
  4.4330602660041869  5.9676236917383605  6.6058098541915964
  5.4447105448071875 10.1418661317383574  7.6803335688305969
  5.8694502380291862  8.0547449117383536  6.2669568646065965
  5.4447105448071875  3.8805024617383563  7.6803335688305969
  5.8694502380291862  1.7933812417383561  6.2669568646065965
  2.9966702944061865 10.1418661317383574  6.9446628296415964
  2.5719306011841869 12.2289873617383549  8.3580395338655951
  2.9966702944061865  3.8805024617383563  6.9446628296415964
  2.5719306011841869  5.9676236917383605  8.3580395338655951
  6.0316211308131873 10.1418661317383574 10.1682339735565961
  5.0199708520101876 12.2289873617383549  9.0937102589185965
  3.5835808799861866 10.1418661317383574  9.4325632485035964
  4.0083205732081888  8.0547449117383536  8.0191865442805952
  6.0316211308131873  3.8805024617383563 10.1682339735565961
  5.0199708520101876  5.9676236917383605  9.0937102589185965
  4.5952311587881862  8.0547449117383536 10.5070869631425978
  3.5835808799861866  3.8805024617383563  9.4325632485035964
  4.0083205732081888  1.7933812417383561  8.0191865442805952
  4.5952311587881862  1.7933812417383561 10.5070869631425978
  1.2046218993121873 14.3161085817383587  4.9964550535385959
  4.8966082536231870 14.3161085817383587  2.5576538551065982
  2.5603644994471875 14.3161085817383587  2.8294122570565978
  0.0057790852311870 14.3161085817383587  2.7388261276675969
  6.2523508537591894 14.3161085817383587  0.3906110586245966
  1.3615216853661869 14.3161085817383587  0.5717833311855962
  5.2825396520231873 14.3161085817383587  3.7790564598795982
  3.4214099872021864 14.3161085817383587  5.5312861395535959
  4.5952311587881862 14.3161085817383587  0.5070869631425969
  4.8966082536231870 14.3161085817383587 12.5576538551065973
  2.5603644994471875 14.3161085817383587 12.8294122570565978
  0.0057790852311870 14.3161085817383587 12.7388261276675969
  6.2523508537591894 14.3161085817383587 10.3906110586245966
  1.3615216853661869 14.3161085817383587 10.5717833311855962
  0.7655307392561870 14.3161085817383587  7.7382983288475966
  5.8694502380291862 14.3161085817383587  6.2669568646065965
  4.0083205732081888 14.3161085817383587  8.0191865442805952
  4.5952311587881862 14.3161085817383587 10.5070869631425978
  9.9534791554881856 12.2289873617383549  4.2137166971905975
 11.2046218993121869  8.0547449117383536  4.9964550535385959
  9.9534791554881856  5.9676236917383605  4.2137166971905975
 11.2046218993121869  1.7933812417383561  4.9964550535385959
  7.3988937412711868 12.2289873617383549  4.1231305678015966
  8.7023364116641915 10.1418661317383574  3.4309783408435974
  8.6500364850951872  8.0547449117383536  4.9058689241485967
  7.3988937412711868  5.9676236917383605  4.1231305678015966
  7.4511936678401876  8.0547449117383536  2.6482399844955982
  8.7023364116641915  3.8805024617383563  3.4309783408435974
  8.6500364850951872  1.7933812417383561  4.9058689241485967
  7.4511936678401876  1.7933812417383561  2.6482399844955982
 11.2569218290541855 10.1418661317383574  3.5215644840145970
 12.5080645728781885 12.2289873617383549  4.3043028403615962
 11.3092217556231915 12.2289873617383549  2.0466739007095978
 11.2569218290541855  3.8805024617383563  3.5215644840145970
 12.5080645728781885  5.9676236917383605  4.3043028403615962
 12.5603644994471857  8.0547449117383536  2.8294122570565978
 11.3092217556231915  5.9676236917383605  2.0466739007095978
 12.5603644994471857  1.7933812417383561  2.8294122570565978
  7.5034935975831880 10.1418661317383574  1.1733494149725985
  8.7546363414071866 12.2289873617383549  1.9560877713195974
 10.0580790118001868 10.1418661317383574  1.2639355443615967
 10.0057790852311879  8.0547449117383536  2.7388261276675969
  7.5034935975831880  3.8805024617383563  1.1733494149725985
  8.7546363414071866  5.9676236917383605  1.9560877713195974
  8.8069362679761873  8.0547449117383536  0.4811971880145966
 10.0580790118001868  3.8805024617383563  1.2639355443615967
 10.0057790852311879  1.7933812417383561  2.7388261276675969
  8.8069362679761873  1.7933812417383561  0.4811971880145966
 12.6126644291901897 10.1418661317383574  1.3545216875335973
 12.6126644291901897  3.8805024617383563  1.3545216875335973
 11.3615216853661867  8.0547449117383536  0.5717833311855962
 11.3615216853661867  1.7933812417383561  0.5717833311855962
  8.7422301816511876 12.2289873617383549  5.5892508995705965
  7.3058402096271866 10.1418661317383574  5.9281038891565965
  8.7422301816511876  5.9676236917383605  5.5892508995705965
  7.3058402096271866  3.8805024617383563  5.9281038891565965
 13.8461496804241904 12.2289873617383549  4.1179094353295982
 13.8461496804241904  5.9676236917383605  4.1179094353295982
 13.4214099872021873  8.0547449117383536  5.5312861395535959
 13.4214099872021873  1.7933812417383561  5.5312861395535959
  7.4511936678401876  8.0547449117383536 12.6482399844955982
  7.4511936678401876  1.7933812417383561 12.6482399844955982
 11.3092217556231915 12.2289873617383549 12.0466739007095978
 12.5603644994471857  8.0547449117383536 12.8294122570565978
 11.3092217556231915  5.9676236917383605 12.0466739007095978
 12.5603644994471857  1.7933812417383561 12.8294122570565978
  7.5034935975831880 10.1418661317383574 11.1733494149725985
  8.7546363414071866 12.2289873617383549 11.9560877713195985
 10.0580790118001868 10.1418661317383574 11.2639355443615976
 10.0057790852311879  8.0547449117383536 12.7388261276675969
  7.5034935975831880  3.8805024617383563 11.1733494149725985
  8.7546363414071866  5.9676236917383605 11.9560877713195985
  8.8069362679761873  8.0547449117383536 10.4811971880145975
 10.0580790118001868  3.8805024617383563 11.2639355443615976
 10.0057790852311879  1.7933812417383561 12.7388261276675969
  8.8069362679761873  1.7933812417383561 10.4811971880145975
 12.6126644291901897 10.1418661317383574 11.3545216875335981
 12.6649643557591887 12.2289873617383549  9.8796311042275970
 12.6126644291901897  3.8805024617383563 11.3545216875335981
 12.6649643557591887  5.9676236917383605  9.8796311042275970
 10.1103789415421872 12.2289873617383549  9.7890449748385961
 11.4138216119351874 10.1418661317383574  9.0968927478805970
 11.3615216853661867  8.0547449117383536 10.5717833311855962
 10.1103789415421872  5.9676236917383605  9.7890449748385961
 11.4138216119351874  3.8805024617383563  9.0968927478805970
 11.3615216853661867  1.7933812417383561 10.5717833311855962
 11.1902704320521895 12.2289873617383549  6.3249216387595970
 11.1902704320521895  5.9676236917383605  6.3249216387595970
  9.7538804604541909 10.1418661317383574  6.6637746142095970
  9.3291407672311912 12.2289873617383549  8.0771513184335966
  9.7538804604541909  3.8805024617383563  6.6637746142095970
  8.3174904884291863  8.0547449117383536  7.0026276037945969
  9.3291407672311912  5.9676236917383605  8.0771513184335966
  8.3174904884291863  1.7933812417383561  7.0026276037945969
 10.7655307392561888  8.0547449117383536  7.7382983288475966
 10.7655307392561888  1.7933812417383561  7.7382983288475966
  7.8927507956331873 10.1418661317383574  8.4160042938825974
  6.8811005168311885 12.2289873617383549  7.3414805792445970
  7.4680111024111868 12.2289873617383549  9.8293809981065969
  7.8927507956331873  3.8805024617383563  8.4160042938825974
  6.8811005168311885  5.9676236917383605  7.3414805792445970
  6.4563608236091872  8.0547449117383536  8.7548572834685974
  7.4680111024111868  5.9676236917383605  9.8293809981065969
  6.4563608236091872  1.7933812417383561  8.7548572834685974
 12.9966702944061865 10.1418661317383574  6.9446628296415964
 12.5719306011841869 12.2289873617383549  8.3580395338655951
 12.9966702944061865  3.8805024617383563  6.9446628296415964
 12.5719306011841869  5.9676236917383605  8.3580395338655951
 13.5835808799861866 10.1418661317383574  9.4325632485035964
 14.0083205732081879  8.0547449117383536  8.0191865442805952
 13.5835808799861866  3.8805024617383563  9.4325632485035964
 14.0083205732081879  1.7933812417383561  8.0191865442805952
 11.2046218993121869 14.3161085817383587  4.9964550535385959
  8.6500364850951872 14.3161085817383587  4.9058689241485967
  7.4511936678401876 14.3161085817383587  2.6482399844955982
 12.5603644994471857 14.3161085817383587  2.8294122570565978
 10.0057790852311879 14.3161085817383587  2.7388261276675969
  8.8069362679761873 14.3161085817383587  0.4811971880145966
 11.3615216853661867 14.3161085817383587  0.5717833311855962
 13.4214099872021873 14.3161085817383587  5.5312861395535959
  7.4511936678401876 14.3161085817383587 12.6482399844955982
 12.5603644994471857 14.3161085817383587 12.8294122570565978
 10.0057790852311879 14.3161085817383587 12.7388261276675969
  8.8069362679761873 14.3161085817383587 10.4811971880145975
 11.3615216853661867 14.3161085817383587 10.5717833311855962
  8.3174904884291863 14.3161085817383587  7.0026276037945969
 10.7655307392561888 14.3161085817383587  7.7382983288475966
  6.4563608236091872 14.3161085817383587  8.7548572834685974
 14.0083205732081879 14.3161085817383587  8.0191865442805952
