Cu
 1.0000000000000000
    12.1824309682375791    0.0000000000000000    0.0000000000000000
     0.0000000000000000   19.6684737059315609    0.0000000000000000
     0.0000000000000000    0.0000000000000000   15.8584274955432019
 Cu 
 291
Cartesian
  0.1729397441348404  6.1950144006261985  0.7373403957774336
  0.1729397441348404 12.4563780706261991  0.7373403957774336
  0.0265008107568399  2.0207719606261989  9.2241524327134314
  0.0265008107568399  8.2821356306261986  9.2241524327134314
  0.0788007373258406  6.1950144006261985  7.7492618494084313
  0.0265008107568399 14.5434992906261993  9.2241524327134314
  0.0788007373258406 12.4563780706261991  7.7492618494084313
  0.0265008107568399 18.7177417506261961  9.2241524327134314
  0.1311006670688410  4.1078931806261982  6.2743712798844333
  0.1311006670688410 10.3692568506261971  6.2743712798844333
  0.1311006670688410 16.6306205206261950  6.2743712798844333
  0.1729397441348404  6.1950144006261985 10.7373403957774300
  0.1729397441348404 12.4563780706261991 10.7373403957774300
  5.0833717126218403  4.1078931806261982  0.8802152747984326
  3.8322289687978395  6.1950144006261985  0.0974769184504342
  5.0833717126218403 10.3692568506261971  0.8802152747984326
  3.8322289687978395 12.4563780706261991  0.0974769184504342
  5.0833717126218403 16.6306205206261950  0.8802152747984326
  2.5287862984048401  4.1078931806261982  0.7896291454084332
  1.2776435545808402  6.1950144006261985  0.0068907890614334
  2.5287862984048401 10.3692568506261971  0.7896291454084332
  1.2776435545808402 12.4563780706261991  0.0068907890614334
  2.5287862984048401 16.6306205206261950  0.7896291454084332
  6.3868143861878401  6.1950144006261985  0.1880630616214329
  6.3868143861878401 12.4563780706261991  0.1880630616214329
 10.1729397441348404  6.1950144006261985  0.7373403957774336
 10.1729397441348404 12.4563780706261991  0.7373403957774336
  1.1845900229368405  2.0207719606261989  1.8118641104164332
  2.6209799949608401  6.1950144006261985  1.4730111208304333
  1.1845900229368405  8.2821356306261986  1.8118641104164332
  2.6209799949608401 12.4563780706261991  1.4730111208304333
  1.1845900229368405 14.5434992906261993  1.8118641104164332
  1.1845900229368405 18.7177417506261961  1.8118641104164332
  8.7365497725368400  2.0207719606261989  1.0761933712274323
  8.7365497725368400  8.2821356306261986  1.0761933712274323
  7.7248994937338402  6.1950144006261985  0.0016696565894350
  7.3001598005118398  4.1078931806261982  1.4150463608134327
  8.7365497725368400 14.5434992906261993  1.0761933712274323
  7.7248994937338402 12.4563780706261991  0.0016696565894350
  7.3001598005118398 10.3692568506261971  1.4150463608134327
  7.3001598005118398 16.6306205206261950  1.4150463608134327
  8.7365497725368400 18.7177417506261961  1.0761933712274323
  5.0833717126218403  4.1078931806261982 10.8802152747984291
  3.8322289687978395  6.1950144006261985 10.0974769184504343
  5.0833717126218403 10.3692568506261971 10.8802152747984291
  3.8322289687978395 12.4563780706261991 10.0974769184504343
  5.0833717126218403 16.6306205206261950 10.8802152747984291
 10.0265008107568399  2.0207719606261989  9.2241524327134314
  2.5810862249738404  2.0207719606261989  9.3147385621034342
  2.5287862984048401  4.1078931806261982 10.7896291454084334
 10.0265008107568399  8.2821356306261986  9.2241524327134314
  1.2776435545808402  6.1950144006261985 10.0068907890614334
  1.3299434811498401  4.1078931806261982  8.5320002057554305
 10.0788007373258406  6.1950144006261985  7.7492618494084313
  2.5810862249738404  8.2821356306261986  9.3147385621034342
  2.5287862984048401 10.3692568506261971 10.7896291454084334
 10.0265008107568399 14.5434992906261993  9.2241524327134314
  1.2776435545808402 12.4563780706261991 10.0068907890614334
  1.3299434811498401 10.3692568506261971  8.5320002057554305
 10.0788007373258406 12.4563780706261991  7.7492618494084313
  2.5810862249738404 14.5434992906261993  9.3147385621034342
  2.5287862984048401 16.6306205206261950 10.7896291454084334
  1.3299434811498401 16.6306205206261950  8.5320002057554305
 10.0265008107568399 18.7177417506261961  9.2241524327134314
  2.5810862249738404 18.7177417506261961  9.3147385621034342
  8.8276579935018393  2.0207719606261989  6.9665234930604329
  8.7753580669328404  4.1078931806261982  8.4414140763664349
  8.8276579935018393  8.2821356306261986  6.9665234930604329
  8.7753580669328404 10.3692568506261971  8.4414140763664349
  8.8276579935018393 14.5434992906261993  6.9665234930604329
  8.7753580669328404 16.6306205206261950  8.4414140763664349
  8.8276579935018393 18.7177417506261961  6.9665234930604329
  5.1356716423638398  2.0207719606261989  9.4053247052744346
  5.1356716423638398  8.2821356306261986  9.4053247052744346
  6.3868143861878401  6.1950144006261985 10.1880630616214294
  6.4391143127568400  4.1078931806261982  8.7131724783164337
  5.1879715689328405  6.1950144006261985  7.9304341219694345
  5.1356716423638398 14.5434992906261993  9.4053247052744346
  6.3868143861878401 12.4563780706261991 10.1880630616214294
  6.4391143127568400 10.3692568506261971  8.7131724783164337
  5.1879715689328405 12.4563780706261991  7.9304341219694345
  6.4391143127568400 16.6306205206261950  8.7131724783164337
  5.1356716423638398 18.7177417506261961  9.4053247052744346
  1.3822434108928401  2.0207719606261989  7.0571096362324335
  3.9368288251098402  2.0207719606261989  7.1476957656214335
  3.8845288985408399  4.1078931806261982  8.6225863489274346
  1.3822434108928401  8.2821356306261986  7.0571096362324335
  2.6333861547168400  6.1950144006261985  7.8398479925794344
  2.6856860812858403  4.1078931806261982  6.3649574092744317
  3.9368288251098402  8.2821356306261986  7.1476957656214335
  3.8845288985408399 10.3692568506261971  8.6225863489274346
  1.3822434108928401 14.5434992906261993  7.0571096362324335
  2.6333861547168400 12.4563780706261991  7.8398479925794344
  2.6856860812858403 10.3692568506261971  6.3649574092744317
  3.9368288251098402 14.5434992906261993  7.1476957656214335
  3.8845288985408399 16.6306205206261950  8.6225863489274346
  2.6856860812858403 16.6306205206261950  6.3649574092744317
  1.3822434108928401 18.7177417506261961  7.0571096362324335
  3.9368288251098402 18.7177417506261961  7.1476957656214335
 10.1311006670688410  4.1078931806261982  6.2743712798844333
 10.1311006670688410 10.3692568506261971  6.2743712798844333
 10.1311006670688410 16.6306205206261950  6.2743712798844333
  6.4914142424998404  2.0207719606261989  7.2382819087934340
  6.4914142424998404  8.2821356306261986  7.2382819087934340
  6.5437141690688421  6.1950144006261985  5.7633913254874338
  6.4914142424998404 14.5434992906261993  7.2382819087934340
  6.5437141690688421 12.4563780706261991  5.7633913254874338
  6.4914142424998404 18.7177417506261961  7.2382819087934340
  5.2925714252448399  2.0207719606261989  4.9806529691404329
  5.2402714986758401  4.1078931806261982  6.4555435524454330
  3.9891287548518406  6.1950144006261985  5.6728051960984320
  5.2925714252448399  8.2821356306261986  4.9806529691404329
  5.2402714986758401 10.3692568506261971  6.4555435524454330
  3.9891287548518406 12.4563780706261991  5.6728051960984320
  5.2925714252448399 14.5434992906261993  4.9806529691404329
  5.2402714986758401 16.6306205206261950  6.4555435524454330
  5.2925714252448399 18.7177417506261961  4.9806529691404329
  5.0690202453618403  6.1950144006261985  2.2086818600194333
  5.0690202453618403 12.4563780706261991  2.2086818600194333
  9.1612894653328407  4.1078931806261982  9.6628166811394358
 10.1729397441348404  6.1950144006261985 10.7373403957774300
  9.1612894653328407 10.3692568506261971  9.6628166811394358
 10.1729397441348404 12.4563780706261991 10.7373403957774300
  9.1612894653328407 16.6306205206261950  9.6628166811394358
  3.6326302737638398  2.0207719606261989  2.5475348354694334
  1.1845900229368405  2.0207719606261989 11.8118641104164332
  3.6326302737638398  8.2821356306261986  2.5475348354694334
  2.6209799949608401  6.1950144006261985 11.4730111208304333
  2.1962403017388406  4.1078931806261982  2.8863878250544337
  3.2078905805408398  6.1950144006261985  3.9609115396934338
  1.1845900229368405  8.2821356306261986 11.8118641104164332
  3.6326302737638398 14.5434992906261993  2.5475348354694334
  2.6209799949608401 12.4563780706261991 11.4730111208304333
  2.1962403017388406 10.3692568506261971  2.8863878250544337
  3.2078905805408398 12.4563780706261991  3.9609115396934338
  1.1845900229368405 14.5434992906261993 11.8118641104164332
  2.1962403017388406 16.6306205206261950  2.8863878250544337
  3.6326302737638398 18.7177417506261961  2.5475348354694334
  1.1845900229368405 18.7177417506261961 11.8118641104164332
  4.6442805525658404  4.1078931806261982  3.6220585501074325
  4.6442805525658404 10.3692568506261971  3.6220585501074325
  4.6442805525658404 16.6306205206261950  3.6220585501074325
  8.7365497725368400  2.0207719606261989 11.0761933712274327
  8.7365497725368400  8.2821356306261986 11.0761933712274327
  7.7248994937338402  6.1950144006261985 10.0016696565894314
  7.3001598005118398  4.1078931806261982 11.4150463608134292
  8.3118100793138403  6.1950144006261985  2.4895700754514336
  8.7365497725368400 14.5434992906261993 11.0761933712274327
  7.7248994937338402 12.4563780706261991 10.0016696565894314
  7.3001598005118398 10.3692568506261971 11.4150463608134292
  8.3118100793138403 12.4563780706261991  2.4895700754514336
  7.3001598005118398 16.6306205206261950 11.4150463608134292
  8.7365497725368400 18.7177417506261961 11.0761933712274327
  1.7715006089428400  2.0207719606261989  4.2997645151424315
  9.3234603581168400  2.0207719606261989  3.5640937900904328
  9.7482000513388396  4.1078931806261982  2.1507170858664333
  1.7715006089428400  8.2821356306261986  4.2997645151424315
  0.7598503301408401  6.1950144006261985  3.2252408005044324
  0.3351106369188401  4.1078931806261982  4.6386175047284315
  1.3467609157208400  6.1950144006261985  5.7131412193664328
  9.3234603581168400  8.2821356306261986  3.5640937900904328
  9.7482000513388396 10.3692568506261971  2.1507170858664333
  1.7715006089428400 14.5434992906261993  4.2997645151424315
  0.7598503301408401 12.4563780706261991  3.2252408005044324
  0.3351106369188401 10.3692568506261971  4.6386175047284315
  1.3467609157208400 12.4563780706261991  5.7131412193664328
  9.3234603581168400 14.5434992906261993  3.5640937900904328
  9.7482000513388396 16.6306205206261950  2.1507170858664333
  0.3351106369188401 16.6306205206261950  4.6386175047284315
  1.7715006089428400 18.7177417506261961  4.2997645151424315
  9.3234603581168400 18.7177417506261961  3.5640937900904328
  6.8754201077158390  2.0207719606261989  2.8284230509014332
  6.8754201077158390  8.2821356306261986  2.8284230509014332
  6.4506804144938412  6.1950144006261985  4.2417997551254327
  6.8754201077158390 14.5434992906261993  2.8284230509014332
  6.4506804144938412 12.4563780706261991  4.2417997551254327
  6.8754201077158390 18.7177417506261961  2.8284230509014332
  9.9103709441228407  2.0207719606261989  6.0519941948164320
  7.4623306932958400  2.0207719606261989  5.3163234697634332
  7.8870703865178422  4.1078931806261982  3.9029467655404333
  9.9103709441228407  8.2821356306261986  6.0519941948164320
  8.8987206653198410  6.1950144006261985  4.9774704801784333
  8.4739809720978396  4.1078931806261982  6.3908471844024319
  7.4623306932958400  8.2821356306261986  5.3163234697634332
  7.8870703865178422 10.3692568506261971  3.9029467655404333
  9.9103709441228407 14.5434992906261993  6.0519941948164320
  8.8987206653198410 12.4563780706261991  4.9774704801784333
  8.4739809720978396 10.3692568506261971  6.3908471844024319
  7.4623306932958400 14.5434992906261993  5.3163234697634332
  7.8870703865178422 16.6306205206261950  3.9029467655404333
  8.4739809720978396 16.6306205206261950  6.3908471844024319
  9.9103709441228407 18.7177417506261961  6.0519941948164320
  7.4623306932958400 18.7177417506261961  5.3163234697634332
  6.5437141690688421  6.1950144006261985 15.7633913254874347
  6.5437141690688421 12.4563780706261991 15.7633913254874347
  5.2925714252448399  2.0207719606261989 14.9806529691404346
  3.9891287548518406  6.1950144006261985 15.6728051960984338
  5.2925714252448399  8.2821356306261986 14.9806529691404346
  3.9891287548518406 12.4563780706261991 15.6728051960984338
  5.2925714252448399 14.5434992906261993 14.9806529691404346
  5.2925714252448399 18.7177417506261961 14.9806529691404346
  5.0690202453618403  6.1950144006261985 12.2086818600194338
  5.0690202453618403 12.4563780706261991 12.2086818600194338
  3.6326302737638398  2.0207719606261989 12.5475348354694294
  3.6326302737638398  8.2821356306261986 12.5475348354694294
  2.1962403017388406  4.1078931806261982 12.8863878250544328
  3.2078905805408398  6.1950144006261985 13.9609115396934307
  3.6326302737638398 14.5434992906261993 12.5475348354694294
  2.1962403017388406 10.3692568506261971 12.8863878250544328
  3.2078905805408398 12.4563780706261991 13.9609115396934307
  2.1962403017388406 16.6306205206261950 12.8863878250544328
  3.6326302737638398 18.7177417506261961 12.5475348354694294
  4.6442805525658404  4.1078931806261982 13.6220585501074343
  4.6442805525658404 10.3692568506261971 13.6220585501074343
  4.6442805525658404 16.6306205206261950 13.6220585501074343
  8.3118100793138403  6.1950144006261985 12.4895700754514341
  8.3118100793138403 12.4563780706261991 12.4895700754514341
  1.7715006089428400  2.0207719606261989 14.2997645151424333
  9.3234603581168400  2.0207719606261989 13.5640937900904301
  9.7482000513388396  4.1078931806261982 12.1507170858664306
  1.7715006089428400  8.2821356306261986 14.2997645151424333
  0.7598503301408401  6.1950144006261985 13.2252408005044337
  0.3351106369188401  4.1078931806261982 14.6386175047284297
  1.3467609157208400  6.1950144006261985 15.7131412193664346
  9.3234603581168400  8.2821356306261986 13.5640937900904301
  9.7482000513388396 10.3692568506261971 12.1507170858664306
  1.7715006089428400 14.5434992906261993 14.2997645151424333
  0.7598503301408401 12.4563780706261991 13.2252408005044337
  0.3351106369188401 10.3692568506261971 14.6386175047284297
  1.3467609157208400 12.4563780706261991 15.7131412193664346
  9.3234603581168400 14.5434992906261993 13.5640937900904301
  9.7482000513388396 16.6306205206261950 12.1507170858664306
  0.3351106369188401 16.6306205206261950 14.6386175047284297
  1.7715006089428400 18.7177417506261961 14.2997645151424333
  9.3234603581168400 18.7177417506261961 13.5640937900904301
  6.8754201077158390  2.0207719606261989 12.8284230509014296
  6.8754201077158390  8.2821356306261986 12.8284230509014296
  6.4506804144938412  6.1950144006261985 14.2417997551254292
  6.8754201077158390 14.5434992906261993 12.8284230509014296
  6.4506804144938412 12.4563780706261991 14.2417997551254292
  6.8754201077158390 18.7177417506261961 12.8284230509014296
  7.4623306932958400  2.0207719606261989 15.3163234697634341
  7.8870703865178422  4.1078931806261982 13.9029467655404328
  8.8987206653198410  6.1950144006261985 14.9774704801784306
  7.4623306932958400  8.2821356306261986 15.3163234697634341
  7.8870703865178422 10.3692568506261971 13.9029467655404328
  8.8987206653198410 12.4563780706261991 14.9774704801784306
  7.4623306932958400 14.5434992906261993 15.3163234697634341
  7.8870703865178422 16.6306205206261950 13.9029467655404328
  7.4623306932958400 18.7177417506261961 15.3163234697634341
 11.2776435545808393  6.1950144006261985  0.0068907890614334
 11.2776435545808393 12.4563780706261991  0.0068907890614334
 11.1845900229368400  2.0207719606261989  1.8118641104164332
 11.1845900229368400  8.2821356306261986  1.8118641104164332
 11.1845900229368400 14.5434992906261993  1.8118641104164332
 11.1845900229368400 18.7177417506261961  1.8118641104164332
 11.2776435545808393  6.1950144006261985 10.0068907890614334
 11.3299434811498401  4.1078931806261982  8.5320002057554305
 11.2776435545808393 12.4563780706261991 10.0068907890614334
 11.3299434811498401 10.3692568506261971  8.5320002057554305
 11.3299434811498401 16.6306205206261950  8.5320002057554305
 11.3822434108928405  2.0207719606261989  7.0571096362324335
 11.3822434108928405  8.2821356306261986  7.0571096362324335
 11.3822434108928405 14.5434992906261993  7.0571096362324335
 11.3822434108928405 18.7177417506261961  7.0571096362324335
 11.1845900229368400  2.0207719606261989 11.8118641104164332
 11.1845900229368400  8.2821356306261986 11.8118641104164332
 11.1845900229368400 14.5434992906261993 11.8118641104164332
 11.1845900229368400 18.7177417506261961 11.8118641104164332
 11.7715006089428407  2.0207719606261989  4.2997645151424315
 11.7715006089428407  8.2821356306261986  4.2997645151424315
 10.7598503301408392  6.1950144006261985  3.2252408005044324
 10.3351106369188397  4.1078931806261982  4.6386175047284315
 11.3467609157208393  6.1950144006261985  5.7131412193664328
 11.7715006089428407 14.5434992906261993  4.2997645151424315
 10.7598503301408392 12.4563780706261991  3.2252408005044324
 10.3351106369188397 10.3692568506261971  4.6386175047284315
 11.3467609157208393 12.4563780706261991  5.7131412193664328
 10.3351106369188397 16.6306205206261950  4.6386175047284315
 11.7715006089428407 18.7177417506261961  4.2997645151424315
 11.7715006089428407  2.0207719606261989 14.2997645151424333
 11.7715006089428407  8.2821356306261986 14.2997645151424333
 10.7598503301408392  6.1950144006261985 13.2252408005044337
 10.3351106369188397  4.1078931806261982 14.6386175047284297
 11.3467609157208393  6.1950144006261985 15.7131412193664346
 11.7715006089428407 14.5434992906261993 14.2997645151424333
 10.7598503301408392 12.4563780706261991 13.2252408005044337
 10.3351106369188397 10.3692568506261971 14.6386175047284297
 11.3467609157208393 12.4563780706261991 15.7131412193664346
 10.3351106369188397 16.6306205206261950 14.6386175047284297
 11.7715006089428407 18.7177417506261961 14.2997645151424333
