Cu
 1.0000000000000000
    13.2289071615364691    0.0000000000000000    0.0000000000000000
     0.0000000000000000   12.9239205093228406    0.0000000000000000
     0.0000000000000000    0.0000000000000000   12.1691841306915194
 Cu 
 156
Cartesian
  2.2075164814007326  1.2867949765253175  2.0975476838074032
  0.9563737375767323  3.3739161965253182  1.3148093274594048
  2.2075164814007326  7.5481586465253168  2.0975476838074032
  0.9563737375767323  9.6352798665253196  1.3148093274594048
  7.1506455795357331  5.4610374265253183  0.4414848417224047
  7.1506455795357331 11.7224010965253154  0.4414848417224047
  2.2598164111427321  5.4610374265253183  0.6226571142834043
  3.5109591549667325  3.3739161965253182  1.4053954706304035
  2.2598164111427321 11.7224010965253154  0.6226571142834043
  3.5109591549667325  9.6352798665253196  1.4053954706304035
  6.2854342341117331  1.2867949765253175  0.8801490901484055
  7.2970845129137336  3.3739161965253182  1.9546728047864041
  6.2854342341117331  7.5481586465253168  0.8801490901484055
  7.2970845129137336  9.6352798665253196  1.9546728047864041
  5.8606945413157323  5.4610374265253183  2.2935257802364033
  4.8490442625127335  3.3739161965253182  1.2190020655984055
  4.4243045692907321  1.2867949765253175  2.6323787698224037
  5.8606945413157323 11.7224010965253154  2.2935257802364033
  4.8490442625127335  9.6352798665253196  1.2190020655984055
  4.4243045692907321  7.5481586465253168  2.6323787698224037
  2.2075164814007326  1.2867949765253175 12.0975476838074023
  0.9563737375767323  3.3739161965253182 11.3148093274594039
  2.2075164814007326  7.5481586465253168 12.0975476838074023
  0.9563737375767323  9.6352798665253196 11.3148093274594039
  7.1506455795357331  5.4610374265253183 10.4414848417224047
  7.2029455061047338  3.3739161965253182  8.9665942584174037
  7.1506455795357331 11.7224010965253154 10.4414848417224047
  7.2029455061047338  9.6352798665253196  8.9665942584174037
  5.8995028357117327  1.2867949765253175  9.6587464853754064
  5.9518027622807317  5.4610374265253183  8.1838559020694035
  5.8995028357117327  7.5481586465253168  9.6587464853754064
  5.9518027622807317 11.7224010965253154  8.1838559020694035
  2.2598164111427321  5.4610374265253183 10.6226571142834043
  3.5109591549667325  3.3739161965253182 11.4053954706304026
  3.5632590815357323  1.2867949765253175  9.9305048873254069
  2.3121163377117333  3.3739161965253182  9.1477665309784051
  2.2598164111427321 11.7224010965253154 10.6226571142834043
  3.5109591549667325  9.6352798665253196 11.4053954706304026
  3.5632590815357323  7.5481586465253168  9.9305048873254069
  2.3121163377117333  9.6352798665253196  9.1477665309784051
  1.0086736673197327  1.2867949765253175  9.8399187579364042
  1.0609735938887326  5.4610374265253183  8.3650281746304032
  1.0086736673197327  7.5481586465253168  9.8399187579364042
  1.0609735938887326 11.7224010965253154  8.3650281746304032
  7.2552454358477343  1.2867949765253175  7.4917036888934048
  7.2552454358477343  7.5481586465253168  7.4917036888934048
  3.6155590112787332  5.4610374265253183  8.4556143178024037
  3.6678589378477353  3.3739161965253182  6.9807237344964044
  3.6155590112787332 11.7224010965253154  8.4556143178024037
  3.6678589378477353  9.6352798665253196  6.9807237344964044
  2.3644162674547324  1.2867949765253175  7.6728759614544044
  1.1132735236307336  3.3739161965253182  6.8901376051074035
  2.4167161940237323  5.4610374265253183  6.1979853781494052
  2.3644162674547324  7.5481586465253168  7.6728759614544044
  1.1132735236307336  9.6352798665253196  6.8901376051074035
  2.4167161940237323 11.7224010965253154  6.1979853781494052
  2.1931650141407326  3.3739161965253182  3.4260142690284039
  2.1931650141407326  9.6352798665253196  3.4260142690284039
  6.2854342341117331  1.2867949765253175 10.8801490901484055
  7.2970845129137336  3.3739161965253182 11.9546728047864050
  6.2854342341117331  7.5481586465253168 10.8801490901484055
  7.2970845129137336  9.6352798665253196 11.9546728047864050
  0.7567750425427326  5.4610374265253183  3.7648672444784044
  0.3320353493197326  3.3739161965253182  5.1782439487024039
  0.7567750425427326 11.7224010965253154  3.7648672444784044
  0.3320353493197326  9.6352798665253196  5.1782439487024039
  1.7684253213447327  1.2867949765253175  4.8393909591164048
  1.7684253213447327  7.5481586465253168  4.8393909591164048
  4.8490442625127335  3.3739161965253182 11.2190020655984082
  5.4359548480927344  3.3739161965253182  3.7069024844604042
  4.8490442625127335  9.6352798665253196 11.2190020655984082
  5.4359548480927344  9.6352798665253196  3.7069024844604042
  6.8723448201177320  1.2867949765253175  3.3680494948754043
  6.4476051268957333  5.4610374265253183  4.7814261990994043
  6.8723448201177320  7.5481586465253168  3.3680494948754043
  6.4476051268957333 11.7224010965253154  4.7814261990994043
  3.9995648764947322  5.4610374265253183  4.0457554599104038
  3.5748251832727331  3.3739161965253182  5.4591321641344042
  3.9995648764947322 11.7224010965253154  4.0457554599104038
  3.5748251832727331  9.6352798665253196  5.4591321641344042
  5.0112151552967346  1.2867949765253175  5.1202791745494043
  7.0345157129017348  5.4610374265253183  7.2693266038254061
  6.0228654340987351  3.3739161965253182  6.1948028891874038
  5.5981257408767338  1.2867949765253175  7.6081795934114043
  4.5864754620747323  5.4610374265253183  6.5336558787724037
  5.0112151552967346  7.5481586465253168  5.1202791745494043
  7.0345157129017348 11.7224010965253154  7.2693266038254061
  6.0228654340987351  9.6352798665253196  6.1948028891874038
  5.5981257408767338  7.5481586465253168  7.6081795934114043
  4.5864754620747323 11.7224010965253154  6.5336558787724037
 12.2075164814007326  1.2867949765253175  2.0975476838074032
 10.9563737375767332  3.3739161965253182  1.3148093274594048
 12.2075164814007326  7.5481586465253168  2.0975476838074032
 10.9563737375767332  9.6352798665253196  1.3148093274594048
  9.6529310671837365  1.2867949765253175  2.0069615544174040
  8.4017883233597317  3.3739161965253182  1.2242231980704039
  9.7052309937527319  5.4610374265253183  0.5320709711124049
  9.6529310671837365  7.5481586465253168  2.0069615544174040
  8.4017883233597317  9.6352798665253196  1.2242231980704039
  9.7052309937527319 11.7224010965253154  0.5320709711124049
 12.2598164111427348  5.4610374265253183  0.6226571142834043
 12.2598164111427348 11.7224010965253154  0.6226571142834043
  9.7451247637397316  3.3739161965253182  2.6903435298394038
  8.3087347917157324  5.4610374265253183  3.0291965194254038
  9.7451247637397316  9.6352798665253196  2.6903435298394038
  8.3087347917157324 11.7224010965253154  3.0291965194254038
 12.2075164814007326  1.2867949765253175 12.0975476838074023
 10.9563737375767332  3.3739161965253182 11.3148093274594039
 12.2075164814007326  7.5481586465253168 12.0975476838074023
 10.9563737375767332  9.6352798665253196 11.3148093274594039
  9.6529310671837365  1.2867949765253175 12.0069615544174049
  8.4017883233597317  3.3739161965253182 11.2242231980704048
  8.4540882499287324  1.2867949765253175  9.7493326147644073
  9.7052309937527319  5.4610374265253183 10.5320709711124039
  9.6529310671837365  7.5481586465253168 12.0069615544174049
  8.4017883233597317  9.6352798665253196 11.2242231980704048
  8.4540882499287324  7.5481586465253168  9.7493326147644073
  9.7052309937527319 11.7224010965253154 10.5320709711124039
 12.2598164111427348  5.4610374265253183 10.6226571142834043
 12.3121163377117355  3.3739161965253182  9.1477665309784051
 12.2598164111427348 11.7224010965253154 10.6226571142834043
 12.3121163377117355  9.6352798665253196  9.1477665309784051
 11.0086736673197336  1.2867949765253175  9.8399187579364042
  8.5063881796717329  5.4610374265253183  8.2744420452414076
  9.7575309234957341  3.3739161965253182  9.0571804015884059
  9.8098308500647349  1.2867949765253175  7.5822898182834049
 11.0609735938887326  5.4610374265253183  8.3650281746304032
 11.0086736673197336  7.5481586465253168  9.8399187579364042
  8.5063881796717329 11.7224010965253154  8.2744420452414076
  9.7575309234957341  9.6352798665253196  9.0571804015884059
  9.8098308500647349  7.5481586465253168  7.5822898182834049
 11.0609735938887326 11.7224010965253154  8.3650281746304032
 12.3644162674547342  1.2867949765253175  7.6728759614544044
 11.1132735236307330  3.3739161965253182  6.8901376051074035
 12.4167161940237349  5.4610374265253183  6.1979853781494052
 12.3644162674547342  7.5481586465253168  7.6728759614544044
 11.1132735236307330  9.6352798665253196  6.8901376051074035
 12.4167161940237349 11.7224010965253154  6.1979853781494052
 12.1931650141407317  3.3739161965253182  3.4260142690284039
 12.1931650141407317  9.6352798665253196  3.4260142690284039
 10.7567750425427349  5.4610374265253183  3.7648672444784044
  9.3203850705177320  1.2867949765253175  4.1037202340634042
 10.3320353493197317  3.3739161965253182  5.1782439487024039
 10.7567750425427349 11.7224010965253154  3.7648672444784044
  9.3203850705177320  7.5481586465253168  4.1037202340634042
 10.3320353493197317  9.6352798665253196  5.1782439487024039
 11.7684253213447327  1.2867949765253175  4.8393909591164048
 11.7684253213447327  7.5481586465253168  4.8393909591164048
  8.8956453777217330  5.4610374265253183  5.5170969241514038
  7.8839950989197316  3.3739161965253182  4.4425732095134034
  7.4592554056977320  1.2867949765253175  5.8559499137374056
  8.4709056844997317  3.3739161965253182  6.9304736283754043
  8.8956453777217330 11.7224010965253154  5.5170969241514038
  7.8839950989197316  9.6352798665253196  4.4425732095134034
  7.4592554056977320  7.5481586465253168  5.8559499137374056
  8.4709056844997317  9.6352798665253196  6.9304736283754043
