Cu
 1.0000000000000000
    17.0466579229179374    0.0000000000000000    0.0000000000000000
     0.0000000000000000   13.4200526594957399    0.0000000000000000
     0.0000000000000000    0.0000000000000000   14.7108450848768406
 Cu 
 246
Cartesian
  1.0251566841812627  1.1291787151241213  6.2594639024146606
  2.2762994280052631  5.3034211651241217  7.0422022587626589
  1.0251566841812627  7.3905423851241210  6.2594639024146606
  2.2762994280052631 11.5647848351241187  7.0422022587626589
  7.2194285261402626  3.2162999451241205  5.3861394166776604
  7.2717284527092634  1.1291787151241213  3.9112488333726594
  7.2194285261402626  9.4776636051241212  5.3861394166776604
  7.2717284527092634  7.3905423851241210  3.9112488333726594
  6.0205857088852621  3.2162999451241205  3.1285104770246592
  5.9682857823162632  5.3034211651241217  4.6034010603306612
  6.0205857088852621  9.4776636051241212  3.1285104770246592
  5.9682857823162632 11.5647848351241187  4.6034010603306612
  2.3285993577472626  3.2162999451241205  5.5673116892386600
  3.5797421015712634  1.1291787151241213  6.3500500455856592
  2.3808992843162633  1.1291787151241213  4.0924211059336608
  2.3285993577472626  9.4776636051241212  5.5673116892386600
  3.5797421015712634  7.3905423851241210  6.3500500455856592
  3.6320420281402628  5.3034211651241217  4.8751594622806609
  2.3808992843162633  7.3905423851241210  4.0924211059336608
  3.6320420281402628 11.5647848351241187  4.8751594622806609
  1.1297565404932630  3.2162999451241205  3.3096827495856598
  1.0774566139242632  5.3034211651241217  4.7845733328916600
  1.1297565404932630  9.4776636051241212  3.3096827495856598
  1.0774566139242632 11.5647848351241187  4.7845733328916600
  7.3240283824522638  5.3034211651241217  2.4363582638486596
  7.3240283824522638 11.5647848351241187  2.4363582638486596
  3.6843419578832632  3.2162999451241205  3.4002688927576603
  3.7366418844522649  1.1291787151241213  1.9253783094516601
  3.6843419578832632  9.4776636051241212  3.4002688927576603
  3.7366418844522649  7.3905423851241210  1.9253783094516601
  1.1820564702352634  1.1291787151241213  1.8347921800626599
  2.4854991406282627  3.2162999451241205  1.1426399531046605
  2.4331992140592624  5.3034211651241217  2.6175305364096593
  1.1820564702352634  7.3905423851241210  1.8347921800626599
  2.4854991406282627  9.4776636051241212  1.1426399531046605
  2.4331992140592624 11.5647848351241187  2.6175305364096593
  7.3658674595182632  1.1291787151241213  6.8993273797416599
  6.3542171807162635  5.3034211651241217  5.8248036651036612
  7.3658674595182632  7.3905423851241210  6.8993273797416599
  6.3542171807162635 11.5647848351241187  5.8248036651036612
  0.4008182959242630  1.1291787151241213  0.1228985236576601
  0.4008182959242630  7.3905423851241210  0.1228985236576601
  5.9294774879202627  3.2162999451241205  7.2381803551916590
  4.9178272091172630  1.1291787151241213  6.1636566405536612
  5.9294774879202627  9.4776636051241212  7.2381803551916590
  4.9178272091172630  7.3905423851241210  6.1636566405536612
  4.4930875158952626  5.3034211651241217  7.5770333447776581
  4.4930875158952626 11.5647848351241187  7.5770333447776581
  3.6436081298772636  1.1291787151241213  0.4037867390896595
  3.6436081298772636  7.3905423851241210  0.4037867390896595
  7.1032986595062635  3.2162999451241205  2.2139811787806600
  6.0916483807032638  1.1291787151241213  1.1394574641426596
  4.6552584086792628  3.2162999451241205  1.4783104537276595
  5.0799981019012650  5.3034211651241217  0.0649337495046596
  7.1032986595062635  9.4776636051241212  2.2139811787806600
  6.0916483807032638  7.3905423851241210  1.1394574641426596
  5.6669086874812624  5.3034211651241217  2.5528341683666600
  4.6552584086792628  9.4776636051241212  1.4783104537276595
  5.0799981019012650 11.5647848351241187  0.0649337495046596
  5.6669086874812624 11.5647848351241187  2.5528341683666600
  7.2717284527092634  1.1291787151241213 13.9112488333726585
  7.2717284527092634  7.3905423851241210 13.9112488333726585
  6.0205857088852621  3.2162999451241205 13.1285104770246601
  5.9682857823162632  5.3034211651241217 14.6034010603306630
  6.0205857088852621  9.4776636051241212 13.1285104770246601
  5.9682857823162632 11.5647848351241187 14.6034010603306630
  2.3808992843162633  1.1291787151241213 14.0924211059336617
  2.3808992843162633  7.3905423851241210 14.0924211059336617
  1.1297565404932630  3.2162999451241205 13.3096827495856598
  1.1297565404932630  9.4776636051241212 13.3096827495856598
  7.3240283824522638  5.3034211651241217 12.4363582638486587
  7.3240283824522638 11.5647848351241187 12.4363582638486587
  3.6843419578832632  3.2162999451241205 13.4002688927576603
  3.7366418844522649  1.1291787151241213 11.9253783094516610
  3.6843419578832632  9.4776636051241212 13.4002688927576603
  3.7366418844522649  7.3905423851241210 11.9253783094516610
  1.1820564702352634  1.1291787151241213 11.8347921800626601
  2.4854991406282627  3.2162999451241205 11.1426399531046609
  2.4331992140592624  5.3034211651241217 12.6175305364096584
  1.1820564702352634  7.3905423851241210 11.8347921800626601
  2.4854991406282627  9.4776636051241212 11.1426399531046609
  2.4331992140592624 11.5647848351241187 12.6175305364096584
  2.2619479607452631  1.1291787151241213  8.3706688439836601
  2.2619479607452631  7.3905423851241210  8.3706688439836601
  0.8255579891472635  3.2162999451241205  8.7095218194336592
  0.4008182959242630  1.1291787151241213 10.1228985236576605
  0.8255579891472635  9.4776636051241212  8.7095218194336592
  0.4008182959242630  7.3905423851241210 10.1228985236576605
  1.8372082679492632  5.3034211651241217  9.7840455340716606
  1.8372082679492632 11.5647848351241187  9.7840455340716606
  5.5047377946972631  1.1291787151241213  8.6515570594156603
  5.5047377946972631  7.3905423851241210  8.6515570594156603
  6.5163880735002628  3.2162999451241205  9.7260807740546600
  6.9411277667222624  5.3034211651241217  8.3127040698306605
  6.5163880735002628  9.4776636051241212  9.7260807740546600
  6.9411277667222624 11.5647848351241187  8.3127040698306605
  4.0683478230992627  3.2162999451241205  8.9904100348656595
  3.6436081298772636  1.1291787151241213 10.4037867390896590
  4.0683478230992627  9.4776636051241212  8.9904100348656595
  3.6436081298772636  7.3905423851241210 10.4037867390896590
  7.1032986595062635  3.2162999451241205 12.2139811787806600
  6.0916483807032638  1.1291787151241213 11.1394574641426605
  4.6552584086792628  3.2162999451241205 11.4783104537276603
  5.0799981019012650  5.3034211651241217 10.0649337495046591
  7.1032986595062635  9.4776636051241212 12.2139811787806600
  6.0916483807032638  7.3905423851241210 11.1394574641426605
  5.6669086874812624  5.3034211651241217 12.5528341683666600
  4.6552584086792628  9.4776636051241212 11.4783104537276603
  5.0799981019012650 11.5647848351241187 10.0649337495046591
  5.6669086874812624 11.5647848351241187 12.5528341683666600
 11.0251566841812618  1.1291787151241213  6.2594639024146606
 12.2762994280052631  5.3034211651241217  7.0422022587626589
 11.0251566841812618  7.3905423851241210  6.2594639024146606
 12.2762994280052631 11.5647848351241187  7.0422022587626589
  8.4705712699642621  1.1291787151241213  6.1688777730256596
  9.7740139403572641  3.2162999451241205  5.4767255460676605
  9.7217140137882634  5.3034211651241217  6.9516161293726597
  8.4705712699642621  7.3905423851241210  6.1688777730256596
  8.5228711965332629  5.3034211651241217  4.6939871897196612
  9.7740139403572641  9.4776636051241212  5.4767255460676605
  9.7217140137882634 11.5647848351241187  6.9516161293726597
  8.5228711965332629 11.5647848351241187  4.6939871897196612
 16.0205857088852639  3.2162999451241205  3.1285104770246592
 15.9682857823162632  5.3034211651241217  4.6034010603306612
 16.0205857088852639  9.4776636051241212  3.1285104770246592
 15.9682857823162632 11.5647848351241187  4.6034010603306612
 12.3285993577472617  3.2162999451241205  5.5673116892386600
 13.5797421015712629  1.1291787151241213  6.3500500455856592
 12.3808992843162642  1.1291787151241213  4.0924211059336608
 12.3285993577472617  9.4776636051241212  5.5673116892386600
 13.5797421015712629  7.3905423851241210  6.3500500455856592
 13.6320420281402619  5.3034211651241217  4.8751594622806609
 12.3808992843162642  7.3905423851241210  4.0924211059336608
 13.6320420281402619 11.5647848351241187  4.8751594622806609
  8.5751711262762633  3.2162999451241205  3.2190966201966615
  9.8263138701002628  1.1291787151241213  4.0018349765436607
 11.1297565404932630  3.2162999451241205  3.3096827495856598
 11.0774566139242623  5.3034211651241217  4.7845733328916600
  8.5751711262762633  9.4776636051241212  3.2190966201966615
  9.8263138701002628  7.3905423851241210  4.0018349765436607
  9.8786137966692635  5.3034211651241217  2.5269443932386597
 11.1297565404932630  9.4776636051241212  3.3096827495856598
 11.0774566139242623 11.5647848351241187  4.7845733328916600
  9.8786137966692635 11.5647848351241187  2.5269443932386597
 13.6843419578832624  3.2162999451241205  3.4002688927576603
 13.7366418844522649  1.1291787151241213  1.9253783094516601
 13.6843419578832624  9.4776636051241212  3.4002688927576603
 13.7366418844522649  7.3905423851241210  1.9253783094516601
 11.1820564702352616  1.1291787151241213  1.8347921800626599
 12.4854991406282636  3.2162999451241205  1.1426399531046605
 12.4331992140592629  5.3034211651241217  2.6175305364096593
 11.1820564702352616  7.3905423851241210  1.8347921800626599
 12.4854991406282636  9.4776636051241212  1.1426399531046605
 12.4331992140592629 11.5647848351241187  2.6175305364096593
 16.3542171807162617  5.3034211651241217  5.8248036651036612
 16.3542171807162617 11.5647848351241187  5.8248036651036612
  9.8139077103442638  1.1291787151241213  7.6349981047946605
 10.4008182959242639  1.1291787151241213  0.1228985236576601
  8.3775177383202628  3.2162999451241205  7.9738510943806586
  9.8139077103442638  7.3905423851241210  7.6349981047946605
 10.4008182959242639  7.3905423851241210  0.1228985236576601
  8.3775177383202628  9.4776636051241212  7.9738510943806586
 15.9294774879202627  3.2162999451241205  7.2381803551916590
 14.9178272091172630  1.1291787151241213  6.1636566405536612
 15.9294774879202627  9.4776636051241212  7.2381803551916590
 14.9178272091172630  7.3905423851241210  6.1636566405536612
 14.4930875158952617  5.3034211651241217  7.5770333447776581
 14.4930875158952617 11.5647848351241187  7.5770333447776581
  8.9644283243262635  3.2162999451241205  0.4617514991066595
  8.5396886311042621  1.1291787151241213  1.8751282033306604
  8.9644283243262635  9.4776636051241212  0.4617514991066595
  7.5280383523022625  5.3034211651241217  0.8006044886926600
  8.5396886311042621  7.3905423851241210  1.8751282033306604
  7.5280383523022625 11.5647848351241187  0.8006044886926600
 13.6436081298772631  1.1291787151241213  0.4037867390896595
 13.6436081298772631  7.3905423851241210  0.4037867390896595
 16.0916483807032620  1.1291787151241213  1.1394574641426596
 14.6552584086792628  3.2162999451241205  1.4783104537276595
 15.0799981019012641  5.3034211651241217  0.0649337495046596
 16.0916483807032620  7.3905423851241210  1.1394574641426596
 15.6669086874812624  5.3034211651241217  2.5528341683666600
 14.6552584086792628  9.4776636051241212  1.4783104537276595
 15.0799981019012641 11.5647848351241187  0.0649337495046596
 15.6669086874812624 11.5647848351241187  2.5528341683666600
  8.5228711965332629  5.3034211651241217 14.6939871897196621
  8.5228711965332629 11.5647848351241187 14.6939871897196621
 16.0205857088852639  3.2162999451241205 13.1285104770246601
 15.9682857823162632  5.3034211651241217 14.6034010603306630
 16.0205857088852639  9.4776636051241212 13.1285104770246601
 15.9682857823162632 11.5647848351241187 14.6034010603306630
 12.3808992843162642  1.1291787151241213 14.0924211059336617
 12.3808992843162642  7.3905423851241210 14.0924211059336617
  8.5751711262762633  3.2162999451241205 13.2190966201966607
  9.8263138701002628  1.1291787151241213 14.0018349765436607
 11.1297565404932630  3.2162999451241205 13.3096827495856598
  8.5751711262762633  9.4776636051241212 13.2190966201966607
  9.8263138701002628  7.3905423851241210 14.0018349765436607
  9.8786137966692635  5.3034211651241217 12.5269443932386597
 11.1297565404932630  9.4776636051241212 13.3096827495856598
  9.8786137966692635 11.5647848351241187 12.5269443932386597
 13.6843419578832624  3.2162999451241205 13.4002688927576603
 13.7366418844522649  1.1291787151241213 11.9253783094516610
 13.6843419578832624  9.4776636051241212 13.4002688927576603
 13.7366418844522649  7.3905423851241210 11.9253783094516610
 11.1820564702352616  1.1291787151241213 11.8347921800626601
 12.4854991406282636  3.2162999451241205 11.1426399531046609
 12.4331992140592629  5.3034211651241217 12.6175305364096584
 11.1820564702352616  7.3905423851241210 11.8347921800626601
 12.4854991406282636  9.4776636051241212 11.1426399531046609
 12.4331992140592629 11.5647848351241187 12.6175305364096584
 12.2619479607452639  1.1291787151241213  8.3706688439836601
 12.2619479607452639  7.3905423851241210  8.3706688439836601
 10.8255579891472635  3.2162999451241205  8.7095218194336592
 10.4008182959242639  1.1291787151241213 10.1228985236576605
 10.8255579891472635  9.4776636051241212  8.7095218194336592
  9.3891680171222625  5.3034211651241217  9.0483748090186591
 10.4008182959242639  7.3905423851241210 10.1228985236576605
  9.3891680171222625 11.5647848351241187  9.0483748090186591
 11.8372082679492632  5.3034211651241217  9.7840455340716606
 11.8372082679492632 11.5647848351241187  9.7840455340716606
 15.5047377946972631  1.1291787151241213  8.6515570594156603
 15.5047377946972631  7.3905423851241210  8.6515570594156603
  8.9644283243262635  3.2162999451241205 10.4617514991066596
  7.9527780455242629  1.1291787151241213  9.3872277844686600
  8.5396886311042621  1.1291787151241213 11.8751282033306609
 16.5163880735002628  3.2162999451241205  9.7260807740546600
 16.9411277667222606  5.3034211651241217  8.3127040698306605
  8.9644283243262635  9.4776636051241212 10.4617514991066596
  7.9527780455242629  7.3905423851241210  9.3872277844686600
  7.5280383523022625  5.3034211651241217 10.8006044886926595
  8.5396886311042621  7.3905423851241210 11.8751282033306609
 16.5163880735002628  9.4776636051241212  9.7260807740546600
 16.9411277667222606 11.5647848351241187  8.3127040698306605
  7.5280383523022625 11.5647848351241187 10.8006044886926595
 14.0683478230992627  3.2162999451241205  8.9904100348656595
 13.6436081298772631  1.1291787151241213 10.4037867390896590
 14.0683478230992627  9.4776636051241212  8.9904100348656595
 13.6436081298772631  7.3905423851241210 10.4037867390896590
 16.0916483807032620  1.1291787151241213 11.1394574641426605
 14.6552584086792628  3.2162999451241205 11.4783104537276603
 15.0799981019012641  5.3034211651241217 10.0649337495046591
 16.0916483807032620  7.3905423851241210 11.1394574641426605
 15.6669086874812624  5.3034211651241217 12.5528341683666600
 14.6552584086792628  9.4776636051241212 11.4783104537276603
 15.0799981019012641 11.5647848351241187 10.0649337495046591
 15.6669086874812624 11.5647848351241187 12.5528341683666600
