Cu
 1.0000000000000000
     7.6685730419681093    0.0000000000000000    0.0000000000000000
     3.8342865209840546    6.6411790651208911    0.0000000000000000
     0.0000000000000000    0.0000000000000000   25.0450909090909093
 Cu 
 108
Direct
  0.1125676331290280  0.1116926586105603 -0.0003372106079793
  0.0181107998253875  0.6641923235012255  0.6659050872615612
  0.6841638996462784  0.3329641837359749  0.6659237097429009
  0.3524559551292454  0.3312824461065235  0.6665283700489611
  0.0144531243032551  0.3342076279411222  0.6665169736213861
  0.6837296949143491  0.0001411568432907  0.6664317482734878
  0.3477924056242335  0.0017432929827828  0.6671164469547912
  0.0138366247366376  0.0027902426303624  0.6660102534049444
  0.5725956632714392  0.8900988159148034  0.5833579649626426
  0.2410530869694555  0.8862467115418649  0.5828285505675291
  0.9051112516664430  0.8892029992975615  0.5828654135340962
  0.5734116533416482  0.5530705353360416  0.5837798889587108
  0.2382969310021818  0.5567117729539405  0.5832586479817673
  0.9030142468836034  0.5573357464096748  0.5830012742483488
  0.5736491656718751  0.2205225098812239  0.5837188466725871
  0.2387224428854480  0.2218948226397760  0.5835218708406374
  0.9064111356414366  0.2213611937711205  0.5837029413271065
  0.7914532691079345  0.7794840551978141  0.5003404134076362
  0.4622536334038168  0.7755984629300524  0.5000438328958948
  0.1281211240233236  0.7804199864727722  0.5005000847525057
  0.7940086288536687  0.4437923238136698  0.5007447065885202
  0.4598950890834021  0.4470546764890251  0.5007208158842241
  0.1309511882344325  0.4430944004968205  0.4992508681644428
  0.7912787628394311  0.1131875137341164  0.5004858128094513
  0.3494891848333870  0.6647548306123886  0.6670455667088067
  0.4627457075526876  0.1086040639847812  0.5005905796875026
  0.6834981732401988  0.6684178650893866  0.6671472100619846
  0.4614137235168096  0.1119983775386244  0.7494822808614239
  0.0161179732531355  0.6662910102353099  0.9163117138175377
  0.6849987448398258  0.3303804673071552  0.9171654693819847
  0.3489431315579346  0.3348750609787076  0.9162801319284843
  0.0179102693177137  0.3322725911428207  0.9166978322020954
  0.6830570983014895  0.0029137929167380  0.9164485883853407
  0.3517332742500643 -0.0003403760616885  0.9163646538810664
  0.0148443073708275  0.0004728913344348  0.9158986850941737
  0.5740010855027857  0.8875075592897077  0.8328792026807105
  0.2408851475895976  0.8883744109062914  0.8325800554424235
  0.9071494892975085  0.8888071861946352  0.8337924587432682
  0.5732584854902989  0.5547044583860060  0.8338167270183986
  0.2385251265107250  0.5529528123053553  0.8339365345957066
  0.9056572467988454  0.5562344955462407  0.8330630413740598
  0.5709328620007148  0.2200602644569895  0.8332644875046797
  0.2361277425706708  0.2249491046663697  0.8339698642138463
  0.9070485162234887  0.2225881571281788  0.8332882559927879
  0.7951958560410100  0.7755117843397870  0.7503842304884610
  0.4605566444702376  0.7784520398347273  0.7507624115394732
  0.1281459071525101  0.7794117806968781  0.7506939728890614
  0.7964467180666260  0.4445517357356116  0.7495592234653183
  0.4618479958424807  0.4462345302540563  0.7492405354621179
  0.1274030350742318  0.4429848741365211  0.7503108643802351
  0.7957057972245293  0.1124988137570408  0.7501882815413224
  0.1302875461469083  0.1108090695644612  0.7506001461683609
  0.1278121736621927  0.1092357526426985  0.5003998623292916
  0.6674444479895341  0.6691944233928090  0.4170092602539962
  0.3321905975264805  0.6695593522561677  0.4172347565044305
  0.6685915038210537  0.3324710532874102  0.1669408051053249
  0.3326238085402639  0.3326969885475566  0.1669991012359471
 -0.0020492780465631  0.3329845782995754  0.1662275016068293
  0.6679556675736085  0.0000094802886514  0.1666152774423086
  0.3316179421225171 -0.0010548431775933  0.1660411886757612
  0.0013712223433734 -0.0018975606700247  0.1670038738490162
  0.5535432116345640  0.8892505633924381  0.0834354297821742
  0.2224419781826088  0.8893837581983777  0.0834896963078221
  0.8895034211684231  0.8864572267507189  0.0840625197053872
  0.5544737293269613  0.5577683169218620  0.0835852163089035
  0.2194263321374559  0.5583019246075431  0.0830805439958783
  0.8865858419811475  0.5557008359225766  0.0834088904418171
  0.5578314363448168  0.2192991029088851  0.0838688315256770
  0.2241344328352671  0.2197070144528394  0.0829745098634944
  0.8887436831622647  0.2215582746536178  0.0827462422263354
  0.7787655252565664  0.7795806196673510  0.0003057375729397
  0.4472615027748679  0.7771367352521076 -0.0002844066134224
  0.1125423723044589  0.7777426140135457  0.0007948455766899
  0.7764685958069293  0.4474305232678409  0.0000031081295795
  0.4448747030412373  0.4449325293341047  0.0001595718274610
  0.1080440969875257  0.4473444052851689 -0.0003437958372979
  0.7780560752491674  0.1135825962330861  0.0003005051141954
  0.4406340201695484  0.1139639442629460  0.0001540768279338
 -0.0004620814949845  0.6676974791718039  0.1663981074863064
  0.3349212770004064  0.6676471673203599  0.1661768509928716
  0.6663076204927697  0.6681688269212694  0.1671161615890425
  0.1114539274034668  0.1097758824534250  0.2501889354458229
 -0.0024891689476800  0.6695096618202169  0.4164811002739048
  0.6673949611437890  0.3356425715801293  0.4165425351851419
  0.3345337124733642  0.3305991750317904  0.4171003751512325
 -0.0014006780743414  0.3328583546281768  0.4172960755240879
  0.6673100697902040 -0.0023622921483796  0.4163245677739398
  0.3329340043203827 -0.0007903010087366  0.4168638245482073
 -0.0020139662051970  0.0027567266531752  0.4173601248464620
  0.5566796936943434  0.8873556069294807  0.3339640049424115
  0.2220067898430777  0.8883139272317596  0.3331679629195944
  0.8872599424511184  0.8902255675498285  0.3325940144212773
  0.5582493744592797  0.5544070382530399  0.3331794796611782
  0.3491121725549283  0.6650147632446405  0.9165879752347229
  0.2224706000231396  0.5562387728783529  0.3336350188402997
  0.5564707500540532  0.2243533769068155  0.3329716039640853
  0.2231430696966022  0.2231708653517893  0.3337594859411341
  0.8899781701832192  0.2241286181005176  0.3339924333646780
  0.7758994877978115  0.7791421977780983  0.2492284687456843
  0.4436526059843412  0.7747690124925256  0.2497505822338171
  0.1141627739706298  0.7764772502951027  0.2497012297297981
  0.7796467323116175  0.4444688155935003  0.2496654454960217
  0.4440088281085327  0.4472929534649617  0.2500176344752851
  0.1140868816449893  0.4436510868244158  0.2504917030064391
  0.7775898930774664  0.1126792186141781  0.2506664587674038
  0.4456218427650148  0.1111546885928148  0.2494999122088732
  0.8897646322367423  0.5585227763974934  0.3336474844054719
  0.6848602767297162  0.6676351618050363  0.9164928890322211
