Cu
 1.0000000000000000
     7.6685730419681093    0.0000000000000000    0.0000000000000000
     3.8342865209840546    6.6411790651208911    0.0000000000000000
     0.0000000000000000    0.0000000000000000   75.1363640323379087
 Cu 
 324
Direct
  0.0000000000000000  0.0000000000000000  0.0000000000000000
  0.3333333333333333  0.3333333333333333  0.6666666666666665
  0.0000000000000000  0.3333333333333333  0.6666666666666665
  0.6666666666666666  0.0000000000000000  0.6666666666666665
  0.3333333333333333  0.0000000000000000  0.6666666666666665
  0.0000000000000000  0.0000000000000000  0.6666666666666665
  0.8888888888888888  0.8888888888888887  0.6388888888888888
  0.5555555555555556  0.8888888888888887  0.6388888888888888
  0.6666666666666666  0.3333333333333333  0.6666666666666665
  0.2222222222222223  0.8888888888888887  0.6388888888888888
  0.5555555555555555  0.5555555555555556  0.6388888888888888
  0.2222222222222222  0.5555555555555556  0.6388888888888888
  0.8888888888888886  0.2222222222222222  0.6388888888888888
  0.5555555555555556  0.2222222222222222  0.6388888888888888
  0.2222222222222222  0.2222222222222222  0.6388888888888888
  0.6666666666666666  0.6666666666666666  0.6111111111111110
  0.3333333333333333  0.6666666666666666  0.6111111111111110
  0.8888888888888887  0.5555555555555556  0.6388888888888888
  0.0000000000000000  0.6666666666666666  0.6111111111111110
  0.0000000000000000  0.6666666666666666  0.6666666666666665
  0.6666666666666666  0.6666666666666666  0.6666666666666665
  0.2222222222222223  0.8888888888888887  0.7222222222222220
  0.8888888888888887  0.5555555555555556  0.7222222222222220
  0.5555555555555555  0.5555555555555556  0.7222222222222220
  0.2222222222222222  0.5555555555555556  0.7222222222222220
  0.8888888888888886  0.2222222222222222  0.7222222222222220
  0.5555555555555556  0.2222222222222222  0.7222222222222220
  0.2222222222222222  0.2222222222222222  0.7222222222222220
  0.3333333333333333  0.6666666666666666  0.6666666666666665
  0.7777777777777778  0.7777777777777777  0.6944444444444443
  0.1111111111111111  0.7777777777777777  0.6944444444444443
  0.7777777777777778  0.4444444444444444  0.6944444444444443
  0.4444444444444444  0.4444444444444444  0.6944444444444443
  0.1111111111111111  0.4444444444444444  0.6944444444444443
  0.7777777777777778  0.1111111111111111  0.6944444444444443
  0.4444444444444443  0.1111111111111111  0.6944444444444443
  0.1111111111111111  0.1111111111111111  0.6944444444444443
  0.4444444444444444  0.7777777777777777  0.6944444444444443
  0.6666666666666666  0.3333333333333333  0.6111111111111110
  0.3333333333333333  0.3333333333333333  0.6111111111111110
  0.0000000000000000  0.3333333333333333  0.6111111111111110
  0.6666666666666666  0.6666666666666666  0.5277777777777778
  0.3333333333333333  0.6666666666666666  0.5277777777777778
  0.0000000000000000  0.6666666666666666  0.5277777777777778
  0.6666666666666666  0.3333333333333333  0.5277777777777778
  0.3333333333333333  0.3333333333333333  0.5277777777777778
  0.0000000000000000  0.3333333333333333  0.5277777777777778
  0.6666666666666666  0.0000000000000000  0.5277777777777778
  0.2222222222222222  0.2222222222222222  0.5555555555555556
  0.3333333333333333  0.0000000000000000  0.5277777777777778
  0.7777777777777778  0.7777777777777777  0.4999999999999999
  0.4444444444444444  0.7777777777777777  0.4999999999999999
  0.1111111111111111  0.7777777777777777  0.4999999999999999
  0.7777777777777778  0.4444444444444444  0.4999999999999999
  0.4444444444444444  0.4444444444444444  0.4999999999999999
  0.1111111111111111  0.4444444444444444  0.4999999999999999
  0.7777777777777778  0.1111111111111111  0.4999999999999999
  0.0000000000000000  0.0000000000000000  0.5277777777777778
  0.5555555555555556  0.2222222222222222  0.5555555555555556
  0.8888888888888886  0.2222222222222222  0.5555555555555556
  0.2222222222222222  0.5555555555555556  0.5555555555555556
  0.6666666666666666  0.0000000000000000  0.6111111111111110
  0.3333333333333333  0.0000000000000000  0.6111111111111110
  0.0000000000000000  0.0000000000000000  0.6111111111111110
  0.7777777777777778  0.7777777777777777  0.5833333333333334
  0.4444444444444444  0.7777777777777777  0.5833333333333334
  0.1111111111111111  0.7777777777777777  0.5833333333333334
  0.7777777777777778  0.4444444444444444  0.5833333333333334
  0.4444444444444444  0.4444444444444444  0.5833333333333334
  0.1111111111111111  0.4444444444444444  0.5833333333333334
  0.7777777777777778  0.1111111111111111  0.5833333333333334
  0.4444444444444443  0.1111111111111111  0.5833333333333334
  0.1111111111111111  0.1111111111111111  0.5833333333333334
  0.8888888888888888  0.8888888888888887  0.5555555555555556
  0.5555555555555556  0.8888888888888887  0.5555555555555556
  0.2222222222222223  0.8888888888888887  0.5555555555555556
  0.8888888888888887  0.5555555555555556  0.5555555555555556
  0.5555555555555555  0.5555555555555556  0.5555555555555556
  0.5555555555555556  0.8888888888888887  0.7222222222222220
  0.4444444444444443  0.1111111111111111  0.4999999999999999
  0.8888888888888888  0.8888888888888887  0.7222222222222220
  0.3333333333333333  0.0000000000000000  0.7499999999999998
  0.3333333333333333  0.3333333333333333  0.9166666666666665
  0.0000000000000000  0.3333333333333333  0.9166666666666665
  0.6666666666666666  0.0000000000000000  0.9166666666666665
  0.3333333333333333  0.0000000000000000  0.9166666666666665
  0.0000000000000000  0.0000000000000000  0.9166666666666665
  0.8888888888888888  0.8888888888888887  0.8888888888888888
  0.5555555555555556  0.8888888888888887  0.8888888888888888
  0.6666666666666666  0.3333333333333333  0.9166666666666665
  0.2222222222222223  0.8888888888888887  0.8888888888888888
  0.5555555555555555  0.5555555555555556  0.8888888888888888
  0.2222222222222222  0.5555555555555556  0.8888888888888888
  0.8888888888888886  0.2222222222222222  0.8888888888888888
  0.5555555555555556  0.2222222222222222  0.8888888888888888
  0.2222222222222222  0.2222222222222222  0.8888888888888888
  0.7777777777777778  0.7777777777777777  0.8611111111111112
  0.4444444444444444  0.7777777777777777  0.8611111111111112
  0.8888888888888887  0.5555555555555556  0.8888888888888888
  0.1111111111111111  0.7777777777777777  0.8611111111111112
  0.0000000000000000  0.6666666666666666  0.9166666666666665
  0.6666666666666666  0.6666666666666666  0.9166666666666665
  0.2222222222222223  0.8888888888888887  0.9722222222222221
  0.8888888888888887  0.5555555555555556  0.9722222222222221
  0.5555555555555555  0.5555555555555556  0.9722222222222221
  0.2222222222222222  0.5555555555555556  0.9722222222222221
  0.8888888888888886  0.2222222222222222  0.9722222222222221
  0.5555555555555556  0.2222222222222222  0.9722222222222221
  0.2222222222222222  0.2222222222222222  0.9722222222222221
  0.3333333333333333  0.6666666666666666  0.9166666666666665
  0.7777777777777778  0.7777777777777777  0.9444444444444444
  0.1111111111111111  0.7777777777777777  0.9444444444444444
  0.7777777777777778  0.4444444444444444  0.9444444444444444
  0.4444444444444444  0.4444444444444444  0.9444444444444444
  0.1111111111111111  0.4444444444444444  0.9444444444444444
  0.7777777777777778  0.1111111111111111  0.9444444444444444
  0.4444444444444443  0.1111111111111111  0.9444444444444444
  0.1111111111111111  0.1111111111111111  0.9444444444444444
  0.4444444444444444  0.7777777777777777  0.9444444444444444
  0.7777777777777778  0.4444444444444444  0.8611111111111112
  0.4444444444444444  0.4444444444444444  0.8611111111111112
  0.1111111111111111  0.4444444444444444  0.8611111111111112
  0.7777777777777778  0.7777777777777777  0.7777777777777776
  0.4444444444444444  0.7777777777777777  0.7777777777777776
  0.1111111111111111  0.7777777777777777  0.7777777777777776
  0.7777777777777778  0.4444444444444444  0.7777777777777776
  0.4444444444444444  0.4444444444444444  0.7777777777777776
  0.1111111111111111  0.4444444444444444  0.7777777777777776
  0.7777777777777778  0.1111111111111111  0.7777777777777776
  0.2222222222222222  0.2222222222222222  0.8055555555555554
  0.4444444444444443  0.1111111111111111  0.7777777777777776
  0.6666666666666666  0.6666666666666666  0.7499999999999998
  0.3333333333333333  0.6666666666666666  0.7499999999999998
  0.0000000000000000  0.6666666666666666  0.7499999999999998
  0.6666666666666666  0.3333333333333333  0.7499999999999998
  0.3333333333333333  0.3333333333333333  0.7499999999999998
  0.0000000000000000  0.3333333333333333  0.7499999999999998
  0.6666666666666666  0.0000000000000000  0.7499999999999998
  0.1111111111111111  0.1111111111111111  0.7777777777777776
  0.5555555555555556  0.2222222222222222  0.8055555555555554
  0.8888888888888886  0.2222222222222222  0.8055555555555554
  0.2222222222222222  0.5555555555555556  0.8055555555555554
  0.7777777777777778  0.1111111111111111  0.8611111111111112
  0.4444444444444443  0.1111111111111111  0.8611111111111112
  0.1111111111111111  0.1111111111111111  0.8611111111111112
  0.6666666666666666  0.6666666666666666  0.8333333333333333
  0.3333333333333333  0.6666666666666666  0.8333333333333333
  0.0000000000000000  0.6666666666666666  0.8333333333333333
  0.6666666666666666  0.3333333333333333  0.8333333333333333
  0.3333333333333333  0.3333333333333333  0.8333333333333333
  0.0000000000000000  0.3333333333333333  0.8333333333333333
  0.6666666666666666  0.0000000000000000  0.8333333333333333
  0.3333333333333333  0.0000000000000000  0.8333333333333333
  0.0000000000000000  0.0000000000000000  0.8333333333333333
  0.8888888888888888  0.8888888888888887  0.8055555555555554
  0.5555555555555556  0.8888888888888887  0.8055555555555554
  0.2222222222222223  0.8888888888888887  0.8055555555555554
  0.8888888888888887  0.5555555555555556  0.8055555555555554
  0.5555555555555555  0.5555555555555556  0.8055555555555554
  0.0000000000000000  0.0000000000000000  0.7499999999999998
  0.1111111111111111  0.1111111111111111  0.4999999999999999
  0.8888888888888888  0.8888888888888887  0.4722222222222222
  0.5555555555555556  0.8888888888888887  0.4722222222222222
  0.0000000000000000  0.3333333333333333  0.1666666666666666
  0.6666666666666666  0.0000000000000000  0.1666666666666666
  0.3333333333333333  0.0000000000000000  0.1666666666666666
  0.0000000000000000  0.0000000000000000  0.1666666666666666
  0.8888888888888888  0.8888888888888887  0.1388888888888889
  0.5555555555555556  0.8888888888888887  0.1388888888888889
  0.2222222222222223  0.8888888888888887  0.1388888888888889
  0.3333333333333333  0.3333333333333333  0.1666666666666666
  0.8888888888888887  0.5555555555555556  0.1388888888888889
  0.2222222222222222  0.5555555555555556  0.1388888888888889
  0.8888888888888886  0.2222222222222222  0.1388888888888889
  0.5555555555555556  0.2222222222222222  0.1388888888888889
  0.2222222222222222  0.2222222222222222  0.1388888888888889
  0.7777777777777778  0.7777777777777777  0.1111111111111111
  0.4444444444444444  0.7777777777777777  0.1111111111111111
  0.1111111111111111  0.7777777777777777  0.1111111111111111
  0.5555555555555555  0.5555555555555556  0.1388888888888889
  0.7777777777777778  0.4444444444444444  0.1111111111111111
  0.6666666666666666  0.3333333333333333  0.1666666666666666
  0.3333333333333333  0.6666666666666666  0.1666666666666666
  0.8888888888888887  0.5555555555555556  0.2222222222222222
  0.5555555555555555  0.5555555555555556  0.2222222222222222
  0.2222222222222222  0.5555555555555556  0.2222222222222222
  0.8888888888888886  0.2222222222222222  0.2222222222222222
  0.5555555555555556  0.2222222222222222  0.2222222222222222
  0.2222222222222222  0.2222222222222222  0.2222222222222222
  0.7777777777777778  0.7777777777777777  0.1944444444444444
  0.0000000000000000  0.6666666666666666  0.1666666666666666
  0.4444444444444444  0.7777777777777777  0.1944444444444444
  0.7777777777777778  0.4444444444444444  0.1944444444444444
  0.4444444444444444  0.4444444444444444  0.1944444444444444
  0.1111111111111111  0.4444444444444444  0.1944444444444444
  0.7777777777777778  0.1111111111111111  0.1944444444444444
  0.4444444444444443  0.1111111111111111  0.1944444444444444
  0.1111111111111111  0.1111111111111111  0.1944444444444444
  0.6666666666666666  0.6666666666666666  0.1666666666666666
  0.1111111111111111  0.7777777777777777  0.1944444444444444
  0.4444444444444444  0.4444444444444444  0.1111111111111111
  0.1111111111111111  0.4444444444444444  0.1111111111111111
  0.7777777777777778  0.1111111111111111  0.1111111111111111
  0.4444444444444444  0.7777777777777777  0.0277777777777778
  0.1111111111111111  0.7777777777777777  0.0277777777777778
  0.7777777777777778  0.4444444444444444  0.0277777777777778
  0.4444444444444444  0.4444444444444444  0.0277777777777778
  0.1111111111111111  0.4444444444444444  0.0277777777777778
  0.7777777777777778  0.1111111111111111  0.0277777777777778
  0.4444444444444443  0.1111111111111111  0.0277777777777778
  0.7777777777777778  0.7777777777777777  0.0277777777777778
  0.1111111111111111  0.1111111111111111  0.0277777777777778
  0.3333333333333333  0.6666666666666666  0.0000000000000000
  0.0000000000000000  0.6666666666666666  0.0000000000000000
  0.6666666666666666  0.3333333333333333  0.0000000000000000
  0.3333333333333333  0.3333333333333333  0.0000000000000000
  0.0000000000000000  0.3333333333333333  0.0000000000000000
  0.6666666666666666  0.0000000000000000  0.0000000000000000
  0.3333333333333333  0.0000000000000000  0.0000000000000000
  0.6666666666666666  0.6666666666666666  0.0000000000000000
  0.2222222222222222  0.2222222222222222  0.0555555555555556
  0.5555555555555556  0.2222222222222222  0.0555555555555556
  0.8888888888888886  0.2222222222222222  0.0555555555555556
  0.4444444444444443  0.1111111111111111  0.1111111111111111
  0.1111111111111111  0.1111111111111111  0.1111111111111111
  0.6666666666666666  0.6666666666666666  0.0833333333333333
  0.3333333333333333  0.6666666666666666  0.0833333333333333
  0.0000000000000000  0.6666666666666666  0.0833333333333333
  0.6666666666666666  0.3333333333333333  0.0833333333333333
  0.3333333333333333  0.3333333333333333  0.0833333333333333
  0.0000000000000000  0.3333333333333333  0.0833333333333333
  0.6666666666666666  0.0000000000000000  0.0833333333333333
  0.3333333333333333  0.0000000000000000  0.0833333333333333
  0.0000000000000000  0.0000000000000000  0.0833333333333333
  0.8888888888888888  0.8888888888888887  0.0555555555555556
  0.5555555555555556  0.8888888888888887  0.0555555555555556
  0.2222222222222223  0.8888888888888887  0.0555555555555556
  0.8888888888888887  0.5555555555555556  0.0555555555555556
  0.5555555555555555  0.5555555555555556  0.0555555555555556
  0.2222222222222222  0.5555555555555556  0.0555555555555556
  0.2222222222222223  0.8888888888888887  0.2222222222222222
  0.5555555555555556  0.8888888888888887  0.2222222222222222
  0.8888888888888888  0.8888888888888887  0.2222222222222222
  0.0000000000000000  0.0000000000000000  0.2500000000000000
  0.1111111111111111  0.4444444444444444  0.4166666666666666
  0.7777777777777778  0.1111111111111111  0.4166666666666666
  0.4444444444444443  0.1111111111111111  0.4166666666666666
  0.1111111111111111  0.1111111111111111  0.4166666666666666
  0.8888888888888888  0.8888888888888887  0.3888888888888888
  0.5555555555555556  0.8888888888888887  0.3888888888888888
  0.2222222222222223  0.8888888888888887  0.3888888888888888
  0.4444444444444444  0.4444444444444444  0.4166666666666666
  0.8888888888888887  0.5555555555555556  0.3888888888888888
  0.2222222222222222  0.5555555555555556  0.3888888888888888
  0.8888888888888886  0.2222222222222222  0.3888888888888888
  0.5555555555555556  0.2222222222222222  0.3888888888888888
  0.2222222222222222  0.2222222222222222  0.3888888888888888
  0.6666666666666666  0.6666666666666666  0.3611111111111110
  0.3333333333333333  0.6666666666666666  0.3611111111111110
  0.0000000000000000  0.6666666666666666  0.3611111111111110
  0.5555555555555555  0.5555555555555556  0.3888888888888888
  0.7777777777777778  0.4444444444444444  0.4166666666666666
  0.1111111111111111  0.7777777777777777  0.4166666666666666
  0.4444444444444444  0.7777777777777777  0.4166666666666666
  0.2222222222222223  0.8888888888888887  0.4722222222222222
  0.8888888888888887  0.5555555555555556  0.4722222222222222
  0.5555555555555555  0.5555555555555556  0.4722222222222222
  0.2222222222222222  0.5555555555555556  0.4722222222222222
  0.8888888888888886  0.2222222222222222  0.4722222222222222
  0.5555555555555556  0.2222222222222222  0.4722222222222222
  0.2222222222222222  0.2222222222222222  0.4722222222222222
  0.6666666666666666  0.6666666666666666  0.4444444444444444
  0.3333333333333333  0.6666666666666666  0.4444444444444444
  0.0000000000000000  0.6666666666666666  0.4444444444444444
  0.6666666666666666  0.3333333333333333  0.4444444444444444
  0.3333333333333333  0.3333333333333333  0.4444444444444444
  0.0000000000000000  0.3333333333333333  0.4444444444444444
  0.6666666666666666  0.0000000000000000  0.4444444444444444
  0.3333333333333333  0.0000000000000000  0.4444444444444444
  0.0000000000000000  0.0000000000000000  0.4444444444444444
  0.7777777777777778  0.7777777777777777  0.4166666666666666
  0.6666666666666666  0.3333333333333333  0.3611111111111110
  0.5555555555555556  0.8888888888888887  0.9722222222222221
  0.3333333333333333  0.3333333333333333  0.3611111111111110
  0.6666666666666666  0.0000000000000000  0.3611111111111110
  0.4444444444444444  0.7777777777777777  0.2777777777777778
  0.1111111111111111  0.7777777777777777  0.2777777777777778
  0.7777777777777778  0.4444444444444444  0.2777777777777778
  0.4444444444444444  0.4444444444444444  0.2777777777777778
  0.1111111111111111  0.4444444444444444  0.2777777777777778
  0.7777777777777778  0.1111111111111111  0.2777777777777778
  0.4444444444444443  0.1111111111111111  0.2777777777777778
  0.7777777777777778  0.7777777777777777  0.2777777777777778
  0.1111111111111111  0.1111111111111111  0.2777777777777778
  0.3333333333333333  0.6666666666666666  0.2500000000000000
  0.0000000000000000  0.6666666666666666  0.2500000000000000
  0.6666666666666666  0.3333333333333333  0.2500000000000000
  0.3333333333333333  0.3333333333333333  0.2500000000000000
  0.0000000000000000  0.3333333333333333  0.2500000000000000
  0.6666666666666666  0.0000000000000000  0.2500000000000000
  0.3333333333333333  0.0000000000000000  0.2500000000000000
  0.6666666666666666  0.6666666666666666  0.2500000000000000
  0.2222222222222222  0.2222222222222222  0.3055555555555555
  0.5555555555555556  0.2222222222222222  0.3055555555555555
  0.8888888888888886  0.2222222222222222  0.3055555555555555
  0.3333333333333333  0.0000000000000000  0.3611111111111110
  0.0000000000000000  0.0000000000000000  0.3611111111111110
  0.7777777777777778  0.7777777777777777  0.3333333333333333
  0.4444444444444444  0.7777777777777777  0.3333333333333333
  0.1111111111111111  0.7777777777777777  0.3333333333333333
  0.7777777777777778  0.4444444444444444  0.3333333333333333
  0.4444444444444444  0.4444444444444444  0.3333333333333333
  0.1111111111111111  0.4444444444444444  0.3333333333333333
  0.7777777777777778  0.1111111111111111  0.3333333333333333
  0.4444444444444443  0.1111111111111111  0.3333333333333333
  0.1111111111111111  0.1111111111111111  0.3333333333333333
  0.8888888888888888  0.8888888888888887  0.3055555555555555
  0.5555555555555556  0.8888888888888887  0.3055555555555555
  0.2222222222222223  0.8888888888888887  0.3055555555555555
  0.8888888888888887  0.5555555555555556  0.3055555555555555
  0.5555555555555555  0.5555555555555556  0.3055555555555555
  0.2222222222222222  0.5555555555555556  0.3055555555555555
  0.0000000000000000  0.3333333333333333  0.3611111111111110
  0.8888888888888888  0.8888888888888887  0.9722222222222221
