Generated generic
1.0
    7.66857304    0.00000000    0.00000000
    3.83428652    6.64117907    0.00000000
    0.00000000    0.00000000   25.04509091
 Cu
 108
Selective dynamics
Direct
    0.11383896    0.11048901    0.99960784 F F F
    0.44761624    0.10858979    0.99967290 F F F
    0.78004129    0.11043485    0.00003914 F F F
    0.11426312    0.44193680    0.00044791 F F F
    0.44668466    0.44498221    0.99958880 F F F
    0.77864745    0.44341107    0.99979096 F F F
    0.11204645    0.77992795    0.00014318 F F F
    0.44518818    0.77540941    0.99996042 F F F
    0.77904695    0.77959755    0.99926866 F F F
    0.88945535    0.22372168    0.08277702 T T T
    0.22046523    0.22478287    0.08293975 T T T
    0.55724558    0.22272577    0.08292584 T T T
    0.88907489    0.55274847    0.08368082 T T T
    0.22344075    0.55766352    0.08309709 T T T
    0.55455255    0.55539969    0.08409125 T T T
    0.89072338    0.88686749    0.08263563 T T T
    0.22215651    0.88738257    0.08370043 T T T
    0.55652072    0.88752639    0.08258125 T T T
    0.00217127    0.99772881    0.16695827 T T T
    0.33399084    0.00228049    0.16709529 T T T
    0.66773509    0.00274541    0.16646941 T T T
    0.00017688    0.33547648    0.16710459 T T T
    0.33171096    0.33298292    0.16661364 T T T
    0.66614982    0.33059920    0.16743028 T T T
    0.00048207    0.66861950    0.16741642 T T T
    0.33572834    0.66580157    0.16703607 T T T
    0.66603820    0.66958734    0.16592590 T T T
    0.11316196    0.10962423    0.24968980 T T T
    0.44593228    0.10994487    0.25016743 T T T
    0.78033085    0.10961373    0.25078240 T T T
    0.10868319    0.44410893    0.25030442 T T T
    0.44362587    0.44433007    0.24989401 T T T
    0.77864434    0.44568542    0.24936045 T T T
    0.11360558    0.77548885    0.25071585 T T T
    0.44259203    0.77816584    0.24943206 T T T
    0.77915476    0.77651531    0.24990559 T T T
    0.88944344    0.22104104    0.33294596 T T T
    0.22170011    0.22285238    0.33398630 T T T
    0.55499193    0.22120367    0.33293977 T T T
    0.88775165    0.55518906    0.33263028 T T T
    0.22086203    0.55599929    0.33299630 T T T
    0.55754534    0.55458356    0.33342445 T T T
    0.88681136    0.88949987    0.33329284 T T T
    0.22049093    0.88848094    0.33374805 T T T
    0.55392380    0.89095665    0.33371147 T T T
    0.00261551    0.99854310    0.41610990 T T T
    0.33680886    0.99763542    0.41660744 T T T
    0.66429204    0.00056465    0.41644639 T T T
    0.00214898    0.33072593    0.41633018 T T T
    0.33195166    0.33509961    0.41588320 T T T
    0.66335602    0.33556789    0.41629415 T T T
    0.00231732    0.66484289    0.41724026 T T T
    0.33295110    0.66920653    0.41725115 T T T
    0.66745537    0.66521336    0.41653632 T T T
    0.11026070    0.39251066    0.49968686 T T T
    0.44695492    0.39359097    0.50013401 T T T
    0.77972429    0.39164216    0.50034137 T T T
    0.10903184    0.72761639    0.49967250 T T T
    0.44408813    0.72478754    0.50026962 T T T
    0.77951158    0.72773931    0.50070946 T T T
    0.11183786    0.05854437    0.49999510 T T T
    0.44151732    0.06353589    0.49938395 T T T
    0.77880649    0.06132317    0.50012639 T T T
    0.88728857    0.50582440    0.58323289 T T T
    0.21974738    0.50555939    0.58365968 T T T
    0.55656179    0.50391211    0.58258146 T T T
    0.88776428    0.83812363    0.58400250 T T T
    0.22498162    0.83796259    0.58329203 T T T
    0.55512634    0.84076670    0.58293524 T T T
    0.88593686    0.17505149    0.58407502 T T T
    0.22404137    0.17289895    0.58304790 T T T
    0.55541831    0.16927916    0.58294052 T T T
    0.00234519    0.28335685    0.66628070 T T T
    0.33264832    0.28561829    0.66726248 T T T
    0.66604595    0.28428555    0.66592183 T T T
    0.99914163    0.61516846    0.66736375 T T T
    0.33544011    0.61672904    0.66678748 T T T
    0.66749536    0.61531164    0.66742040 T T T
    0.99736454    0.95104052    0.66596691 T T T
    0.33513516    0.94898214    0.66718153 T T T
    0.66742387    0.94994829    0.66645097 T T T
    0.11130372    0.39218771    0.74942024 T T T
    0.44206672    0.39402839    0.75000552 T T T
    0.77441803    0.39690590    0.74962692 T T T
    0.11039944    0.73032932    0.74959611 T T T
    0.44635097    0.72596284    0.74921942 T T T
    0.77685579    0.72627702    0.75005874 T T T
    0.11244916    0.05902805    0.74974527 T T T
    0.44686288    0.05830081    0.74960967 T T T
    0.77765880    0.06223011    0.74929261 T T T
    0.89059955    0.50605481    0.83364213 T T T
    0.22154417    0.50592820    0.83303375 T T T
    0.55360350    0.50696879    0.83339290 T T T
    0.88952373    0.83817536    0.83262521 T T T
    0.22096819    0.84168022    0.83349373 T T T
    0.55714136    0.83726594    0.83283511 T T T
    0.88613155    0.17373611    0.83304061 T T T
    0.22024532    0.17497157    0.83257168 T T T
    0.55644794    0.17287926    0.83287158 T T T
    0.00145209    0.28543822    0.91649341 F F F
    0.33030952    0.28579077    0.91597235 F F F
    0.66860543    0.28356233    0.91615718 F F F
    0.99977585    0.61529647    0.91606884 F F F
    0.33291613    0.61428273    0.91589322 F F F
    0.66509902    0.61905653    0.91739071 F F F
    0.99968106    0.94738515    0.91732548 F F F
    0.33263191    0.94904677    0.91668064 F F F
    0.66900732    0.94872862    0.91668797 F F F
