Generated generic
1.0
    7.66857304    0.00000000    0.00000000
    3.83428652    6.64117907    0.00000000
    0.00000000    0.00000000   25.04509091
 Cu
 108
Selective dynamics
Direct
    0.11033013    0.11341140    0.00058045 F F F
    0.44449322    0.10889933    0.00063948 F F F
    0.77745164    0.11329292    0.99935152 F F F
    0.10773851    0.44652025    0.99934833 F F F
    0.44202622    0.44421905    0.99975261 F F F
    0.77900088    0.44216096    0.00039193 F F F
    0.11168624    0.77907272    0.00023776 F F F
    0.44220572    0.77883658    0.00077359 F F F
    0.77663979    0.77527612    0.00056557 F F F
    0.88733334    0.22264915    0.08359856 T T T
    0.21983446    0.22397603    0.08383606 T T T
    0.55401875    0.22103196    0.08318105 T T T
    0.89083736    0.55513129    0.08390078 T T T
    0.22345938    0.55312873    0.08260760 T T T
    0.55407426    0.55539580    0.08262713 T T T
    0.88872646    0.88734713    0.08286583 T T T
    0.22313500    0.88708100    0.08328070 T T T
    0.55425122    0.88997731    0.08364576 T T T
    0.00330717    0.99796394    0.16606091 T T T
    0.33224637    0.00196367    0.16606334 T T T
    0.66459432    0.00136783    0.16741838 T T T
    0.99655485    0.33516519    0.16652160 T T T
    0.33220932    0.33542950    0.16659000 T T T
    0.66664887    0.33122500    0.16611038 T T T
    0.99798915    0.66672306    0.16630586 T T T
    0.33125503    0.66631076    0.16743971 T T T
    0.66745514    0.66684577    0.16664746 T T T
    0.11296665    0.11144116    0.24996761 T T T
    0.44370871    0.11319851    0.24991939 T T T
    0.77929886    0.11054819    0.25075605 T T T
    0.11103910    0.44618710    0.24967172 T T T
    0.44184564    0.44602647    0.25041881 T T T
    0.77892823    0.44149045    0.25036402 T T T
    0.11216893    0.77928951    0.25049469 T T T
    0.44513018    0.77954805    0.25053334 T T T
    0.77721319    0.77865634    0.25009258 T T T
    0.89203303    0.21969386    0.33359980 T T T
    0.22294453    0.21943929    0.33379367 T T T
    0.55829333    0.21955564    0.33328503 T T T
    0.89286394    0.55263492    0.33260881 T T T
    0.22151005    0.55331954    0.33272710 T T T
    0.55364866    0.55667014    0.33398651 T T T
    0.89017911    0.88743700    0.33376304 T T T
    0.22148275    0.88818642    0.33369433 T T T
    0.55378490    0.89170622    0.33342503 T T T
    0.99989383    0.00273998    0.41662470 T T T
    0.33415135    0.99821520    0.41690102 T T T
    0.66771689    0.99809134    0.41644898 T T T
    0.99669877    0.33582236    0.41593357 T T T
    0.33235967    0.33061340    0.41737240 T T T
    0.66883449    0.33262098    0.41637887 T T T
    0.00110785    0.66433864    0.41659767 T T T
    0.33648244    0.66425943    0.41746216 T T T
    0.66654021    0.66827454    0.41733078 T T T
    0.10880400    0.41222810    0.49973783 T T T
    0.44149011    0.41212751    0.49966482 T T T
    0.77460347    0.41285159    0.49940654 T T T
    0.11064708    0.74672680    0.50054973 T T T
    0.44328474    0.74200139    0.50065763 T T T
    0.77666878    0.74695279    0.49988636 T T T
    0.11244580    0.08009296    0.50008915 T T T
    0.44638917    0.07579123    0.49934245 T T T
    0.77680648    0.07882650    0.49926799 T T T
    0.88606654    0.52348865    0.58269149 T T T
    0.22343770    0.51971109    0.58383573 T T T
    0.55582616    0.52195246    0.58257822 T T T
    0.88962833    0.85820409    0.58355089 T T T
    0.22125350    0.85754188    0.58388038 T T T
    0.55702187    0.85268592    0.58343935 T T T
    0.88796487    0.18666080    0.58266928 T T T
    0.22266412    0.19081751    0.58378738 T T T
    0.55623811    0.18623079    0.58404039 T T T
    0.00011559    0.29879714    0.66602480 T T T
    0.33501305    0.29894898    0.66635266 T T T
    0.66707878    0.29911399    0.66715166 T T T
    0.00351961    0.63117870    0.66723997 T T T
    0.33134373    0.63586325    0.66654242 T T T
    0.66788256    0.63134444    0.66630623 T T T
    0.99939732    0.96836120    0.66641650 T T T
    0.33602477    0.96454494    0.66670659 T T T
    0.66596793    0.96522588    0.66590296 T T T
    0.11396931    0.40937639    0.75011124 T T T
    0.44695350    0.41126546    0.75000931 T T T
    0.77404117    0.41377300    0.75013389 T T T
    0.11050227    0.74626312    0.75052996 T T T
    0.44500055    0.74229252    0.74925585 T T T
    0.77691674    0.74640896    0.75040618 T T T
    0.11056886    0.07545724    0.75010768 T T T
    0.44319016    0.07846262    0.75029719 T T T
    0.77803991    0.08002352    0.75033728 T T T
    0.88824024    0.52299685    0.83303534 T T T
    0.22178392    0.51975112    0.83322145 T T T
    0.55416007    0.52178393    0.83270775 T T T
    0.89036503    0.85307129    0.83407378 T T T
    0.22259402    0.85634451    0.83311658 T T T
    0.55803480    0.85539142    0.83295807 T T T
    0.89106223    0.18942797    0.83401225 T T T
    0.22060308    0.18963640    0.83356025 T T T
    0.55659778    0.19179129    0.83266894 T T T
    0.99970572    0.30073317    0.91665019 F F F
    0.33205965    0.30247571    0.91707163 F F F
    0.66938614    0.29931524    0.91637791 F F F
    0.00089141    0.63549886    0.91607656 F F F
    0.32953496    0.63577388    0.91692703 F F F
    0.66762660    0.63411762    0.91639921 F F F
    0.99611365    0.96923662    0.91694181 F F F
    0.33714388    0.96373139    0.91624982 F F F
    0.66816253    0.96552401    0.91673197 F F F
