Generated generic
1.0
    7.66857304    0.00000000    0.00000000
    3.83428652    6.64117907    0.00000000
    0.00000000    0.00000000   25.04509091
 Cu
 108
Selective dynamics
Direct
    0.10873922    0.11412254    0.99964636 F F F
    0.44347071    0.11061352    0.00049454 F F F
    0.77420598    0.11329208    0.99941828 F F F
    0.11331175    0.44174290    0.99954522 F F F
    0.44283738    0.44698162    0.99946373 F F F
    0.77968062    0.44549529    0.99976020 F F F
    0.10881266    0.77816300    0.00048640 F F F
    0.44535385    0.77617006    0.00034603 F F F
    0.77495122    0.77905078    0.99976097 F F F
    0.88863009    0.21956432    0.08289964 T T T
    0.22279167    0.22284037    0.08289873 T T T
    0.55451846    0.22119292    0.08351398 T T T
    0.88620003    0.55848707    0.08357937 T T T
    0.22063965    0.55744872    0.08403227 T T T
    0.55933419    0.55299385    0.08351978 T T T
    0.89134556    0.88757478    0.08272258 T T T
    0.22250383    0.89023292    0.08255293 T T T
    0.55621013    0.88791763    0.08355707 T T T
    0.99718954    0.00104265    0.16680358 T T T
    0.33478999    0.00035753    0.16710917 T T T
    0.66744649    0.00157335    0.16614204 T T T
    0.00096298    0.33127118    0.16682776 T T T
    0.33369007    0.33337393    0.16746376 T T T
    0.66913150    0.33060941    0.16655689 T T T
    0.00087527    0.66860267    0.16726616 T T T
    0.33140313    0.66654970    0.16630509 T T T
    0.66609231    0.66700456    0.16602692 T T T
    0.11355084    0.11012852    0.24992312 T T T
    0.44256163    0.11288162    0.25048912 T T T
    0.77642628    0.10994807    0.24995028 T T T
    0.11325112    0.44531914    0.24999535 T T T
    0.44443822    0.44408020    0.25079674 T T T
    0.77646887    0.44672408    0.25035080 T T T
    0.10903402    0.78076786    0.24980658 T T T
    0.44246058    0.77792858    0.25075635 T T T
    0.77829558    0.77641274    0.25043416 T T T
    0.88817694    0.22328466    0.33270815 T T T
    0.22384053    0.22281666    0.33333843 T T T
    0.55376906    0.22211802    0.33373621 T T T
    0.88961750    0.55579189    0.33286019 T T T
    0.21927382    0.55855100    0.33399242 T T T
    0.55535071    0.55532776    0.33371995 T T T
    0.89008749    0.89126527    0.33382666 T T T
    0.22314318    0.89182582    0.33305928 T T T
    0.55390140    0.88995313    0.33337371 T T T
    0.00117605    0.99992923    0.41665631 T T T
    0.33457363    0.99781348    0.41701008 T T T
    0.66556539    0.99825245    0.41599544 T T T
    0.00110203    0.33072732    0.41602045 T T T
    0.32991772    0.33552908    0.41713957 T T T
    0.66625523    0.33559169    0.41670813 T T T
    0.00084965    0.66460667    0.41694427 T T T
    0.33427715    0.66883613    0.41674859 T T T
    0.66772563    0.66818115    0.41692338 T T T
    0.11393310    0.20937774    0.49999656 T T T
    0.44275821    0.21356750    0.50062956 T T T
    0.77709166    0.20901389    0.50080269 T T T
    0.11365298    0.54236235    0.49936137 T T T
    0.44555155    0.54382646    0.50058346 T T T
    0.77773593    0.54360314    0.50002141 T T T
    0.11148158    0.88044876    0.49964034 T T T
    0.44493773    0.87635918    0.49968152 T T T
    0.77538493    0.87978540    0.50027032 T T T
    0.88908672    0.32021970    0.58325521 T T T
    0.22111901    0.31921376    0.58342613 T T T
    0.55712177    0.31959102    0.58264146 T T T
    0.88717336    0.65404563    0.58355065 T T T
    0.22330615    0.65273748    0.58407014 T T T
    0.55850197    0.65292585    0.58399420 T T T
    0.89078922    0.98654019    0.58278677 T T T
    0.22493618    0.98735806    0.58399087 T T T
    0.55424909    0.98706655    0.58411518 T T T
    0.00067837    0.10071470    0.66618029 T T T
    0.33114958    0.10106008    0.66597610 T T T
    0.66782838    0.10278944    0.66733624 T T T
    0.99964392    0.43591243    0.66604362 T T T
    0.33439421    0.43172296    0.66644723 T T T
    0.66424847    0.43377737    0.66662771 T T T
    0.99922154    0.76372290    0.66606636 T T T
    0.33075717    0.76807416    0.66605955 T T T
    0.66788938    0.76746737    0.66716633 T T T
    0.11035846    0.21353958    0.74951417 T T T
    0.44469570    0.21048679    0.75036856 T T T
    0.77429059    0.21335307    0.74977079 T T T
    0.11185402    0.54339195    0.75003253 T T T
    0.44610989    0.54436424    0.75076560 T T T
    0.77677663    0.54484088    0.75074430 T T T
    0.11403102    0.87597710    0.75034596 T T T
    0.44466557    0.87696792    0.74991496 T T T
    0.78015917    0.87614632    0.74982653 T T T
    0.88876847    0.32072777    0.83350472 T T T
    0.22575452    0.31956277    0.83318907 T T T
    0.55376048    0.32472137    0.83358540 T T T
    0.88572354    0.65765920    0.83278961 T T T
    0.22152126    0.65796792    0.83311016 T T T
    0.55428744    0.65336507    0.83305781 T T T
    0.88861260    0.99073862    0.83375458 T T T
    0.22440395    0.98931505    0.83357200 T T T
    0.55597372    0.99024328    0.83373812 T T T
    0.99942382    0.09965600    0.91666305 F F F
    0.33515366    0.09811454    0.91709827 F F F
    0.66718302    0.10084661    0.91745944 F F F
    0.99828430    0.43173898    0.91605945 F F F
    0.33298157    0.43047784    0.91665374 F F F
    0.66487565    0.43624773    0.91680951 F F F
    0.00196098    0.76708625    0.91644508 F F F
    0.33252646    0.76683369    0.91641633 F F F
    0.66746555    0.76741502    0.91616737 F F F
