Generated generic
1.0
    7.66857304    0.00000000    0.00000000
    3.83428652    6.64117907    0.00000000
    0.00000000    0.00000000  116.87878849
 Cu
 504
Selective dynamics
Direct
    0.00000000    0.00000000    0.00000000 F F F
    0.33333333    0.00000000    0.00000000 F F F
    0.66666667    0.00000000    0.00000000 F F F
    0.00000000    0.33333333    0.00000000 F F F
    0.33333333    0.33333333    0.00000000 F F F
    0.66666667    0.33333333    0.00000000 F F F
    0.00000000    0.66666667    0.00000000 F F F
    0.33333333    0.66666667    0.00000000 F F F
    0.66666667    0.66666667    0.00000000 F F F
    0.11111111    0.11111111    0.01785714 T T T
    0.44444444    0.11111111    0.01785714 T T T
    0.77777778    0.11111111    0.01785714 T T T
    0.11111111    0.44444444    0.01785714 T T T
    0.44444444    0.44444444    0.01785714 T T T
    0.77777778    0.44444444    0.01785714 T T T
    0.11111111    0.77777778    0.01785714 T T T
    0.44444444    0.77777778    0.01785714 T T T
    0.77777778    0.77777778    0.01785714 T T T
    0.22222222    0.22222222    0.03571429 T T T
    0.55555556    0.22222222    0.03571429 T T T
    0.88888889    0.22222222    0.03571429 T T T
    0.22222222    0.55555556    0.03571429 T T T
    0.55555556    0.55555556    0.03571429 T T T
    0.88888889    0.55555556    0.03571429 T T T
    0.22222222    0.88888889    0.03571429 T T T
    0.55555556    0.88888889    0.03571429 T T T
    0.88888889    0.88888889    0.03571429 T T T
    0.00000000    0.00000000    0.05357143 T T T
    0.33333333    0.00000000    0.05357143 T T T
    0.66666667    0.00000000    0.05357143 T T T
    0.00000000    0.33333333    0.05357143 T T T
    0.33333333    0.33333333    0.05357143 T T T
    0.66666667    0.33333333    0.05357143 T T T
    0.00000000    0.66666667    0.05357143 T T T
    0.33333333    0.66666667    0.05357143 T T T
    0.66666667    0.66666667    0.05357143 T T T
    0.11111111    0.11111111    0.07142857 T T T
    0.44444444    0.11111111    0.07142857 T T T
    0.77777778    0.11111111    0.07142857 T T T
    0.11111111    0.44444444    0.07142857 T T T
    0.44444444    0.44444444    0.07142857 T T T
    0.77777778    0.44444444    0.07142857 T T T
    0.11111111    0.77777778    0.07142857 T T T
    0.44444444    0.77777778    0.07142857 T T T
    0.77777778    0.77777778    0.07142857 T T T
    0.22222222    0.22222222    0.08928571 T T T
    0.55555556    0.22222222    0.08928571 T T T
    0.88888889    0.22222222    0.08928571 T T T
    0.22222222    0.55555556    0.08928571 T T T
    0.55555556    0.55555556    0.08928571 T T T
    0.88888889    0.55555556    0.08928571 T T T
    0.22222222    0.88888889    0.08928571 T T T
    0.55555556    0.88888889    0.08928571 T T T
    0.88888889    0.88888889    0.08928571 T T T
    0.00000000    0.00000000    0.10714286 T T T
    0.33333333    0.00000000    0.10714286 T T T
    0.66666667    0.00000000    0.10714286 T T T
    0.00000000    0.33333333    0.10714286 T T T
    0.33333333    0.33333333    0.10714286 T T T
    0.66666667    0.33333333    0.10714286 T T T
    0.00000000    0.66666667    0.10714286 T T T
    0.33333333    0.66666667    0.10714286 T T T
    0.66666667    0.66666667    0.10714286 T T T
    0.11111111    0.11111111    0.12500000 T T T
    0.44444444    0.11111111    0.12500000 T T T
    0.77777778    0.11111111    0.12500000 T T T
    0.11111111    0.44444444    0.12500000 T T T
    0.44444444    0.44444444    0.12500000 T T T
    0.77777778    0.44444444    0.12500000 T T T
    0.11111111    0.77777778    0.12500000 T T T
    0.44444444    0.77777778    0.12500000 T T T
    0.77777778    0.77777778    0.12500000 T T T
    0.22222222    0.22222222    0.14285714 T T T
    0.55555556    0.22222222    0.14285714 T T T
    0.88888889    0.22222222    0.14285714 T T T
    0.22222222    0.55555556    0.14285714 T T T
    0.55555556    0.55555556    0.14285714 T T T
    0.88888889    0.55555556    0.14285714 T T T
    0.22222222    0.88888889    0.14285714 T T T
    0.55555556    0.88888889    0.14285714 T T T
    0.88888889    0.88888889    0.14285714 T T T
    0.00000000    0.00000000    0.16071429 T T T
    0.33333333    0.00000000    0.16071429 T T T
    0.66666667    0.00000000    0.16071429 T T T
    0.00000000    0.33333333    0.16071429 T T T
    0.33333333    0.33333333    0.16071429 T T T
    0.66666667    0.33333333    0.16071429 T T T
    0.00000000    0.66666667    0.16071429 T T T
    0.33333333    0.66666667    0.16071429 T T T
    0.66666667    0.66666667    0.16071429 T T T
    0.11111111    0.11111111    0.17857143 T T T
    0.44444444    0.11111111    0.17857143 T T T
    0.77777778    0.11111111    0.17857143 T T T
    0.11111111    0.44444444    0.17857143 T T T
    0.44444444    0.44444444    0.17857143 T T T
    0.77777778    0.44444444    0.17857143 T T T
    0.11111111    0.77777778    0.17857143 T T T
    0.44444444    0.77777778    0.17857143 T T T
    0.77777778    0.77777778    0.17857143 T T T
    0.22222222    0.22222222    0.19642857 T T T
    0.55555556    0.22222222    0.19642857 T T T
    0.88888889    0.22222222    0.19642857 T T T
    0.22222222    0.55555556    0.19642857 T T T
    0.55555556    0.55555556    0.19642857 T T T
    0.88888889    0.55555556    0.19642857 T T T
    0.22222222    0.88888889    0.19642857 T T T
    0.55555556    0.88888889    0.19642857 T T T
    0.88888889    0.88888889    0.19642857 T T T
    0.00000000    0.00000000    0.21428571 T T T
    0.33333333    0.00000000    0.21428571 T T T
    0.66666667    0.00000000    0.21428571 T T T
    0.00000000    0.33333333    0.21428571 T T T
    0.33333333    0.33333333    0.21428571 T T T
    0.66666667    0.33333333    0.21428571 T T T
    0.00000000    0.66666667    0.21428571 T T T
    0.33333333    0.66666667    0.21428571 T T T
    0.66666667    0.66666667    0.21428571 T T T
    0.11111111    0.11111111    0.23214286 T T T
    0.44444444    0.11111111    0.23214286 T T T
    0.77777778    0.11111111    0.23214286 T T T
    0.11111111    0.44444444    0.23214286 T T T
    0.44444444    0.44444444    0.23214286 T T T
    0.77777778    0.44444444    0.23214286 T T T
    0.11111111    0.77777778    0.23214286 T T T
    0.44444444    0.77777778    0.23214286 T T T
    0.77777778    0.77777778    0.23214286 T T T
    0.00000000    0.00000000    0.25000000 T T T
    0.33333333    0.00000000    0.25000000 T T T
    0.66666667    0.00000000    0.25000000 T T T
    0.00000000    0.33333333    0.25000000 T T T
    0.33333333    0.33333333    0.25000000 T T T
    0.66666667    0.33333333    0.25000000 T T T
    0.00000000    0.66666667    0.25000000 T T T
    0.33333333    0.66666667    0.25000000 T T T
    0.66666667    0.66666667    0.25000000 T T T
    0.22222222    0.22222222    0.26785714 T T T
    0.55555556    0.22222222    0.26785714 T T T
    0.88888889    0.22222222    0.26785714 T T T
    0.22222222    0.55555556    0.26785714 T T T
    0.55555556    0.55555556    0.26785714 T T T
    0.88888889    0.55555556    0.26785714 T T T
    0.22222222    0.88888889    0.26785714 T T T
    0.55555556    0.88888889    0.26785714 T T T
    0.88888889    0.88888889    0.26785714 T T T
    0.11111111    0.11111111    0.28571429 T T T
    0.44444444    0.11111111    0.28571429 T T T
    0.77777778    0.11111111    0.28571429 T T T
    0.11111111    0.44444444    0.28571429 T T T
    0.44444444    0.44444444    0.28571429 T T T
    0.77777778    0.44444444    0.28571429 T T T
    0.11111111    0.77777778    0.28571429 T T T
    0.44444444    0.77777778    0.28571429 T T T
    0.77777778    0.77777778    0.28571429 T T T
    0.00000000    0.00000000    0.30357143 T T T
    0.33333333    0.00000000    0.30357143 T T T
    0.66666667    0.00000000    0.30357143 T T T
    0.00000000    0.33333333    0.30357143 T T T
    0.33333333    0.33333333    0.30357143 T T T
    0.66666667    0.33333333    0.30357143 T T T
    0.00000000    0.66666667    0.30357143 T T T
    0.33333333    0.66666667    0.30357143 T T T
    0.66666667    0.66666667    0.30357143 T T T
    0.22222222    0.22222222    0.32142857 T T T
    0.55555556    0.22222222    0.32142857 T T T
    0.88888889    0.22222222    0.32142857 T T T
    0.22222222    0.55555556    0.32142857 T T T
    0.55555556    0.55555556    0.32142857 T T T
    0.88888889    0.55555556    0.32142857 T T T
    0.22222222    0.88888889    0.32142857 T T T
    0.55555556    0.88888889    0.32142857 T T T
    0.88888889    0.88888889    0.32142857 T T T
    0.11111111    0.11111111    0.33928571 T T T
    0.44444444    0.11111111    0.33928571 T T T
    0.77777778    0.11111111    0.33928571 T T T
    0.11111111    0.44444444    0.33928571 T T T
    0.44444444    0.44444444    0.33928571 T T T
    0.77777778    0.44444444    0.33928571 T T T
    0.11111111    0.77777778    0.33928571 T T T
    0.44444444    0.77777778    0.33928571 T T T
    0.77777778    0.77777778    0.33928571 T T T
    0.00000000    0.00000000    0.35714286 T T T
    0.33333333    0.00000000    0.35714286 T T T
    0.66666667    0.00000000    0.35714286 T T T
    0.00000000    0.33333333    0.35714286 T T T
    0.33333333    0.33333333    0.35714286 T T T
    0.66666667    0.33333333    0.35714286 T T T
    0.00000000    0.66666667    0.35714286 T T T
    0.33333333    0.66666667    0.35714286 T T T
    0.66666667    0.66666667    0.35714286 T T T
    0.22222222    0.22222222    0.37500000 T T T
    0.55555556    0.22222222    0.37500000 T T T
    0.88888889    0.22222222    0.37500000 T T T
    0.22222222    0.55555556    0.37500000 T T T
    0.55555556    0.55555556    0.37500000 T T T
    0.88888889    0.55555556    0.37500000 T T T
    0.22222222    0.88888889    0.37500000 T T T
    0.55555556    0.88888889    0.37500000 T T T
    0.88888889    0.88888889    0.37500000 T T T
    0.11111111    0.11111111    0.39285714 T T T
    0.44444444    0.11111111    0.39285714 T T T
    0.77777778    0.11111111    0.39285714 T T T
    0.11111111    0.44444444    0.39285714 T T T
    0.44444444    0.44444444    0.39285714 T T T
    0.77777778    0.44444444    0.39285714 T T T
    0.11111111    0.77777778    0.39285714 T T T
    0.44444444    0.77777778    0.39285714 T T T
    0.77777778    0.77777778    0.39285714 T T T
    0.00000000    0.00000000    0.41071429 T T T
    0.33333333    0.00000000    0.41071429 T T T
    0.66666667    0.00000000    0.41071429 T T T
    0.00000000    0.33333333    0.41071429 T T T
    0.33333333    0.33333333    0.41071429 T T T
    0.66666667    0.33333333    0.41071429 T T T
    0.00000000    0.66666667    0.41071429 T T T
    0.33333333    0.66666667    0.41071429 T T T
    0.66666667    0.66666667    0.41071429 T T T
    0.22222222    0.22222222    0.42857143 T T T
    0.55555556    0.22222222    0.42857143 T T T
    0.88888889    0.22222222    0.42857143 T T T
    0.22222222    0.55555556    0.42857143 T T T
    0.55555556    0.55555556    0.42857143 T T T
    0.88888889    0.55555556    0.42857143 T T T
    0.22222222    0.88888889    0.42857143 T T T
    0.55555556    0.88888889    0.42857143 T T T
    0.88888889    0.88888889    0.42857143 T T T
    0.11111111    0.11111111    0.44642857 T T T
    0.44444444    0.11111111    0.44642857 T T T
    0.77777778    0.11111111    0.44642857 T T T
    0.11111111    0.44444444    0.44642857 T T T
    0.44444444    0.44444444    0.44642857 T T T
    0.77777778    0.44444444    0.44642857 T T T
    0.11111111    0.77777778    0.44642857 T T T
    0.44444444    0.77777778    0.44642857 T T T
    0.77777778    0.77777778    0.44642857 T T T
    0.00000000    0.00000000    0.46428571 T T T
    0.33333333    0.00000000    0.46428571 T T T
    0.66666667    0.00000000    0.46428571 T T T
    0.00000000    0.33333333    0.46428571 T T T
    0.33333333    0.33333333    0.46428571 T T T
    0.66666667    0.33333333    0.46428571 T T T
    0.00000000    0.66666667    0.46428571 T T T
    0.33333333    0.66666667    0.46428571 T T T
    0.66666667    0.66666667    0.46428571 T T T
    0.22222222    0.22222222    0.48214286 T T T
    0.55555556    0.22222222    0.48214286 T T T
    0.88888889    0.22222222    0.48214286 T T T
    0.22222222    0.55555556    0.48214286 T T T
    0.55555556    0.55555556    0.48214286 T T T
    0.88888889    0.55555556    0.48214286 T T T
    0.22222222    0.88888889    0.48214286 T T T
    0.55555556    0.88888889    0.48214286 T T T
    0.88888889    0.88888889    0.48214286 T T T
    0.00000000    0.00000000    0.50000000 T T T
    0.33333333    0.00000000    0.50000000 T T T
    0.66666667    0.00000000    0.50000000 T T T
    0.00000000    0.33333333    0.50000000 T T T
    0.33333333    0.33333333    0.50000000 T T T
    0.66666667    0.33333333    0.50000000 T T T
    0.00000000    0.66666667    0.50000000 T T T
    0.33333333    0.66666667    0.50000000 T T T
    0.66666667    0.66666667    0.50000000 T T T
    0.11111111    0.11111111    0.51785714 T T T
    0.44444444    0.11111111    0.51785714 T T T
    0.77777778    0.11111111    0.51785714 T T T
    0.11111111    0.44444444    0.51785714 T T T
    0.44444444    0.44444444    0.51785714 T T T
    0.77777778    0.44444444    0.51785714 T T T
    0.11111111    0.77777778    0.51785714 T T T
    0.44444444    0.77777778    0.51785714 T T T
    0.77777778    0.77777778    0.51785714 T T T
    0.22222222    0.22222222    0.53571429 T T T
    0.55555556    0.22222222    0.53571429 T T T
    0.88888889    0.22222222    0.53571429 T T T
    0.22222222    0.55555556    0.53571429 T T T
    0.55555556    0.55555556    0.53571429 T T T
    0.88888889    0.55555556    0.53571429 T T T
    0.22222222    0.88888889    0.53571429 T T T
    0.55555556    0.88888889    0.53571429 T T T
    0.88888889    0.88888889    0.53571429 T T T
    0.00000000    0.00000000    0.55357143 T T T
    0.33333333    0.00000000    0.55357143 T T T
    0.66666667    0.00000000    0.55357143 T T T
    0.00000000    0.33333333    0.55357143 T T T
    0.33333333    0.33333333    0.55357143 T T T
    0.66666667    0.33333333    0.55357143 T T T
    0.00000000    0.66666667    0.55357143 T T T
    0.33333333    0.66666667    0.55357143 T T T
    0.66666667    0.66666667    0.55357143 T T T
    0.11111111    0.11111111    0.57142857 T T T
    0.44444444    0.11111111    0.57142857 T T T
    0.77777778    0.11111111    0.57142857 T T T
    0.11111111    0.44444444    0.57142857 T T T
    0.44444444    0.44444444    0.57142857 T T T
    0.77777778    0.44444444    0.57142857 T T T
    0.11111111    0.77777778    0.57142857 T T T
    0.44444444    0.77777778    0.57142857 T T T
    0.77777778    0.77777778    0.57142857 T T T
    0.22222222    0.22222222    0.58928571 T T T
    0.55555556    0.22222222    0.58928571 T T T
    0.88888889    0.22222222    0.58928571 T T T
    0.22222222    0.55555556    0.58928571 T T T
    0.55555556    0.55555556    0.58928571 T T T
    0.88888889    0.55555556    0.58928571 T T T
    0.22222222    0.88888889    0.58928571 T T T
    0.55555556    0.88888889    0.58928571 T T T
    0.88888889    0.88888889    0.58928571 T T T
    0.00000000    0.00000000    0.60714286 T T T
    0.33333333    0.00000000    0.60714286 T T T
    0.66666667    0.00000000    0.60714286 T T T
    0.00000000    0.33333333    0.60714286 T T T
    0.33333333    0.33333333    0.60714286 T T T
    0.66666667    0.33333333    0.60714286 T T T
    0.00000000    0.66666667    0.60714286 T T T
    0.33333333    0.66666667    0.60714286 T T T
    0.66666667    0.66666667    0.60714286 T T T
    0.11111111    0.11111111    0.62500000 T T T
    0.44444444    0.11111111    0.62500000 T T T
    0.77777778    0.11111111    0.62500000 T T T
    0.11111111    0.44444444    0.62500000 T T T
    0.44444444    0.44444444    0.62500000 T T T
    0.77777778    0.44444444    0.62500000 T T T
    0.11111111    0.77777778    0.62500000 T T T
    0.44444444    0.77777778    0.62500000 T T T
    0.77777778    0.77777778    0.62500000 T T T
    0.22222222    0.22222222    0.64285714 T T T
    0.55555556    0.22222222    0.64285714 T T T
    0.88888889    0.22222222    0.64285714 T T T
    0.22222222    0.55555556    0.64285714 T T T
    0.55555556    0.55555556    0.64285714 T T T
    0.88888889    0.55555556    0.64285714 T T T
    0.22222222    0.88888889    0.64285714 T T T
    0.55555556    0.88888889    0.64285714 T T T
    0.88888889    0.88888889    0.64285714 T T T
    0.00000000    0.00000000    0.66071429 T T T
    0.33333333    0.00000000    0.66071429 T T T
    0.66666667    0.00000000    0.66071429 T T T
    0.00000000    0.33333333    0.66071429 T T T
    0.33333333    0.33333333    0.66071429 T T T
    0.66666667    0.33333333    0.66071429 T T T
    0.00000000    0.66666667    0.66071429 T T T
    0.33333333    0.66666667    0.66071429 T T T
    0.66666667    0.66666667    0.66071429 T T T
    0.11111111    0.11111111    0.67857143 T T T
    0.44444444    0.11111111    0.67857143 T T T
    0.77777778    0.11111111    0.67857143 T T T
    0.11111111    0.44444444    0.67857143 T T T
    0.44444444    0.44444444    0.67857143 T T T
    0.77777778    0.44444444    0.67857143 T T T
    0.11111111    0.77777778    0.67857143 T T T
    0.44444444    0.77777778    0.67857143 T T T
    0.77777778    0.77777778    0.67857143 T T T
    0.22222222    0.22222222    0.69642857 T T T
    0.55555556    0.22222222    0.69642857 T T T
    0.88888889    0.22222222    0.69642857 T T T
    0.22222222    0.55555556    0.69642857 T T T
    0.55555556    0.55555556    0.69642857 T T T
    0.88888889    0.55555556    0.69642857 T T T
    0.22222222    0.88888889    0.69642857 T T T
    0.55555556    0.88888889    0.69642857 T T T
    0.88888889    0.88888889    0.69642857 T T T
    0.00000000    0.00000000    0.71428571 T T T
    0.33333333    0.00000000    0.71428571 T T T
    0.66666667    0.00000000    0.71428571 T T T
    0.00000000    0.33333333    0.71428571 T T T
    0.33333333    0.33333333    0.71428571 T T T
    0.66666667    0.33333333    0.71428571 T T T
    0.00000000    0.66666667    0.71428571 T T T
    0.33333333    0.66666667    0.71428571 T T T
    0.66666667    0.66666667    0.71428571 T T T
    0.11111111    0.11111111    0.73214286 T T T
    0.44444444    0.11111111    0.73214286 T T T
    0.77777778    0.11111111    0.73214286 T T T
    0.11111111    0.44444444    0.73214286 T T T
    0.44444444    0.44444444    0.73214286 T T T
    0.77777778    0.44444444    0.73214286 T T T
    0.11111111    0.77777778    0.73214286 T T T
    0.44444444    0.77777778    0.73214286 T T T
    0.77777778    0.77777778    0.73214286 T T T
    0.00000000    0.00000000    0.75000000 T T T
    0.33333333    0.00000000    0.75000000 T T T
    0.66666667    0.00000000    0.75000000 T T T
    0.00000000    0.33333333    0.75000000 T T T
    0.33333333    0.33333333    0.75000000 T T T
    0.66666667    0.33333333    0.75000000 T T T
    0.00000000    0.66666667    0.75000000 T T T
    0.33333333    0.66666667    0.75000000 T T T
    0.66666667    0.66666667    0.75000000 T T T
    0.22222222    0.22222222    0.76785714 T T T
    0.55555556    0.22222222    0.76785714 T T T
    0.88888889    0.22222222    0.76785714 T T T
    0.22222222    0.55555556    0.76785714 T T T
    0.55555556    0.55555556    0.76785714 T T T
    0.88888889    0.55555556    0.76785714 T T T
    0.22222222    0.88888889    0.76785714 T T T
    0.55555556    0.88888889    0.76785714 T T T
    0.88888889    0.88888889    0.76785714 T T T
    0.11111111    0.11111111    0.78571429 T T T
    0.44444444    0.11111111    0.78571429 T T T
    0.77777778    0.11111111    0.78571429 T T T
    0.11111111    0.44444444    0.78571429 T T T
    0.44444444    0.44444444    0.78571429 T T T
    0.77777778    0.44444444    0.78571429 T T T
    0.11111111    0.77777778    0.78571429 T T T
    0.44444444    0.77777778    0.78571429 T T T
    0.77777778    0.77777778    0.78571429 T T T
    0.00000000    0.00000000    0.80357143 T T T
    0.33333333    0.00000000    0.80357143 T T T
    0.66666667    0.00000000    0.80357143 T T T
    0.00000000    0.33333333    0.80357143 T T T
    0.33333333    0.33333333    0.80357143 T T T
    0.66666667    0.33333333    0.80357143 T T T
    0.00000000    0.66666667    0.80357143 T T T
    0.33333333    0.66666667    0.80357143 T T T
    0.66666667    0.66666667    0.80357143 T T T
    0.22222222    0.22222222    0.82142857 T T T
    0.55555556    0.22222222    0.82142857 T T T
    0.88888889    0.22222222    0.82142857 T T T
    0.22222222    0.55555556    0.82142857 T T T
    0.55555556    0.55555556    0.82142857 T T T
    0.88888889    0.55555556    0.82142857 T T T
    0.22222222    0.88888889    0.82142857 T T T
    0.55555556    0.88888889    0.82142857 T T T
    0.88888889    0.88888889    0.82142857 T T T
    0.11111111    0.11111111    0.83928571 T T T
    0.44444444    0.11111111    0.83928571 T T T
    0.77777778    0.11111111    0.83928571 T T T
    0.11111111    0.44444444    0.83928571 T T T
    0.44444444    0.44444444    0.83928571 T T T
    0.77777778    0.44444444    0.83928571 T T T
    0.11111111    0.77777778    0.83928571 T T T
    0.44444444    0.77777778    0.83928571 T T T
    0.77777778    0.77777778    0.83928571 T T T
    0.00000000    0.00000000    0.85714286 T T T
    0.33333333    0.00000000    0.85714286 T T T
    0.66666667    0.00000000    0.85714286 T T T
    0.00000000    0.33333333    0.85714286 T T T
    0.33333333    0.33333333    0.85714286 T T T
    0.66666667    0.33333333    0.85714286 T T T
    0.00000000    0.66666667    0.85714286 T T T
    0.33333333    0.66666667    0.85714286 T T T
    0.66666667    0.66666667    0.85714286 T T T
    0.22222222    0.22222222    0.87500000 T T T
    0.55555556    0.22222222    0.87500000 T T T
    0.88888889    0.22222222    0.87500000 T T T
    0.22222222    0.55555556    0.87500000 T T T
    0.55555556    0.55555556    0.87500000 T T T
    0.88888889    0.55555556    0.87500000 T T T
    0.22222222    0.88888889    0.87500000 T T T
    0.55555556    0.88888889    0.87500000 T T T
    0.88888889    0.88888889    0.87500000 T T T
    0.11111111    0.11111111    0.89285714 T T T
    0.44444444    0.11111111    0.89285714 T T T
    0.77777778    0.11111111    0.89285714 T T T
    0.11111111    0.44444444    0.89285714 T T T
    0.44444444    0.44444444    0.89285714 T T T
    0.77777778    0.44444444    0.89285714 T T T
    0.11111111    0.77777778    0.89285714 T T T
    0.44444444    0.77777778    0.89285714 T T T
    0.77777778    0.77777778    0.89285714 T T T
    0.00000000    0.00000000    0.91071429 T T T
    0.33333333    0.00000000    0.91071429 T T T
    0.66666667    0.00000000    0.91071429 T T T
    0.00000000    0.33333333    0.91071429 T T T
    0.33333333    0.33333333    0.91071429 T T T
    0.66666667    0.33333333    0.91071429 T T T
    0.00000000    0.66666667    0.91071429 T T T
    0.33333333    0.66666667    0.91071429 T T T
    0.66666667    0.66666667    0.91071429 T T T
    0.22222222    0.22222222    0.92857143 T T T
    0.55555556    0.22222222    0.92857143 T T T
    0.88888889    0.22222222    0.92857143 T T T
    0.22222222    0.55555556    0.92857143 T T T
    0.55555556    0.55555556    0.92857143 T T T
    0.88888889    0.55555556    0.92857143 T T T
    0.22222222    0.88888889    0.92857143 T T T
    0.55555556    0.88888889    0.92857143 T T T
    0.88888889    0.88888889    0.92857143 T T T
    0.11111111    0.11111111    0.94642857 T T T
    0.44444444    0.11111111    0.94642857 T T T
    0.77777778    0.11111111    0.94642857 T T T
    0.11111111    0.44444444    0.94642857 T T T
    0.44444444    0.44444444    0.94642857 T T T
    0.77777778    0.44444444    0.94642857 T T T
    0.11111111    0.77777778    0.94642857 T T T
    0.44444444    0.77777778    0.94642857 T T T
    0.77777778    0.77777778    0.94642857 T T T
    0.00000000    0.00000000    0.96428571 T T T
    0.33333333    0.00000000    0.96428571 T T T
    0.66666667    0.00000000    0.96428571 T T T
    0.00000000    0.33333333    0.96428571 T T T
    0.33333333    0.33333333    0.96428571 T T T
    0.66666667    0.33333333    0.96428571 T T T
    0.00000000    0.66666667    0.96428571 T T T
    0.33333333    0.66666667    0.96428571 T T T
    0.66666667    0.66666667    0.96428571 T T T
    0.22222222    0.22222222    0.98214286 F F F
    0.55555556    0.22222222    0.98214286 F F F
    0.88888889    0.22222222    0.98214286 F F F
    0.22222222    0.55555556    0.98214286 F F F
    0.55555556    0.55555556    0.98214286 F F F
    0.88888889    0.55555556    0.98214286 F F F
    0.22222222    0.88888889    0.98214286 F F F
    0.55555556    0.88888889    0.98214286 F F F
    0.88888889    0.88888889    0.98214286 F F F
