Generated generic
1.0
    7.66857304    0.00000000    0.00000000
    3.83428652    6.64117907    0.00000000
    0.00000000    0.00000000  384.03030505
 Cu
 1656
Selective dynamics
Direct
    0.00000000    0.00000000    0.00000000 F F F
    0.33333333    0.00000000    0.00000000 F F F
    0.66666667    0.00000000    0.00000000 F F F
    0.00000000    0.33333333    0.00000000 F F F
    0.33333333    0.33333333    0.00000000 F F F
    0.66666667    0.33333333    0.00000000 F F F
    0.00000000    0.66666667    0.00000000 F F F
    0.33333333    0.66666667    0.00000000 F F F
    0.66666667    0.66666667    0.00000000 F F F
    0.11111111    0.11111111    0.00543478 T T T
    0.44444444    0.11111111    0.00543478 T T T
    0.77777778    0.11111111    0.00543478 T T T
    0.11111111    0.44444444    0.00543478 T T T
    0.44444444    0.44444444    0.00543478 T T T
    0.77777778    0.44444444    0.00543478 T T T
    0.11111111    0.77777778    0.00543478 T T T
    0.44444444    0.77777778    0.00543478 T T T
    0.77777778    0.77777778    0.00543478 T T T
    0.22222222    0.22222222    0.01086957 T T T
    0.55555556    0.22222222    0.01086957 T T T
    0.88888889    0.22222222    0.01086957 T T T
    0.22222222    0.55555556    0.01086957 T T T
    0.55555556    0.55555556    0.01086957 T T T
    0.88888889    0.55555556    0.01086957 T T T
    0.22222222    0.88888889    0.01086957 T T T
    0.55555556    0.88888889    0.01086957 T T T
    0.88888889    0.88888889    0.01086957 T T T
    0.00000000    0.00000000    0.01630435 T T T
    0.33333333    0.00000000    0.01630435 T T T
    0.66666667    0.00000000    0.01630435 T T T
    0.00000000    0.33333333    0.01630435 T T T
    0.33333333    0.33333333    0.01630435 T T T
    0.66666667    0.33333333    0.01630435 T T T
    0.00000000    0.66666667    0.01630435 T T T
    0.33333333    0.66666667    0.01630435 T T T
    0.66666667    0.66666667    0.01630435 T T T
    0.11111111    0.11111111    0.02173913 T T T
    0.44444444    0.11111111    0.02173913 T T T
    0.77777778    0.11111111    0.02173913 T T T
    0.11111111    0.44444444    0.02173913 T T T
    0.44444444    0.44444444    0.02173913 T T T
    0.77777778    0.44444444    0.02173913 T T T
    0.11111111    0.77777778    0.02173913 T T T
    0.44444444    0.77777778    0.02173913 T T T
    0.77777778    0.77777778    0.02173913 T T T
    0.22222222    0.22222222    0.02717391 T T T
    0.55555556    0.22222222    0.02717391 T T T
    0.88888889    0.22222222    0.02717391 T T T
    0.22222222    0.55555556    0.02717391 T T T
    0.55555556    0.55555556    0.02717391 T T T
    0.88888889    0.55555556    0.02717391 T T T
    0.22222222    0.88888889    0.02717391 T T T
    0.55555556    0.88888889    0.02717391 T T T
    0.88888889    0.88888889    0.02717391 T T T
    0.00000000    0.00000000    0.03260870 T T T
    0.33333333    0.00000000    0.03260870 T T T
    0.66666667    0.00000000    0.03260870 T T T
    0.00000000    0.33333333    0.03260870 T T T
    0.33333333    0.33333333    0.03260870 T T T
    0.66666667    0.33333333    0.03260870 T T T
    0.00000000    0.66666667    0.03260870 T T T
    0.33333333    0.66666667    0.03260870 T T T
    0.66666667    0.66666667    0.03260870 T T T
    0.11111111    0.11111111    0.03804348 T T T
    0.44444444    0.11111111    0.03804348 T T T
    0.77777778    0.11111111    0.03804348 T T T
    0.11111111    0.44444444    0.03804348 T T T
    0.44444444    0.44444444    0.03804348 T T T
    0.77777778    0.44444444    0.03804348 T T T
    0.11111111    0.77777778    0.03804348 T T T
    0.44444444    0.77777778    0.03804348 T T T
    0.77777778    0.77777778    0.03804348 T T T
    0.22222222    0.22222222    0.04347826 T T T
    0.55555556    0.22222222    0.04347826 T T T
    0.88888889    0.22222222    0.04347826 T T T
    0.22222222    0.55555556    0.04347826 T T T
    0.55555556    0.55555556    0.04347826 T T T
    0.88888889    0.55555556    0.04347826 T T T
    0.22222222    0.88888889    0.04347826 T T T
    0.55555556    0.88888889    0.04347826 T T T
    0.88888889    0.88888889    0.04347826 T T T
    0.00000000    0.00000000    0.04891304 T T T
    0.33333333    0.00000000    0.04891304 T T T
    0.66666667    0.00000000    0.04891304 T T T
    0.00000000    0.33333333    0.04891304 T T T
    0.33333333    0.33333333    0.04891304 T T T
    0.66666667    0.33333333    0.04891304 T T T
    0.00000000    0.66666667    0.04891304 T T T
    0.33333333    0.66666667    0.04891304 T T T
    0.66666667    0.66666667    0.04891304 T T T
    0.11111111    0.11111111    0.05434783 T T T
    0.44444444    0.11111111    0.05434783 T T T
    0.77777778    0.11111111    0.05434783 T T T
    0.11111111    0.44444444    0.05434783 T T T
    0.44444444    0.44444444    0.05434783 T T T
    0.77777778    0.44444444    0.05434783 T T T
    0.11111111    0.77777778    0.05434783 T T T
    0.44444444    0.77777778    0.05434783 T T T
    0.77777778    0.77777778    0.05434783 T T T
    0.22222222    0.22222222    0.05978261 T T T
    0.55555556    0.22222222    0.05978261 T T T
    0.88888889    0.22222222    0.05978261 T T T
    0.22222222    0.55555556    0.05978261 T T T
    0.55555556    0.55555556    0.05978261 T T T
    0.88888889    0.55555556    0.05978261 T T T
    0.22222222    0.88888889    0.05978261 T T T
    0.55555556    0.88888889    0.05978261 T T T
    0.88888889    0.88888889    0.05978261 T T T
    0.00000000    0.00000000    0.06521739 T T T
    0.33333333    0.00000000    0.06521739 T T T
    0.66666667    0.00000000    0.06521739 T T T
    0.00000000    0.33333333    0.06521739 T T T
    0.33333333    0.33333333    0.06521739 T T T
    0.66666667    0.33333333    0.06521739 T T T
    0.00000000    0.66666667    0.06521739 T T T
    0.33333333    0.66666667    0.06521739 T T T
    0.66666667    0.66666667    0.06521739 T T T
    0.11111111    0.11111111    0.07065217 T T T
    0.44444444    0.11111111    0.07065217 T T T
    0.77777778    0.11111111    0.07065217 T T T
    0.11111111    0.44444444    0.07065217 T T T
    0.44444444    0.44444444    0.07065217 T T T
    0.77777778    0.44444444    0.07065217 T T T
    0.11111111    0.77777778    0.07065217 T T T
    0.44444444    0.77777778    0.07065217 T T T
    0.77777778    0.77777778    0.07065217 T T T
    0.22222222    0.22222222    0.07608696 T T T
    0.55555556    0.22222222    0.07608696 T T T
    0.88888889    0.22222222    0.07608696 T T T
    0.22222222    0.55555556    0.07608696 T T T
    0.55555556    0.55555556    0.07608696 T T T
    0.88888889    0.55555556    0.07608696 T T T
    0.22222222    0.88888889    0.07608696 T T T
    0.55555556    0.88888889    0.07608696 T T T
    0.88888889    0.88888889    0.07608696 T T T
    0.00000000    0.00000000    0.08152174 T T T
    0.33333333    0.00000000    0.08152174 T T T
    0.66666667    0.00000000    0.08152174 T T T
    0.00000000    0.33333333    0.08152174 T T T
    0.33333333    0.33333333    0.08152174 T T T
    0.66666667    0.33333333    0.08152174 T T T
    0.00000000    0.66666667    0.08152174 T T T
    0.33333333    0.66666667    0.08152174 T T T
    0.66666667    0.66666667    0.08152174 T T T
    0.11111111    0.11111111    0.08695652 T T T
    0.44444444    0.11111111    0.08695652 T T T
    0.77777778    0.11111111    0.08695652 T T T
    0.11111111    0.44444444    0.08695652 T T T
    0.44444444    0.44444444    0.08695652 T T T
    0.77777778    0.44444444    0.08695652 T T T
    0.11111111    0.77777778    0.08695652 T T T
    0.44444444    0.77777778    0.08695652 T T T
    0.77777778    0.77777778    0.08695652 T T T
    0.22222222    0.22222222    0.09239130 T T T
    0.55555556    0.22222222    0.09239130 T T T
    0.88888889    0.22222222    0.09239130 T T T
    0.22222222    0.55555556    0.09239130 T T T
    0.55555556    0.55555556    0.09239130 T T T
    0.88888889    0.55555556    0.09239130 T T T
    0.22222222    0.88888889    0.09239130 T T T
    0.55555556    0.88888889    0.09239130 T T T
    0.88888889    0.88888889    0.09239130 T T T
    0.00000000    0.00000000    0.09782609 T T T
    0.33333333    0.00000000    0.09782609 T T T
    0.66666667    0.00000000    0.09782609 T T T
    0.00000000    0.33333333    0.09782609 T T T
    0.33333333    0.33333333    0.09782609 T T T
    0.66666667    0.33333333    0.09782609 T T T
    0.00000000    0.66666667    0.09782609 T T T
    0.33333333    0.66666667    0.09782609 T T T
    0.66666667    0.66666667    0.09782609 T T T
    0.11111111    0.11111111    0.10326087 T T T
    0.44444444    0.11111111    0.10326087 T T T
    0.77777778    0.11111111    0.10326087 T T T
    0.11111111    0.44444444    0.10326087 T T T
    0.44444444    0.44444444    0.10326087 T T T
    0.77777778    0.44444444    0.10326087 T T T
    0.11111111    0.77777778    0.10326087 T T T
    0.44444444    0.77777778    0.10326087 T T T
    0.77777778    0.77777778    0.10326087 T T T
    0.22222222    0.22222222    0.10869565 T T T
    0.55555556    0.22222222    0.10869565 T T T
    0.88888889    0.22222222    0.10869565 T T T
    0.22222222    0.55555556    0.10869565 T T T
    0.55555556    0.55555556    0.10869565 T T T
    0.88888889    0.55555556    0.10869565 T T T
    0.22222222    0.88888889    0.10869565 T T T
    0.55555556    0.88888889    0.10869565 T T T
    0.88888889    0.88888889    0.10869565 T T T
    0.00000000    0.00000000    0.11413043 T T T
    0.33333333    0.00000000    0.11413043 T T T
    0.66666667    0.00000000    0.11413043 T T T
    0.00000000    0.33333333    0.11413043 T T T
    0.33333333    0.33333333    0.11413043 T T T
    0.66666667    0.33333333    0.11413043 T T T
    0.00000000    0.66666667    0.11413043 T T T
    0.33333333    0.66666667    0.11413043 T T T
    0.66666667    0.66666667    0.11413043 T T T
    0.11111111    0.11111111    0.11956522 T T T
    0.44444444    0.11111111    0.11956522 T T T
    0.77777778    0.11111111    0.11956522 T T T
    0.11111111    0.44444444    0.11956522 T T T
    0.44444444    0.44444444    0.11956522 T T T
    0.77777778    0.44444444    0.11956522 T T T
    0.11111111    0.77777778    0.11956522 T T T
    0.44444444    0.77777778    0.11956522 T T T
    0.77777778    0.77777778    0.11956522 T T T
    0.22222222    0.22222222    0.12500000 T T T
    0.55555556    0.22222222    0.12500000 T T T
    0.88888889    0.22222222    0.12500000 T T T
    0.22222222    0.55555556    0.12500000 T T T
    0.55555556    0.55555556    0.12500000 T T T
    0.88888889    0.55555556    0.12500000 T T T
    0.22222222    0.88888889    0.12500000 T T T
    0.55555556    0.88888889    0.12500000 T T T
    0.88888889    0.88888889    0.12500000 T T T
    0.00000000    0.00000000    0.13043478 T T T
    0.33333333    0.00000000    0.13043478 T T T
    0.66666667    0.00000000    0.13043478 T T T
    0.00000000    0.33333333    0.13043478 T T T
    0.33333333    0.33333333    0.13043478 T T T
    0.66666667    0.33333333    0.13043478 T T T
    0.00000000    0.66666667    0.13043478 T T T
    0.33333333    0.66666667    0.13043478 T T T
    0.66666667    0.66666667    0.13043478 T T T
    0.11111111    0.11111111    0.13586957 T T T
    0.44444444    0.11111111    0.13586957 T T T
    0.77777778    0.11111111    0.13586957 T T T
    0.11111111    0.44444444    0.13586957 T T T
    0.44444444    0.44444444    0.13586957 T T T
    0.77777778    0.44444444    0.13586957 T T T
    0.11111111    0.77777778    0.13586957 T T T
    0.44444444    0.77777778    0.13586957 T T T
    0.77777778    0.77777778    0.13586957 T T T
    0.22222222    0.22222222    0.14130435 T T T
    0.55555556    0.22222222    0.14130435 T T T
    0.88888889    0.22222222    0.14130435 T T T
    0.22222222    0.55555556    0.14130435 T T T
    0.55555556    0.55555556    0.14130435 T T T
    0.88888889    0.55555556    0.14130435 T T T
    0.22222222    0.88888889    0.14130435 T T T
    0.55555556    0.88888889    0.14130435 T T T
    0.88888889    0.88888889    0.14130435 T T T
    0.00000000    0.00000000    0.14673913 T T T
    0.33333333    0.00000000    0.14673913 T T T
    0.66666667    0.00000000    0.14673913 T T T
    0.00000000    0.33333333    0.14673913 T T T
    0.33333333    0.33333333    0.14673913 T T T
    0.66666667    0.33333333    0.14673913 T T T
    0.00000000    0.66666667    0.14673913 T T T
    0.33333333    0.66666667    0.14673913 T T T
    0.66666667    0.66666667    0.14673913 T T T
    0.11111111    0.11111111    0.15217391 T T T
    0.44444444    0.11111111    0.15217391 T T T
    0.77777778    0.11111111    0.15217391 T T T
    0.11111111    0.44444444    0.15217391 T T T
    0.44444444    0.44444444    0.15217391 T T T
    0.77777778    0.44444444    0.15217391 T T T
    0.11111111    0.77777778    0.15217391 T T T
    0.44444444    0.77777778    0.15217391 T T T
    0.77777778    0.77777778    0.15217391 T T T
    0.22222222    0.22222222    0.15760870 T T T
    0.55555556    0.22222222    0.15760870 T T T
    0.88888889    0.22222222    0.15760870 T T T
    0.22222222    0.55555556    0.15760870 T T T
    0.55555556    0.55555556    0.15760870 T T T
    0.88888889    0.55555556    0.15760870 T T T
    0.22222222    0.88888889    0.15760870 T T T
    0.55555556    0.88888889    0.15760870 T T T
    0.88888889    0.88888889    0.15760870 T T T
    0.00000000    0.00000000    0.16304348 T T T
    0.33333333    0.00000000    0.16304348 T T T
    0.66666667    0.00000000    0.16304348 T T T
    0.00000000    0.33333333    0.16304348 T T T
    0.33333333    0.33333333    0.16304348 T T T
    0.66666667    0.33333333    0.16304348 T T T
    0.00000000    0.66666667    0.16304348 T T T
    0.33333333    0.66666667    0.16304348 T T T
    0.66666667    0.66666667    0.16304348 T T T
    0.11111111    0.11111111    0.16847826 T T T
    0.44444444    0.11111111    0.16847826 T T T
    0.77777778    0.11111111    0.16847826 T T T
    0.11111111    0.44444444    0.16847826 T T T
    0.44444444    0.44444444    0.16847826 T T T
    0.77777778    0.44444444    0.16847826 T T T
    0.11111111    0.77777778    0.16847826 T T T
    0.44444444    0.77777778    0.16847826 T T T
    0.77777778    0.77777778    0.16847826 T T T
    0.22222222    0.22222222    0.17391304 T T T
    0.55555556    0.22222222    0.17391304 T T T
    0.88888889    0.22222222    0.17391304 T T T
    0.22222222    0.55555556    0.17391304 T T T
    0.55555556    0.55555556    0.17391304 T T T
    0.88888889    0.55555556    0.17391304 T T T
    0.22222222    0.88888889    0.17391304 T T T
    0.55555556    0.88888889    0.17391304 T T T
    0.88888889    0.88888889    0.17391304 T T T
    0.00000000    0.00000000    0.17934783 T T T
    0.33333333    0.00000000    0.17934783 T T T
    0.66666667    0.00000000    0.17934783 T T T
    0.00000000    0.33333333    0.17934783 T T T
    0.33333333    0.33333333    0.17934783 T T T
    0.66666667    0.33333333    0.17934783 T T T
    0.00000000    0.66666667    0.17934783 T T T
    0.33333333    0.66666667    0.17934783 T T T
    0.66666667    0.66666667    0.17934783 T T T
    0.11111111    0.11111111    0.18478261 T T T
    0.44444444    0.11111111    0.18478261 T T T
    0.77777778    0.11111111    0.18478261 T T T
    0.11111111    0.44444444    0.18478261 T T T
    0.44444444    0.44444444    0.18478261 T T T
    0.77777778    0.44444444    0.18478261 T T T
    0.11111111    0.77777778    0.18478261 T T T
    0.44444444    0.77777778    0.18478261 T T T
    0.77777778    0.77777778    0.18478261 T T T
    0.22222222    0.22222222    0.19021739 T T T
    0.55555556    0.22222222    0.19021739 T T T
    0.88888889    0.22222222    0.19021739 T T T
    0.22222222    0.55555556    0.19021739 T T T
    0.55555556    0.55555556    0.19021739 T T T
    0.88888889    0.55555556    0.19021739 T T T
    0.22222222    0.88888889    0.19021739 T T T
    0.55555556    0.88888889    0.19021739 T T T
    0.88888889    0.88888889    0.19021739 T T T
    0.00000000    0.00000000    0.19565217 T T T
    0.33333333    0.00000000    0.19565217 T T T
    0.66666667    0.00000000    0.19565217 T T T
    0.00000000    0.33333333    0.19565217 T T T
    0.33333333    0.33333333    0.19565217 T T T
    0.66666667    0.33333333    0.19565217 T T T
    0.00000000    0.66666667    0.19565217 T T T
    0.33333333    0.66666667    0.19565217 T T T
    0.66666667    0.66666667    0.19565217 T T T
    0.11111111    0.11111111    0.20108696 T T T
    0.44444444    0.11111111    0.20108696 T T T
    0.77777778    0.11111111    0.20108696 T T T
    0.11111111    0.44444444    0.20108696 T T T
    0.44444444    0.44444444    0.20108696 T T T
    0.77777778    0.44444444    0.20108696 T T T
    0.11111111    0.77777778    0.20108696 T T T
    0.44444444    0.77777778    0.20108696 T T T
    0.77777778    0.77777778    0.20108696 T T T
    0.22222222    0.22222222    0.20652174 T T T
    0.55555556    0.22222222    0.20652174 T T T
    0.88888889    0.22222222    0.20652174 T T T
    0.22222222    0.55555556    0.20652174 T T T
    0.55555556    0.55555556    0.20652174 T T T
    0.88888889    0.55555556    0.20652174 T T T
    0.22222222    0.88888889    0.20652174 T T T
    0.55555556    0.88888889    0.20652174 T T T
    0.88888889    0.88888889    0.20652174 T T T
    0.00000000    0.00000000    0.21195652 T T T
    0.33333333    0.00000000    0.21195652 T T T
    0.66666667    0.00000000    0.21195652 T T T
    0.00000000    0.33333333    0.21195652 T T T
    0.33333333    0.33333333    0.21195652 T T T
    0.66666667    0.33333333    0.21195652 T T T
    0.00000000    0.66666667    0.21195652 T T T
    0.33333333    0.66666667    0.21195652 T T T
    0.66666667    0.66666667    0.21195652 T T T
    0.11111111    0.11111111    0.21739130 T T T
    0.44444444    0.11111111    0.21739130 T T T
    0.77777778    0.11111111    0.21739130 T T T
    0.11111111    0.44444444    0.21739130 T T T
    0.44444444    0.44444444    0.21739130 T T T
    0.77777778    0.44444444    0.21739130 T T T
    0.11111111    0.77777778    0.21739130 T T T
    0.44444444    0.77777778    0.21739130 T T T
    0.77777778    0.77777778    0.21739130 T T T
    0.22222222    0.22222222    0.22282609 T T T
    0.55555556    0.22222222    0.22282609 T T T
    0.88888889    0.22222222    0.22282609 T T T
    0.22222222    0.55555556    0.22282609 T T T
    0.55555556    0.55555556    0.22282609 T T T
    0.88888889    0.55555556    0.22282609 T T T
    0.22222222    0.88888889    0.22282609 T T T
    0.55555556    0.88888889    0.22282609 T T T
    0.88888889    0.88888889    0.22282609 T T T
    0.00000000    0.00000000    0.22826087 T T T
    0.33333333    0.00000000    0.22826087 T T T
    0.66666667    0.00000000    0.22826087 T T T
    0.00000000    0.33333333    0.22826087 T T T
    0.33333333    0.33333333    0.22826087 T T T
    0.66666667    0.33333333    0.22826087 T T T
    0.00000000    0.66666667    0.22826087 T T T
    0.33333333    0.66666667    0.22826087 T T T
    0.66666667    0.66666667    0.22826087 T T T
    0.11111111    0.11111111    0.23369565 T T T
    0.44444444    0.11111111    0.23369565 T T T
    0.77777778    0.11111111    0.23369565 T T T
    0.11111111    0.44444444    0.23369565 T T T
    0.44444444    0.44444444    0.23369565 T T T
    0.77777778    0.44444444    0.23369565 T T T
    0.11111111    0.77777778    0.23369565 T T T
    0.44444444    0.77777778    0.23369565 T T T
    0.77777778    0.77777778    0.23369565 T T T
    0.22222222    0.22222222    0.23913043 T T T
    0.55555556    0.22222222    0.23913043 T T T
    0.88888889    0.22222222    0.23913043 T T T
    0.22222222    0.55555556    0.23913043 T T T
    0.55555556    0.55555556    0.23913043 T T T
    0.88888889    0.55555556    0.23913043 T T T
    0.22222222    0.88888889    0.23913043 T T T
    0.55555556    0.88888889    0.23913043 T T T
    0.88888889    0.88888889    0.23913043 T T T
    0.00000000    0.00000000    0.24456522 T T T
    0.33333333    0.00000000    0.24456522 T T T
    0.66666667    0.00000000    0.24456522 T T T
    0.00000000    0.33333333    0.24456522 T T T
    0.33333333    0.33333333    0.24456522 T T T
    0.66666667    0.33333333    0.24456522 T T T
    0.00000000    0.66666667    0.24456522 T T T
    0.33333333    0.66666667    0.24456522 T T T
    0.66666667    0.66666667    0.24456522 T T T
    0.22222222    0.22222222    0.25000000 T T T
    0.55555556    0.22222222    0.25000000 T T T
    0.88888889    0.22222222    0.25000000 T T T
    0.22222222    0.55555556    0.25000000 T T T
    0.55555556    0.55555556    0.25000000 T T T
    0.88888889    0.55555556    0.25000000 T T T
    0.22222222    0.88888889    0.25000000 T T T
    0.55555556    0.88888889    0.25000000 T T T
    0.88888889    0.88888889    0.25000000 T T T
    0.11111111    0.11111111    0.25543478 T T T
    0.44444444    0.11111111    0.25543478 T T T
    0.77777778    0.11111111    0.25543478 T T T
    0.11111111    0.44444444    0.25543478 T T T
    0.44444444    0.44444444    0.25543478 T T T
    0.77777778    0.44444444    0.25543478 T T T
    0.11111111    0.77777778    0.25543478 T T T
    0.44444444    0.77777778    0.25543478 T T T
    0.77777778    0.77777778    0.25543478 T T T
    0.00000000    0.00000000    0.26086957 T T T
    0.33333333    0.00000000    0.26086957 T T T
    0.66666667    0.00000000    0.26086957 T T T
    0.00000000    0.33333333    0.26086957 T T T
    0.33333333    0.33333333    0.26086957 T T T
    0.66666667    0.33333333    0.26086957 T T T
    0.00000000    0.66666667    0.26086957 T T T
    0.33333333    0.66666667    0.26086957 T T T
    0.66666667    0.66666667    0.26086957 T T T
    0.22222222    0.22222222    0.26630435 T T T
    0.55555556    0.22222222    0.26630435 T T T
    0.88888889    0.22222222    0.26630435 T T T
    0.22222222    0.55555556    0.26630435 T T T
    0.55555556    0.55555556    0.26630435 T T T
    0.88888889    0.55555556    0.26630435 T T T
    0.22222222    0.88888889    0.26630435 T T T
    0.55555556    0.88888889    0.26630435 T T T
    0.88888889    0.88888889    0.26630435 T T T
    0.11111111    0.11111111    0.27173913 T T T
    0.44444444    0.11111111    0.27173913 T T T
    0.77777778    0.11111111    0.27173913 T T T
    0.11111111    0.44444444    0.27173913 T T T
    0.44444444    0.44444444    0.27173913 T T T
    0.77777778    0.44444444    0.27173913 T T T
    0.11111111    0.77777778    0.27173913 T T T
    0.44444444    0.77777778    0.27173913 T T T
    0.77777778    0.77777778    0.27173913 T T T
    0.00000000    0.00000000    0.27717391 T T T
    0.33333333    0.00000000    0.27717391 T T T
    0.66666667    0.00000000    0.27717391 T T T
    0.00000000    0.33333333    0.27717391 T T T
    0.33333333    0.33333333    0.27717391 T T T
    0.66666667    0.33333333    0.27717391 T T T
    0.00000000    0.66666667    0.27717391 T T T
    0.33333333    0.66666667    0.27717391 T T T
    0.66666667    0.66666667    0.27717391 T T T
    0.22222222    0.22222222    0.28260870 T T T
    0.55555556    0.22222222    0.28260870 T T T
    0.88888889    0.22222222    0.28260870 T T T
    0.22222222    0.55555556    0.28260870 T T T
    0.55555556    0.55555556    0.28260870 T T T
    0.88888889    0.55555556    0.28260870 T T T
    0.22222222    0.88888889    0.28260870 T T T
    0.55555556    0.88888889    0.28260870 T T T
    0.88888889    0.88888889    0.28260870 T T T
    0.11111111    0.11111111    0.28804348 T T T
    0.44444444    0.11111111    0.28804348 T T T
    0.77777778    0.11111111    0.28804348 T T T
    0.11111111    0.44444444    0.28804348 T T T
    0.44444444    0.44444444    0.28804348 T T T
    0.77777778    0.44444444    0.28804348 T T T
    0.11111111    0.77777778    0.28804348 T T T
    0.44444444    0.77777778    0.28804348 T T T
    0.77777778    0.77777778    0.28804348 T T T
    0.00000000    0.00000000    0.29347826 T T T
    0.33333333    0.00000000    0.29347826 T T T
    0.66666667    0.00000000    0.29347826 T T T
    0.00000000    0.33333333    0.29347826 T T T
    0.33333333    0.33333333    0.29347826 T T T
    0.66666667    0.33333333    0.29347826 T T T
    0.00000000    0.66666667    0.29347826 T T T
    0.33333333    0.66666667    0.29347826 T T T
    0.66666667    0.66666667    0.29347826 T T T
    0.22222222    0.22222222    0.29891304 T T T
    0.55555556    0.22222222    0.29891304 T T T
    0.88888889    0.22222222    0.29891304 T T T
    0.22222222    0.55555556    0.29891304 T T T
    0.55555556    0.55555556    0.29891304 T T T
    0.88888889    0.55555556    0.29891304 T T T
    0.22222222    0.88888889    0.29891304 T T T
    0.55555556    0.88888889    0.29891304 T T T
    0.88888889    0.88888889    0.29891304 T T T
    0.11111111    0.11111111    0.30434783 T T T
    0.44444444    0.11111111    0.30434783 T T T
    0.77777778    0.11111111    0.30434783 T T T
    0.11111111    0.44444444    0.30434783 T T T
    0.44444444    0.44444444    0.30434783 T T T
    0.77777778    0.44444444    0.30434783 T T T
    0.11111111    0.77777778    0.30434783 T T T
    0.44444444    0.77777778    0.30434783 T T T
    0.77777778    0.77777778    0.30434783 T T T
    0.00000000    0.00000000    0.30978261 T T T
    0.33333333    0.00000000    0.30978261 T T T
    0.66666667    0.00000000    0.30978261 T T T
    0.00000000    0.33333333    0.30978261 T T T
    0.33333333    0.33333333    0.30978261 T T T
    0.66666667    0.33333333    0.30978261 T T T
    0.00000000    0.66666667    0.30978261 T T T
    0.33333333    0.66666667    0.30978261 T T T
    0.66666667    0.66666667    0.30978261 T T T
    0.22222222    0.22222222    0.31521739 T T T
    0.55555556    0.22222222    0.31521739 T T T
    0.88888889    0.22222222    0.31521739 T T T
    0.22222222    0.55555556    0.31521739 T T T
    0.55555556    0.55555556    0.31521739 T T T
    0.88888889    0.55555556    0.31521739 T T T
    0.22222222    0.88888889    0.31521739 T T T
    0.55555556    0.88888889    0.31521739 T T T
    0.88888889    0.88888889    0.31521739 T T T
    0.11111111    0.11111111    0.32065217 T T T
    0.44444444    0.11111111    0.32065217 T T T
    0.77777778    0.11111111    0.32065217 T T T
    0.11111111    0.44444444    0.32065217 T T T
    0.44444444    0.44444444    0.32065217 T T T
    0.77777778    0.44444444    0.32065217 T T T
    0.11111111    0.77777778    0.32065217 T T T
    0.44444444    0.77777778    0.32065217 T T T
    0.77777778    0.77777778    0.32065217 T T T
    0.00000000    0.00000000    0.32608696 T T T
    0.33333333    0.00000000    0.32608696 T T T
    0.66666667    0.00000000    0.32608696 T T T
    0.00000000    0.33333333    0.32608696 T T T
    0.33333333    0.33333333    0.32608696 T T T
    0.66666667    0.33333333    0.32608696 T T T
    0.00000000    0.66666667    0.32608696 T T T
    0.33333333    0.66666667    0.32608696 T T T
    0.66666667    0.66666667    0.32608696 T T T
    0.22222222    0.22222222    0.33152174 T T T
    0.55555556    0.22222222    0.33152174 T T T
    0.88888889    0.22222222    0.33152174 T T T
    0.22222222    0.55555556    0.33152174 T T T
    0.55555556    0.55555556    0.33152174 T T T
    0.88888889    0.55555556    0.33152174 T T T
    0.22222222    0.88888889    0.33152174 T T T
    0.55555556    0.88888889    0.33152174 T T T
    0.88888889    0.88888889    0.33152174 T T T
    0.11111111    0.11111111    0.33695652 T T T
    0.44444444    0.11111111    0.33695652 T T T
    0.77777778    0.11111111    0.33695652 T T T
    0.11111111    0.44444444    0.33695652 T T T
    0.44444444    0.44444444    0.33695652 T T T
    0.77777778    0.44444444    0.33695652 T T T
    0.11111111    0.77777778    0.33695652 T T T
    0.44444444    0.77777778    0.33695652 T T T
    0.77777778    0.77777778    0.33695652 T T T
    0.00000000    0.00000000    0.34239130 T T T
    0.33333333    0.00000000    0.34239130 T T T
    0.66666667    0.00000000    0.34239130 T T T
    0.00000000    0.33333333    0.34239130 T T T
    0.33333333    0.33333333    0.34239130 T T T
    0.66666667    0.33333333    0.34239130 T T T
    0.00000000    0.66666667    0.34239130 T T T
    0.33333333    0.66666667    0.34239130 T T T
    0.66666667    0.66666667    0.34239130 T T T
    0.22222222    0.22222222    0.34782609 T T T
    0.55555556    0.22222222    0.34782609 T T T
    0.88888889    0.22222222    0.34782609 T T T
    0.22222222    0.55555556    0.34782609 T T T
    0.55555556    0.55555556    0.34782609 T T T
    0.88888889    0.55555556    0.34782609 T T T
    0.22222222    0.88888889    0.34782609 T T T
    0.55555556    0.88888889    0.34782609 T T T
    0.88888889    0.88888889    0.34782609 T T T
    0.11111111    0.11111111    0.35326087 T T T
    0.44444444    0.11111111    0.35326087 T T T
    0.77777778    0.11111111    0.35326087 T T T
    0.11111111    0.44444444    0.35326087 T T T
    0.44444444    0.44444444    0.35326087 T T T
    0.77777778    0.44444444    0.35326087 T T T
    0.11111111    0.77777778    0.35326087 T T T
    0.44444444    0.77777778    0.35326087 T T T
    0.77777778    0.77777778    0.35326087 T T T
    0.00000000    0.00000000    0.35869565 T T T
    0.33333333    0.00000000    0.35869565 T T T
    0.66666667    0.00000000    0.35869565 T T T
    0.00000000    0.33333333    0.35869565 T T T
    0.33333333    0.33333333    0.35869565 T T T
    0.66666667    0.33333333    0.35869565 T T T
    0.00000000    0.66666667    0.35869565 T T T
    0.33333333    0.66666667    0.35869565 T T T
    0.66666667    0.66666667    0.35869565 T T T
    0.22222222    0.22222222    0.36413043 T T T
    0.55555556    0.22222222    0.36413043 T T T
    0.88888889    0.22222222    0.36413043 T T T
    0.22222222    0.55555556    0.36413043 T T T
    0.55555556    0.55555556    0.36413043 T T T
    0.88888889    0.55555556    0.36413043 T T T
    0.22222222    0.88888889    0.36413043 T T T
    0.55555556    0.88888889    0.36413043 T T T
    0.88888889    0.88888889    0.36413043 T T T
    0.11111111    0.11111111    0.36956522 T T T
    0.44444444    0.11111111    0.36956522 T T T
    0.77777778    0.11111111    0.36956522 T T T
    0.11111111    0.44444444    0.36956522 T T T
    0.44444444    0.44444444    0.36956522 T T T
    0.77777778    0.44444444    0.36956522 T T T
    0.11111111    0.77777778    0.36956522 T T T
    0.44444444    0.77777778    0.36956522 T T T
    0.77777778    0.77777778    0.36956522 T T T
    0.00000000    0.00000000    0.37500000 T T T
    0.33333333    0.00000000    0.37500000 T T T
    0.66666667    0.00000000    0.37500000 T T T
    0.00000000    0.33333333    0.37500000 T T T
    0.33333333    0.33333333    0.37500000 T T T
    0.66666667    0.33333333    0.37500000 T T T
    0.00000000    0.66666667    0.37500000 T T T
    0.33333333    0.66666667    0.37500000 T T T
    0.66666667    0.66666667    0.37500000 T T T
    0.22222222    0.22222222    0.38043478 T T T
    0.55555556    0.22222222    0.38043478 T T T
    0.88888889    0.22222222    0.38043478 T T T
    0.22222222    0.55555556    0.38043478 T T T
    0.55555556    0.55555556    0.38043478 T T T
    0.88888889    0.55555556    0.38043478 T T T
    0.22222222    0.88888889    0.38043478 T T T
    0.55555556    0.88888889    0.38043478 T T T
    0.88888889    0.88888889    0.38043478 T T T
    0.11111111    0.11111111    0.38586957 T T T
    0.44444444    0.11111111    0.38586957 T T T
    0.77777778    0.11111111    0.38586957 T T T
    0.11111111    0.44444444    0.38586957 T T T
    0.44444444    0.44444444    0.38586957 T T T
    0.77777778    0.44444444    0.38586957 T T T
    0.11111111    0.77777778    0.38586957 T T T
    0.44444444    0.77777778    0.38586957 T T T
    0.77777778    0.77777778    0.38586957 T T T
    0.00000000    0.00000000    0.39130435 T T T
    0.33333333    0.00000000    0.39130435 T T T
    0.66666667    0.00000000    0.39130435 T T T
    0.00000000    0.33333333    0.39130435 T T T
    0.33333333    0.33333333    0.39130435 T T T
    0.66666667    0.33333333    0.39130435 T T T
    0.00000000    0.66666667    0.39130435 T T T
    0.33333333    0.66666667    0.39130435 T T T
    0.66666667    0.66666667    0.39130435 T T T
    0.22222222    0.22222222    0.39673913 T T T
    0.55555556    0.22222222    0.39673913 T T T
    0.88888889    0.22222222    0.39673913 T T T
    0.22222222    0.55555556    0.39673913 T T T
    0.55555556    0.55555556    0.39673913 T T T
    0.88888889    0.55555556    0.39673913 T T T
    0.22222222    0.88888889    0.39673913 T T T
    0.55555556    0.88888889    0.39673913 T T T
    0.88888889    0.88888889    0.39673913 T T T
    0.11111111    0.11111111    0.40217391 T T T
    0.44444444    0.11111111    0.40217391 T T T
    0.77777778    0.11111111    0.40217391 T T T
    0.11111111    0.44444444    0.40217391 T T T
    0.44444444    0.44444444    0.40217391 T T T
    0.77777778    0.44444444    0.40217391 T T T
    0.11111111    0.77777778    0.40217391 T T T
    0.44444444    0.77777778    0.40217391 T T T
    0.77777778    0.77777778    0.40217391 T T T
    0.00000000    0.00000000    0.40760870 T T T
    0.33333333    0.00000000    0.40760870 T T T
    0.66666667    0.00000000    0.40760870 T T T
    0.00000000    0.33333333    0.40760870 T T T
    0.33333333    0.33333333    0.40760870 T T T
    0.66666667    0.33333333    0.40760870 T T T
    0.00000000    0.66666667    0.40760870 T T T
    0.33333333    0.66666667    0.40760870 T T T
    0.66666667    0.66666667    0.40760870 T T T
    0.22222222    0.22222222    0.41304348 T T T
    0.55555556    0.22222222    0.41304348 T T T
    0.88888889    0.22222222    0.41304348 T T T
    0.22222222    0.55555556    0.41304348 T T T
    0.55555556    0.55555556    0.41304348 T T T
    0.88888889    0.55555556    0.41304348 T T T
    0.22222222    0.88888889    0.41304348 T T T
    0.55555556    0.88888889    0.41304348 T T T
    0.88888889    0.88888889    0.41304348 T T T
    0.11111111    0.11111111    0.41847826 T T T
    0.44444444    0.11111111    0.41847826 T T T
    0.77777778    0.11111111    0.41847826 T T T
    0.11111111    0.44444444    0.41847826 T T T
    0.44444444    0.44444444    0.41847826 T T T
    0.77777778    0.44444444    0.41847826 T T T
    0.11111111    0.77777778    0.41847826 T T T
    0.44444444    0.77777778    0.41847826 T T T
    0.77777778    0.77777778    0.41847826 T T T
    0.00000000    0.00000000    0.42391304 T T T
    0.33333333    0.00000000    0.42391304 T T T
    0.66666667    0.00000000    0.42391304 T T T
    0.00000000    0.33333333    0.42391304 T T T
    0.33333333    0.33333333    0.42391304 T T T
    0.66666667    0.33333333    0.42391304 T T T
    0.00000000    0.66666667    0.42391304 T T T
    0.33333333    0.66666667    0.42391304 T T T
    0.66666667    0.66666667    0.42391304 T T T
    0.22222222    0.22222222    0.42934783 T T T
    0.55555556    0.22222222    0.42934783 T T T
    0.88888889    0.22222222    0.42934783 T T T
    0.22222222    0.55555556    0.42934783 T T T
    0.55555556    0.55555556    0.42934783 T T T
    0.88888889    0.55555556    0.42934783 T T T
    0.22222222    0.88888889    0.42934783 T T T
    0.55555556    0.88888889    0.42934783 T T T
    0.88888889    0.88888889    0.42934783 T T T
    0.11111111    0.11111111    0.43478261 T T T
    0.44444444    0.11111111    0.43478261 T T T
    0.77777778    0.11111111    0.43478261 T T T
    0.11111111    0.44444444    0.43478261 T T T
    0.44444444    0.44444444    0.43478261 T T T
    0.77777778    0.44444444    0.43478261 T T T
    0.11111111    0.77777778    0.43478261 T T T
    0.44444444    0.77777778    0.43478261 T T T
    0.77777778    0.77777778    0.43478261 T T T
    0.00000000    0.00000000    0.44021739 T T T
    0.33333333    0.00000000    0.44021739 T T T
    0.66666667    0.00000000    0.44021739 T T T
    0.00000000    0.33333333    0.44021739 T T T
    0.33333333    0.33333333    0.44021739 T T T
    0.66666667    0.33333333    0.44021739 T T T
    0.00000000    0.66666667    0.44021739 T T T
    0.33333333    0.66666667    0.44021739 T T T
    0.66666667    0.66666667    0.44021739 T T T
    0.22222222    0.22222222    0.44565217 T T T
    0.55555556    0.22222222    0.44565217 T T T
    0.88888889    0.22222222    0.44565217 T T T
    0.22222222    0.55555556    0.44565217 T T T
    0.55555556    0.55555556    0.44565217 T T T
    0.88888889    0.55555556    0.44565217 T T T
    0.22222222    0.88888889    0.44565217 T T T
    0.55555556    0.88888889    0.44565217 T T T
    0.88888889    0.88888889    0.44565217 T T T
    0.11111111    0.11111111    0.45108696 T T T
    0.44444444    0.11111111    0.45108696 T T T
    0.77777778    0.11111111    0.45108696 T T T
    0.11111111    0.44444444    0.45108696 T T T
    0.44444444    0.44444444    0.45108696 T T T
    0.77777778    0.44444444    0.45108696 T T T
    0.11111111    0.77777778    0.45108696 T T T
    0.44444444    0.77777778    0.45108696 T T T
    0.77777778    0.77777778    0.45108696 T T T
    0.00000000    0.00000000    0.45652174 T T T
    0.33333333    0.00000000    0.45652174 T T T
    0.66666667    0.00000000    0.45652174 T T T
    0.00000000    0.33333333    0.45652174 T T T
    0.33333333    0.33333333    0.45652174 T T T
    0.66666667    0.33333333    0.45652174 T T T
    0.00000000    0.66666667    0.45652174 T T T
    0.33333333    0.66666667    0.45652174 T T T
    0.66666667    0.66666667    0.45652174 T T T
    0.22222222    0.22222222    0.46195652 T T T
    0.55555556    0.22222222    0.46195652 T T T
    0.88888889    0.22222222    0.46195652 T T T
    0.22222222    0.55555556    0.46195652 T T T
    0.55555556    0.55555556    0.46195652 T T T
    0.88888889    0.55555556    0.46195652 T T T
    0.22222222    0.88888889    0.46195652 T T T
    0.55555556    0.88888889    0.46195652 T T T
    0.88888889    0.88888889    0.46195652 T T T
    0.11111111    0.11111111    0.46739130 T T T
    0.44444444    0.11111111    0.46739130 T T T
    0.77777778    0.11111111    0.46739130 T T T
    0.11111111    0.44444444    0.46739130 T T T
    0.44444444    0.44444444    0.46739130 T T T
    0.77777778    0.44444444    0.46739130 T T T
    0.11111111    0.77777778    0.46739130 T T T
    0.44444444    0.77777778    0.46739130 T T T
    0.77777778    0.77777778    0.46739130 T T T
    0.00000000    0.00000000    0.47282609 T T T
    0.33333333    0.00000000    0.47282609 T T T
    0.66666667    0.00000000    0.47282609 T T T
    0.00000000    0.33333333    0.47282609 T T T
    0.33333333    0.33333333    0.47282609 T T T
    0.66666667    0.33333333    0.47282609 T T T
    0.00000000    0.66666667    0.47282609 T T T
    0.33333333    0.66666667    0.47282609 T T T
    0.66666667    0.66666667    0.47282609 T T T
    0.22222222    0.22222222    0.47826087 T T T
    0.55555556    0.22222222    0.47826087 T T T
    0.88888889    0.22222222    0.47826087 T T T
    0.22222222    0.55555556    0.47826087 T T T
    0.55555556    0.55555556    0.47826087 T T T
    0.88888889    0.55555556    0.47826087 T T T
    0.22222222    0.88888889    0.47826087 T T T
    0.55555556    0.88888889    0.47826087 T T T
    0.88888889    0.88888889    0.47826087 T T T
    0.11111111    0.11111111    0.48369565 T T T
    0.44444444    0.11111111    0.48369565 T T T
    0.77777778    0.11111111    0.48369565 T T T
    0.11111111    0.44444444    0.48369565 T T T
    0.44444444    0.44444444    0.48369565 T T T
    0.77777778    0.44444444    0.48369565 T T T
    0.11111111    0.77777778    0.48369565 T T T
    0.44444444    0.77777778    0.48369565 T T T
    0.77777778    0.77777778    0.48369565 T T T
    0.00000000    0.00000000    0.48913043 T T T
    0.33333333    0.00000000    0.48913043 T T T
    0.66666667    0.00000000    0.48913043 T T T
    0.00000000    0.33333333    0.48913043 T T T
    0.33333333    0.33333333    0.48913043 T T T
    0.66666667    0.33333333    0.48913043 T T T
    0.00000000    0.66666667    0.48913043 T T T
    0.33333333    0.66666667    0.48913043 T T T
    0.66666667    0.66666667    0.48913043 T T T
    0.22222222    0.22222222    0.49456522 T T T
    0.55555556    0.22222222    0.49456522 T T T
    0.88888889    0.22222222    0.49456522 T T T
    0.22222222    0.55555556    0.49456522 T T T
    0.55555556    0.55555556    0.49456522 T T T
    0.88888889    0.55555556    0.49456522 T T T
    0.22222222    0.88888889    0.49456522 T T T
    0.55555556    0.88888889    0.49456522 T T T
    0.88888889    0.88888889    0.49456522 T T T
    0.00000000    0.00000000    0.50000000 T T T
    0.33333333    0.00000000    0.50000000 T T T
    0.66666667    0.00000000    0.50000000 T T T
    0.00000000    0.33333333    0.50000000 T T T
    0.33333333    0.33333333    0.50000000 T T T
    0.66666667    0.33333333    0.50000000 T T T
    0.00000000    0.66666667    0.50000000 T T T
    0.33333333    0.66666667    0.50000000 T T T
    0.66666667    0.66666667    0.50000000 T T T
    0.11111111    0.11111111    0.50543478 T T T
    0.44444444    0.11111111    0.50543478 T T T
    0.77777778    0.11111111    0.50543478 T T T
    0.11111111    0.44444444    0.50543478 T T T
    0.44444444    0.44444444    0.50543478 T T T
    0.77777778    0.44444444    0.50543478 T T T
    0.11111111    0.77777778    0.50543478 T T T
    0.44444444    0.77777778    0.50543478 T T T
    0.77777778    0.77777778    0.50543478 T T T
    0.22222222    0.22222222    0.51086957 T T T
    0.55555556    0.22222222    0.51086957 T T T
    0.88888889    0.22222222    0.51086957 T T T
    0.22222222    0.55555556    0.51086957 T T T
    0.55555556    0.55555556    0.51086957 T T T
    0.88888889    0.55555556    0.51086957 T T T
    0.22222222    0.88888889    0.51086957 T T T
    0.55555556    0.88888889    0.51086957 T T T
    0.88888889    0.88888889    0.51086957 T T T
    0.00000000    0.00000000    0.51630435 T T T
    0.33333333    0.00000000    0.51630435 T T T
    0.66666667    0.00000000    0.51630435 T T T
    0.00000000    0.33333333    0.51630435 T T T
    0.33333333    0.33333333    0.51630435 T T T
    0.66666667    0.33333333    0.51630435 T T T
    0.00000000    0.66666667    0.51630435 T T T
    0.33333333    0.66666667    0.51630435 T T T
    0.66666667    0.66666667    0.51630435 T T T
    0.11111111    0.11111111    0.52173913 T T T
    0.44444444    0.11111111    0.52173913 T T T
    0.77777778    0.11111111    0.52173913 T T T
    0.11111111    0.44444444    0.52173913 T T T
    0.44444444    0.44444444    0.52173913 T T T
    0.77777778    0.44444444    0.52173913 T T T
    0.11111111    0.77777778    0.52173913 T T T
    0.44444444    0.77777778    0.52173913 T T T
    0.77777778    0.77777778    0.52173913 T T T
    0.22222222    0.22222222    0.52717391 T T T
    0.55555556    0.22222222    0.52717391 T T T
    0.88888889    0.22222222    0.52717391 T T T
    0.22222222    0.55555556    0.52717391 T T T
    0.55555556    0.55555556    0.52717391 T T T
    0.88888889    0.55555556    0.52717391 T T T
    0.22222222    0.88888889    0.52717391 T T T
    0.55555556    0.88888889    0.52717391 T T T
    0.88888889    0.88888889    0.52717391 T T T
    0.00000000    0.00000000    0.53260870 T T T
    0.33333333    0.00000000    0.53260870 T T T
    0.66666667    0.00000000    0.53260870 T T T
    0.00000000    0.33333333    0.53260870 T T T
    0.33333333    0.33333333    0.53260870 T T T
    0.66666667    0.33333333    0.53260870 T T T
    0.00000000    0.66666667    0.53260870 T T T
    0.33333333    0.66666667    0.53260870 T T T
    0.66666667    0.66666667    0.53260870 T T T
    0.11111111    0.11111111    0.53804348 T T T
    0.44444444    0.11111111    0.53804348 T T T
    0.77777778    0.11111111    0.53804348 T T T
    0.11111111    0.44444444    0.53804348 T T T
    0.44444444    0.44444444    0.53804348 T T T
    0.77777778    0.44444444    0.53804348 T T T
    0.11111111    0.77777778    0.53804348 T T T
    0.44444444    0.77777778    0.53804348 T T T
    0.77777778    0.77777778    0.53804348 T T T
    0.22222222    0.22222222    0.54347826 T T T
    0.55555556    0.22222222    0.54347826 T T T
    0.88888889    0.22222222    0.54347826 T T T
    0.22222222    0.55555556    0.54347826 T T T
    0.55555556    0.55555556    0.54347826 T T T
    0.88888889    0.55555556    0.54347826 T T T
    0.22222222    0.88888889    0.54347826 T T T
    0.55555556    0.88888889    0.54347826 T T T
    0.88888889    0.88888889    0.54347826 T T T
    0.00000000    0.00000000    0.54891304 T T T
    0.33333333    0.00000000    0.54891304 T T T
    0.66666667    0.00000000    0.54891304 T T T
    0.00000000    0.33333333    0.54891304 T T T
    0.33333333    0.33333333    0.54891304 T T T
    0.66666667    0.33333333    0.54891304 T T T
    0.00000000    0.66666667    0.54891304 T T T
    0.33333333    0.66666667    0.54891304 T T T
    0.66666667    0.66666667    0.54891304 T T T
    0.11111111    0.11111111    0.55434783 T T T
    0.44444444    0.11111111    0.55434783 T T T
    0.77777778    0.11111111    0.55434783 T T T
    0.11111111    0.44444444    0.55434783 T T T
    0.44444444    0.44444444    0.55434783 T T T
    0.77777778    0.44444444    0.55434783 T T T
    0.11111111    0.77777778    0.55434783 T T T
    0.44444444    0.77777778    0.55434783 T T T
    0.77777778    0.77777778    0.55434783 T T T
    0.22222222    0.22222222    0.55978261 T T T
    0.55555556    0.22222222    0.55978261 T T T
    0.88888889    0.22222222    0.55978261 T T T
    0.22222222    0.55555556    0.55978261 T T T
    0.55555556    0.55555556    0.55978261 T T T
    0.88888889    0.55555556    0.55978261 T T T
    0.22222222    0.88888889    0.55978261 T T T
    0.55555556    0.88888889    0.55978261 T T T
    0.88888889    0.88888889    0.55978261 T T T
    0.00000000    0.00000000    0.56521739 T T T
    0.33333333    0.00000000    0.56521739 T T T
    0.66666667    0.00000000    0.56521739 T T T
    0.00000000    0.33333333    0.56521739 T T T
    0.33333333    0.33333333    0.56521739 T T T
    0.66666667    0.33333333    0.56521739 T T T
    0.00000000    0.66666667    0.56521739 T T T
    0.33333333    0.66666667    0.56521739 T T T
    0.66666667    0.66666667    0.56521739 T T T
    0.11111111    0.11111111    0.57065217 T T T
    0.44444444    0.11111111    0.57065217 T T T
    0.77777778    0.11111111    0.57065217 T T T
    0.11111111    0.44444444    0.57065217 T T T
    0.44444444    0.44444444    0.57065217 T T T
    0.77777778    0.44444444    0.57065217 T T T
    0.11111111    0.77777778    0.57065217 T T T
    0.44444444    0.77777778    0.57065217 T T T
    0.77777778    0.77777778    0.57065217 T T T
    0.22222222    0.22222222    0.57608696 T T T
    0.55555556    0.22222222    0.57608696 T T T
    0.88888889    0.22222222    0.57608696 T T T
    0.22222222    0.55555556    0.57608696 T T T
    0.55555556    0.55555556    0.57608696 T T T
    0.88888889    0.55555556    0.57608696 T T T
    0.22222222    0.88888889    0.57608696 T T T
    0.55555556    0.88888889    0.57608696 T T T
    0.88888889    0.88888889    0.57608696 T T T
    0.00000000    0.00000000    0.58152174 T T T
    0.33333333    0.00000000    0.58152174 T T T
    0.66666667    0.00000000    0.58152174 T T T
    0.00000000    0.33333333    0.58152174 T T T
    0.33333333    0.33333333    0.58152174 T T T
    0.66666667    0.33333333    0.58152174 T T T
    0.00000000    0.66666667    0.58152174 T T T
    0.33333333    0.66666667    0.58152174 T T T
    0.66666667    0.66666667    0.58152174 T T T
    0.11111111    0.11111111    0.58695652 T T T
    0.44444444    0.11111111    0.58695652 T T T
    0.77777778    0.11111111    0.58695652 T T T
    0.11111111    0.44444444    0.58695652 T T T
    0.44444444    0.44444444    0.58695652 T T T
    0.77777778    0.44444444    0.58695652 T T T
    0.11111111    0.77777778    0.58695652 T T T
    0.44444444    0.77777778    0.58695652 T T T
    0.77777778    0.77777778    0.58695652 T T T
    0.22222222    0.22222222    0.59239130 T T T
    0.55555556    0.22222222    0.59239130 T T T
    0.88888889    0.22222222    0.59239130 T T T
    0.22222222    0.55555556    0.59239130 T T T
    0.55555556    0.55555556    0.59239130 T T T
    0.88888889    0.55555556    0.59239130 T T T
    0.22222222    0.88888889    0.59239130 T T T
    0.55555556    0.88888889    0.59239130 T T T
    0.88888889    0.88888889    0.59239130 T T T
    0.00000000    0.00000000    0.59782609 T T T
    0.33333333    0.00000000    0.59782609 T T T
    0.66666667    0.00000000    0.59782609 T T T
    0.00000000    0.33333333    0.59782609 T T T
    0.33333333    0.33333333    0.59782609 T T T
    0.66666667    0.33333333    0.59782609 T T T
    0.00000000    0.66666667    0.59782609 T T T
    0.33333333    0.66666667    0.59782609 T T T
    0.66666667    0.66666667    0.59782609 T T T
    0.11111111    0.11111111    0.60326087 T T T
    0.44444444    0.11111111    0.60326087 T T T
    0.77777778    0.11111111    0.60326087 T T T
    0.11111111    0.44444444    0.60326087 T T T
    0.44444444    0.44444444    0.60326087 T T T
    0.77777778    0.44444444    0.60326087 T T T
    0.11111111    0.77777778    0.60326087 T T T
    0.44444444    0.77777778    0.60326087 T T T
    0.77777778    0.77777778    0.60326087 T T T
    0.22222222    0.22222222    0.60869565 T T T
    0.55555556    0.22222222    0.60869565 T T T
    0.88888889    0.22222222    0.60869565 T T T
    0.22222222    0.55555556    0.60869565 T T T
    0.55555556    0.55555556    0.60869565 T T T
    0.88888889    0.55555556    0.60869565 T T T
    0.22222222    0.88888889    0.60869565 T T T
    0.55555556    0.88888889    0.60869565 T T T
    0.88888889    0.88888889    0.60869565 T T T
    0.00000000    0.00000000    0.61413043 T T T
    0.33333333    0.00000000    0.61413043 T T T
    0.66666667    0.00000000    0.61413043 T T T
    0.00000000    0.33333333    0.61413043 T T T
    0.33333333    0.33333333    0.61413043 T T T
    0.66666667    0.33333333    0.61413043 T T T
    0.00000000    0.66666667    0.61413043 T T T
    0.33333333    0.66666667    0.61413043 T T T
    0.66666667    0.66666667    0.61413043 T T T
    0.11111111    0.11111111    0.61956522 T T T
    0.44444444    0.11111111    0.61956522 T T T
    0.77777778    0.11111111    0.61956522 T T T
    0.11111111    0.44444444    0.61956522 T T T
    0.44444444    0.44444444    0.61956522 T T T
    0.77777778    0.44444444    0.61956522 T T T
    0.11111111    0.77777778    0.61956522 T T T
    0.44444444    0.77777778    0.61956522 T T T
    0.77777778    0.77777778    0.61956522 T T T
    0.22222222    0.22222222    0.62500000 T T T
    0.55555556    0.22222222    0.62500000 T T T
    0.88888889    0.22222222    0.62500000 T T T
    0.22222222    0.55555556    0.62500000 T T T
    0.55555556    0.55555556    0.62500000 T T T
    0.88888889    0.55555556    0.62500000 T T T
    0.22222222    0.88888889    0.62500000 T T T
    0.55555556    0.88888889    0.62500000 T T T
    0.88888889    0.88888889    0.62500000 T T T
    0.00000000    0.00000000    0.63043478 T T T
    0.33333333    0.00000000    0.63043478 T T T
    0.66666667    0.00000000    0.63043478 T T T
    0.00000000    0.33333333    0.63043478 T T T
    0.33333333    0.33333333    0.63043478 T T T
    0.66666667    0.33333333    0.63043478 T T T
    0.00000000    0.66666667    0.63043478 T T T
    0.33333333    0.66666667    0.63043478 T T T
    0.66666667    0.66666667    0.63043478 T T T
    0.11111111    0.11111111    0.63586957 T T T
    0.44444444    0.11111111    0.63586957 T T T
    0.77777778    0.11111111    0.63586957 T T T
    0.11111111    0.44444444    0.63586957 T T T
    0.44444444    0.44444444    0.63586957 T T T
    0.77777778    0.44444444    0.63586957 T T T
    0.11111111    0.77777778    0.63586957 T T T
    0.44444444    0.77777778    0.63586957 T T T
    0.77777778    0.77777778    0.63586957 T T T
    0.22222222    0.22222222    0.64130435 T T T
    0.55555556    0.22222222    0.64130435 T T T
    0.88888889    0.22222222    0.64130435 T T T
    0.22222222    0.55555556    0.64130435 T T T
    0.55555556    0.55555556    0.64130435 T T T
    0.88888889    0.55555556    0.64130435 T T T
    0.22222222    0.88888889    0.64130435 T T T
    0.55555556    0.88888889    0.64130435 T T T
    0.88888889    0.88888889    0.64130435 T T T
    0.00000000    0.00000000    0.64673913 T T T
    0.33333333    0.00000000    0.64673913 T T T
    0.66666667    0.00000000    0.64673913 T T T
    0.00000000    0.33333333    0.64673913 T T T
    0.33333333    0.33333333    0.64673913 T T T
    0.66666667    0.33333333    0.64673913 T T T
    0.00000000    0.66666667    0.64673913 T T T
    0.33333333    0.66666667    0.64673913 T T T
    0.66666667    0.66666667    0.64673913 T T T
    0.11111111    0.11111111    0.65217391 T T T
    0.44444444    0.11111111    0.65217391 T T T
    0.77777778    0.11111111    0.65217391 T T T
    0.11111111    0.44444444    0.65217391 T T T
    0.44444444    0.44444444    0.65217391 T T T
    0.77777778    0.44444444    0.65217391 T T T
    0.11111111    0.77777778    0.65217391 T T T
    0.44444444    0.77777778    0.65217391 T T T
    0.77777778    0.77777778    0.65217391 T T T
    0.22222222    0.22222222    0.65760870 T T T
    0.55555556    0.22222222    0.65760870 T T T
    0.88888889    0.22222222    0.65760870 T T T
    0.22222222    0.55555556    0.65760870 T T T
    0.55555556    0.55555556    0.65760870 T T T
    0.88888889    0.55555556    0.65760870 T T T
    0.22222222    0.88888889    0.65760870 T T T
    0.55555556    0.88888889    0.65760870 T T T
    0.88888889    0.88888889    0.65760870 T T T
    0.00000000    0.00000000    0.66304348 T T T
    0.33333333    0.00000000    0.66304348 T T T
    0.66666667    0.00000000    0.66304348 T T T
    0.00000000    0.33333333    0.66304348 T T T
    0.33333333    0.33333333    0.66304348 T T T
    0.66666667    0.33333333    0.66304348 T T T
    0.00000000    0.66666667    0.66304348 T T T
    0.33333333    0.66666667    0.66304348 T T T
    0.66666667    0.66666667    0.66304348 T T T
    0.11111111    0.11111111    0.66847826 T T T
    0.44444444    0.11111111    0.66847826 T T T
    0.77777778    0.11111111    0.66847826 T T T
    0.11111111    0.44444444    0.66847826 T T T
    0.44444444    0.44444444    0.66847826 T T T
    0.77777778    0.44444444    0.66847826 T T T
    0.11111111    0.77777778    0.66847826 T T T
    0.44444444    0.77777778    0.66847826 T T T
    0.77777778    0.77777778    0.66847826 T T T
    0.22222222    0.22222222    0.67391304 T T T
    0.55555556    0.22222222    0.67391304 T T T
    0.88888889    0.22222222    0.67391304 T T T
    0.22222222    0.55555556    0.67391304 T T T
    0.55555556    0.55555556    0.67391304 T T T
    0.88888889    0.55555556    0.67391304 T T T
    0.22222222    0.88888889    0.67391304 T T T
    0.55555556    0.88888889    0.67391304 T T T
    0.88888889    0.88888889    0.67391304 T T T
    0.00000000    0.00000000    0.67934783 T T T
    0.33333333    0.00000000    0.67934783 T T T
    0.66666667    0.00000000    0.67934783 T T T
    0.00000000    0.33333333    0.67934783 T T T
    0.33333333    0.33333333    0.67934783 T T T
    0.66666667    0.33333333    0.67934783 T T T
    0.00000000    0.66666667    0.67934783 T T T
    0.33333333    0.66666667    0.67934783 T T T
    0.66666667    0.66666667    0.67934783 T T T
    0.11111111    0.11111111    0.68478261 T T T
    0.44444444    0.11111111    0.68478261 T T T
    0.77777778    0.11111111    0.68478261 T T T
    0.11111111    0.44444444    0.68478261 T T T
    0.44444444    0.44444444    0.68478261 T T T
    0.77777778    0.44444444    0.68478261 T T T
    0.11111111    0.77777778    0.68478261 T T T
    0.44444444    0.77777778    0.68478261 T T T
    0.77777778    0.77777778    0.68478261 T T T
    0.22222222    0.22222222    0.69021739 T T T
    0.55555556    0.22222222    0.69021739 T T T
    0.88888889    0.22222222    0.69021739 T T T
    0.22222222    0.55555556    0.69021739 T T T
    0.55555556    0.55555556    0.69021739 T T T
    0.88888889    0.55555556    0.69021739 T T T
    0.22222222    0.88888889    0.69021739 T T T
    0.55555556    0.88888889    0.69021739 T T T
    0.88888889    0.88888889    0.69021739 T T T
    0.00000000    0.00000000    0.69565217 T T T
    0.33333333    0.00000000    0.69565217 T T T
    0.66666667    0.00000000    0.69565217 T T T
    0.00000000    0.33333333    0.69565217 T T T
    0.33333333    0.33333333    0.69565217 T T T
    0.66666667    0.33333333    0.69565217 T T T
    0.00000000    0.66666667    0.69565217 T T T
    0.33333333    0.66666667    0.69565217 T T T
    0.66666667    0.66666667    0.69565217 T T T
    0.11111111    0.11111111    0.70108696 T T T
    0.44444444    0.11111111    0.70108696 T T T
    0.77777778    0.11111111    0.70108696 T T T
    0.11111111    0.44444444    0.70108696 T T T
    0.44444444    0.44444444    0.70108696 T T T
    0.77777778    0.44444444    0.70108696 T T T
    0.11111111    0.77777778    0.70108696 T T T
    0.44444444    0.77777778    0.70108696 T T T
    0.77777778    0.77777778    0.70108696 T T T
    0.22222222    0.22222222    0.70652174 T T T
    0.55555556    0.22222222    0.70652174 T T T
    0.88888889    0.22222222    0.70652174 T T T
    0.22222222    0.55555556    0.70652174 T T T
    0.55555556    0.55555556    0.70652174 T T T
    0.88888889    0.55555556    0.70652174 T T T
    0.22222222    0.88888889    0.70652174 T T T
    0.55555556    0.88888889    0.70652174 T T T
    0.88888889    0.88888889    0.70652174 T T T
    0.00000000    0.00000000    0.71195652 T T T
    0.33333333    0.00000000    0.71195652 T T T
    0.66666667    0.00000000    0.71195652 T T T
    0.00000000    0.33333333    0.71195652 T T T
    0.33333333    0.33333333    0.71195652 T T T
    0.66666667    0.33333333    0.71195652 T T T
    0.00000000    0.66666667    0.71195652 T T T
    0.33333333    0.66666667    0.71195652 T T T
    0.66666667    0.66666667    0.71195652 T T T
    0.11111111    0.11111111    0.71739130 T T T
    0.44444444    0.11111111    0.71739130 T T T
    0.77777778    0.11111111    0.71739130 T T T
    0.11111111    0.44444444    0.71739130 T T T
    0.44444444    0.44444444    0.71739130 T T T
    0.77777778    0.44444444    0.71739130 T T T
    0.11111111    0.77777778    0.71739130 T T T
    0.44444444    0.77777778    0.71739130 T T T
    0.77777778    0.77777778    0.71739130 T T T
    0.22222222    0.22222222    0.72282609 T T T
    0.55555556    0.22222222    0.72282609 T T T
    0.88888889    0.22222222    0.72282609 T T T
    0.22222222    0.55555556    0.72282609 T T T
    0.55555556    0.55555556    0.72282609 T T T
    0.88888889    0.55555556    0.72282609 T T T
    0.22222222    0.88888889    0.72282609 T T T
    0.55555556    0.88888889    0.72282609 T T T
    0.88888889    0.88888889    0.72282609 T T T
    0.00000000    0.00000000    0.72826087 T T T
    0.33333333    0.00000000    0.72826087 T T T
    0.66666667    0.00000000    0.72826087 T T T
    0.00000000    0.33333333    0.72826087 T T T
    0.33333333    0.33333333    0.72826087 T T T
    0.66666667    0.33333333    0.72826087 T T T
    0.00000000    0.66666667    0.72826087 T T T
    0.33333333    0.66666667    0.72826087 T T T
    0.66666667    0.66666667    0.72826087 T T T
    0.11111111    0.11111111    0.73369565 T T T
    0.44444444    0.11111111    0.73369565 T T T
    0.77777778    0.11111111    0.73369565 T T T
    0.11111111    0.44444444    0.73369565 T T T
    0.44444444    0.44444444    0.73369565 T T T
    0.77777778    0.44444444    0.73369565 T T T
    0.11111111    0.77777778    0.73369565 T T T
    0.44444444    0.77777778    0.73369565 T T T
    0.77777778    0.77777778    0.73369565 T T T
    0.22222222    0.22222222    0.73913043 T T T
    0.55555556    0.22222222    0.73913043 T T T
    0.88888889    0.22222222    0.73913043 T T T
    0.22222222    0.55555556    0.73913043 T T T
    0.55555556    0.55555556    0.73913043 T T T
    0.88888889    0.55555556    0.73913043 T T T
    0.22222222    0.88888889    0.73913043 T T T
    0.55555556    0.88888889    0.73913043 T T T
    0.88888889    0.88888889    0.73913043 T T T
    0.00000000    0.00000000    0.74456522 T T T
    0.33333333    0.00000000    0.74456522 T T T
    0.66666667    0.00000000    0.74456522 T T T
    0.00000000    0.33333333    0.74456522 T T T
    0.33333333    0.33333333    0.74456522 T T T
    0.66666667    0.33333333    0.74456522 T T T
    0.00000000    0.66666667    0.74456522 T T T
    0.33333333    0.66666667    0.74456522 T T T
    0.66666667    0.66666667    0.74456522 T T T
    0.22222222    0.22222222    0.75000000 T T T
    0.55555556    0.22222222    0.75000000 T T T
    0.88888889    0.22222222    0.75000000 T T T
    0.22222222    0.55555556    0.75000000 T T T
    0.55555556    0.55555556    0.75000000 T T T
    0.88888889    0.55555556    0.75000000 T T T
    0.22222222    0.88888889    0.75000000 T T T
    0.55555556    0.88888889    0.75000000 T T T
    0.88888889    0.88888889    0.75000000 T T T
    0.11111111    0.11111111    0.75543478 T T T
    0.44444444    0.11111111    0.75543478 T T T
    0.77777778    0.11111111    0.75543478 T T T
    0.11111111    0.44444444    0.75543478 T T T
    0.44444444    0.44444444    0.75543478 T T T
    0.77777778    0.44444444    0.75543478 T T T
    0.11111111    0.77777778    0.75543478 T T T
    0.44444444    0.77777778    0.75543478 T T T
    0.77777778    0.77777778    0.75543478 T T T
    0.00000000    0.00000000    0.76086957 T T T
    0.33333333    0.00000000    0.76086957 T T T
    0.66666667    0.00000000    0.76086957 T T T
    0.00000000    0.33333333    0.76086957 T T T
    0.33333333    0.33333333    0.76086957 T T T
    0.66666667    0.33333333    0.76086957 T T T
    0.00000000    0.66666667    0.76086957 T T T
    0.33333333    0.66666667    0.76086957 T T T
    0.66666667    0.66666667    0.76086957 T T T
    0.22222222    0.22222222    0.76630435 T T T
    0.55555556    0.22222222    0.76630435 T T T
    0.88888889    0.22222222    0.76630435 T T T
    0.22222222    0.55555556    0.76630435 T T T
    0.55555556    0.55555556    0.76630435 T T T
    0.88888889    0.55555556    0.76630435 T T T
    0.22222222    0.88888889    0.76630435 T T T
    0.55555556    0.88888889    0.76630435 T T T
    0.88888889    0.88888889    0.76630435 T T T
    0.11111111    0.11111111    0.77173913 T T T
    0.44444444    0.11111111    0.77173913 T T T
    0.77777778    0.11111111    0.77173913 T T T
    0.11111111    0.44444444    0.77173913 T T T
    0.44444444    0.44444444    0.77173913 T T T
    0.77777778    0.44444444    0.77173913 T T T
    0.11111111    0.77777778    0.77173913 T T T
    0.44444444    0.77777778    0.77173913 T T T
    0.77777778    0.77777778    0.77173913 T T T
    0.00000000    0.00000000    0.77717391 T T T
    0.33333333    0.00000000    0.77717391 T T T
    0.66666667    0.00000000    0.77717391 T T T
    0.00000000    0.33333333    0.77717391 T T T
    0.33333333    0.33333333    0.77717391 T T T
    0.66666667    0.33333333    0.77717391 T T T
    0.00000000    0.66666667    0.77717391 T T T
    0.33333333    0.66666667    0.77717391 T T T
    0.66666667    0.66666667    0.77717391 T T T
    0.22222222    0.22222222    0.78260870 T T T
    0.55555556    0.22222222    0.78260870 T T T
    0.88888889    0.22222222    0.78260870 T T T
    0.22222222    0.55555556    0.78260870 T T T
    0.55555556    0.55555556    0.78260870 T T T
    0.88888889    0.55555556    0.78260870 T T T
    0.22222222    0.88888889    0.78260870 T T T
    0.55555556    0.88888889    0.78260870 T T T
    0.88888889    0.88888889    0.78260870 T T T
    0.11111111    0.11111111    0.78804348 T T T
    0.44444444    0.11111111    0.78804348 T T T
    0.77777778    0.11111111    0.78804348 T T T
    0.11111111    0.44444444    0.78804348 T T T
    0.44444444    0.44444444    0.78804348 T T T
    0.77777778    0.44444444    0.78804348 T T T
    0.11111111    0.77777778    0.78804348 T T T
    0.44444444    0.77777778    0.78804348 T T T
    0.77777778    0.77777778    0.78804348 T T T
    0.00000000    0.00000000    0.79347826 T T T
    0.33333333    0.00000000    0.79347826 T T T
    0.66666667    0.00000000    0.79347826 T T T
    0.00000000    0.33333333    0.79347826 T T T
    0.33333333    0.33333333    0.79347826 T T T
    0.66666667    0.33333333    0.79347826 T T T
    0.00000000    0.66666667    0.79347826 T T T
    0.33333333    0.66666667    0.79347826 T T T
    0.66666667    0.66666667    0.79347826 T T T
    0.22222222    0.22222222    0.79891304 T T T
    0.55555556    0.22222222    0.79891304 T T T
    0.88888889    0.22222222    0.79891304 T T T
    0.22222222    0.55555556    0.79891304 T T T
    0.55555556    0.55555556    0.79891304 T T T
    0.88888889    0.55555556    0.79891304 T T T
    0.22222222    0.88888889    0.79891304 T T T
    0.55555556    0.88888889    0.79891304 T T T
    0.88888889    0.88888889    0.79891304 T T T
    0.11111111    0.11111111    0.80434783 T T T
    0.44444444    0.11111111    0.80434783 T T T
    0.77777778    0.11111111    0.80434783 T T T
    0.11111111    0.44444444    0.80434783 T T T
    0.44444444    0.44444444    0.80434783 T T T
    0.77777778    0.44444444    0.80434783 T T T
    0.11111111    0.77777778    0.80434783 T T T
    0.44444444    0.77777778    0.80434783 T T T
    0.77777778    0.77777778    0.80434783 T T T
    0.00000000    0.00000000    0.80978261 T T T
    0.33333333    0.00000000    0.80978261 T T T
    0.66666667    0.00000000    0.80978261 T T T
    0.00000000    0.33333333    0.80978261 T T T
    0.33333333    0.33333333    0.80978261 T T T
    0.66666667    0.33333333    0.80978261 T T T
    0.00000000    0.66666667    0.80978261 T T T
    0.33333333    0.66666667    0.80978261 T T T
    0.66666667    0.66666667    0.80978261 T T T
    0.22222222    0.22222222    0.81521739 T T T
    0.55555556    0.22222222    0.81521739 T T T
    0.88888889    0.22222222    0.81521739 T T T
    0.22222222    0.55555556    0.81521739 T T T
    0.55555556    0.55555556    0.81521739 T T T
    0.88888889    0.55555556    0.81521739 T T T
    0.22222222    0.88888889    0.81521739 T T T
    0.55555556    0.88888889    0.81521739 T T T
    0.88888889    0.88888889    0.81521739 T T T
    0.11111111    0.11111111    0.82065217 T T T
    0.44444444    0.11111111    0.82065217 T T T
    0.77777778    0.11111111    0.82065217 T T T
    0.11111111    0.44444444    0.82065217 T T T
    0.44444444    0.44444444    0.82065217 T T T
    0.77777778    0.44444444    0.82065217 T T T
    0.11111111    0.77777778    0.82065217 T T T
    0.44444444    0.77777778    0.82065217 T T T
    0.77777778    0.77777778    0.82065217 T T T
    0.00000000    0.00000000    0.82608696 T T T
    0.33333333    0.00000000    0.82608696 T T T
    0.66666667    0.00000000    0.82608696 T T T
    0.00000000    0.33333333    0.82608696 T T T
    0.33333333    0.33333333    0.82608696 T T T
    0.66666667    0.33333333    0.82608696 T T T
    0.00000000    0.66666667    0.82608696 T T T
    0.33333333    0.66666667    0.82608696 T T T
    0.66666667    0.66666667    0.82608696 T T T
    0.22222222    0.22222222    0.83152174 T T T
    0.55555556    0.22222222    0.83152174 T T T
    0.88888889    0.22222222    0.83152174 T T T
    0.22222222    0.55555556    0.83152174 T T T
    0.55555556    0.55555556    0.83152174 T T T
    0.88888889    0.55555556    0.83152174 T T T
    0.22222222    0.88888889    0.83152174 T T T
    0.55555556    0.88888889    0.83152174 T T T
    0.88888889    0.88888889    0.83152174 T T T
    0.11111111    0.11111111    0.83695652 T T T
    0.44444444    0.11111111    0.83695652 T T T
    0.77777778    0.11111111    0.83695652 T T T
    0.11111111    0.44444444    0.83695652 T T T
    0.44444444    0.44444444    0.83695652 T T T
    0.77777778    0.44444444    0.83695652 T T T
    0.11111111    0.77777778    0.83695652 T T T
    0.44444444    0.77777778    0.83695652 T T T
    0.77777778    0.77777778    0.83695652 T T T
    0.00000000    0.00000000    0.84239130 T T T
    0.33333333    0.00000000    0.84239130 T T T
    0.66666667    0.00000000    0.84239130 T T T
    0.00000000    0.33333333    0.84239130 T T T
    0.33333333    0.33333333    0.84239130 T T T
    0.66666667    0.33333333    0.84239130 T T T
    0.00000000    0.66666667    0.84239130 T T T
    0.33333333    0.66666667    0.84239130 T T T
    0.66666667    0.66666667    0.84239130 T T T
    0.22222222    0.22222222    0.84782609 T T T
    0.55555556    0.22222222    0.84782609 T T T
    0.88888889    0.22222222    0.84782609 T T T
    0.22222222    0.55555556    0.84782609 T T T
    0.55555556    0.55555556    0.84782609 T T T
    0.88888889    0.55555556    0.84782609 T T T
    0.22222222    0.88888889    0.84782609 T T T
    0.55555556    0.88888889    0.84782609 T T T
    0.88888889    0.88888889    0.84782609 T T T
    0.11111111    0.11111111    0.85326087 T T T
    0.44444444    0.11111111    0.85326087 T T T
    0.77777778    0.11111111    0.85326087 T T T
    0.11111111    0.44444444    0.85326087 T T T
    0.44444444    0.44444444    0.85326087 T T T
    0.77777778    0.44444444    0.85326087 T T T
    0.11111111    0.77777778    0.85326087 T T T
    0.44444444    0.77777778    0.85326087 T T T
    0.77777778    0.77777778    0.85326087 T T T
    0.00000000    0.00000000    0.85869565 T T T
    0.33333333    0.00000000    0.85869565 T T T
    0.66666667    0.00000000    0.85869565 T T T
    0.00000000    0.33333333    0.85869565 T T T
    0.33333333    0.33333333    0.85869565 T T T
    0.66666667    0.33333333    0.85869565 T T T
    0.00000000    0.66666667    0.85869565 T T T
    0.33333333    0.66666667    0.85869565 T T T
    0.66666667    0.66666667    0.85869565 T T T
    0.22222222    0.22222222    0.86413043 T T T
    0.55555556    0.22222222    0.86413043 T T T
    0.88888889    0.22222222    0.86413043 T T T
    0.22222222    0.55555556    0.86413043 T T T
    0.55555556    0.55555556    0.86413043 T T T
    0.88888889    0.55555556    0.86413043 T T T
    0.22222222    0.88888889    0.86413043 T T T
    0.55555556    0.88888889    0.86413043 T T T
    0.88888889    0.88888889    0.86413043 T T T
    0.11111111    0.11111111    0.86956522 T T T
    0.44444444    0.11111111    0.86956522 T T T
    0.77777778    0.11111111    0.86956522 T T T
    0.11111111    0.44444444    0.86956522 T T T
    0.44444444    0.44444444    0.86956522 T T T
    0.77777778    0.44444444    0.86956522 T T T
    0.11111111    0.77777778    0.86956522 T T T
    0.44444444    0.77777778    0.86956522 T T T
    0.77777778    0.77777778    0.86956522 T T T
    0.00000000    0.00000000    0.87500000 T T T
    0.33333333    0.00000000    0.87500000 T T T
    0.66666667    0.00000000    0.87500000 T T T
    0.00000000    0.33333333    0.87500000 T T T
    0.33333333    0.33333333    0.87500000 T T T
    0.66666667    0.33333333    0.87500000 T T T
    0.00000000    0.66666667    0.87500000 T T T
    0.33333333    0.66666667    0.87500000 T T T
    0.66666667    0.66666667    0.87500000 T T T
    0.22222222    0.22222222    0.88043478 T T T
    0.55555556    0.22222222    0.88043478 T T T
    0.88888889    0.22222222    0.88043478 T T T
    0.22222222    0.55555556    0.88043478 T T T
    0.55555556    0.55555556    0.88043478 T T T
    0.88888889    0.55555556    0.88043478 T T T
    0.22222222    0.88888889    0.88043478 T T T
    0.55555556    0.88888889    0.88043478 T T T
    0.88888889    0.88888889    0.88043478 T T T
    0.11111111    0.11111111    0.88586957 T T T
    0.44444444    0.11111111    0.88586957 T T T
    0.77777778    0.11111111    0.88586957 T T T
    0.11111111    0.44444444    0.88586957 T T T
    0.44444444    0.44444444    0.88586957 T T T
    0.77777778    0.44444444    0.88586957 T T T
    0.11111111    0.77777778    0.88586957 T T T
    0.44444444    0.77777778    0.88586957 T T T
    0.77777778    0.77777778    0.88586957 T T T
    0.00000000    0.00000000    0.89130435 T T T
    0.33333333    0.00000000    0.89130435 T T T
    0.66666667    0.00000000    0.89130435 T T T
    0.00000000    0.33333333    0.89130435 T T T
    0.33333333    0.33333333    0.89130435 T T T
    0.66666667    0.33333333    0.89130435 T T T
    0.00000000    0.66666667    0.89130435 T T T
    0.33333333    0.66666667    0.89130435 T T T
    0.66666667    0.66666667    0.89130435 T T T
    0.22222222    0.22222222    0.89673913 T T T
    0.55555556    0.22222222    0.89673913 T T T
    0.88888889    0.22222222    0.89673913 T T T
    0.22222222    0.55555556    0.89673913 T T T
    0.55555556    0.55555556    0.89673913 T T T
    0.88888889    0.55555556    0.89673913 T T T
    0.22222222    0.88888889    0.89673913 T T T
    0.55555556    0.88888889    0.89673913 T T T
    0.88888889    0.88888889    0.89673913 T T T
    0.11111111    0.11111111    0.90217391 T T T
    0.44444444    0.11111111    0.90217391 T T T
    0.77777778    0.11111111    0.90217391 T T T
    0.11111111    0.44444444    0.90217391 T T T
    0.44444444    0.44444444    0.90217391 T T T
    0.77777778    0.44444444    0.90217391 T T T
    0.11111111    0.77777778    0.90217391 T T T
    0.44444444    0.77777778    0.90217391 T T T
    0.77777778    0.77777778    0.90217391 T T T
    0.00000000    0.00000000    0.90760870 T T T
    0.33333333    0.00000000    0.90760870 T T T
    0.66666667    0.00000000    0.90760870 T T T
    0.00000000    0.33333333    0.90760870 T T T
    0.33333333    0.33333333    0.90760870 T T T
    0.66666667    0.33333333    0.90760870 T T T
    0.00000000    0.66666667    0.90760870 T T T
    0.33333333    0.66666667    0.90760870 T T T
    0.66666667    0.66666667    0.90760870 T T T
    0.22222222    0.22222222    0.91304348 T T T
    0.55555556    0.22222222    0.91304348 T T T
    0.88888889    0.22222222    0.91304348 T T T
    0.22222222    0.55555556    0.91304348 T T T
    0.55555556    0.55555556    0.91304348 T T T
    0.88888889    0.55555556    0.91304348 T T T
    0.22222222    0.88888889    0.91304348 T T T
    0.55555556    0.88888889    0.91304348 T T T
    0.88888889    0.88888889    0.91304348 T T T
    0.11111111    0.11111111    0.91847826 T T T
    0.44444444    0.11111111    0.91847826 T T T
    0.77777778    0.11111111    0.91847826 T T T
    0.11111111    0.44444444    0.91847826 T T T
    0.44444444    0.44444444    0.91847826 T T T
    0.77777778    0.44444444    0.91847826 T T T
    0.11111111    0.77777778    0.91847826 T T T
    0.44444444    0.77777778    0.91847826 T T T
    0.77777778    0.77777778    0.91847826 T T T
    0.00000000    0.00000000    0.92391304 T T T
    0.33333333    0.00000000    0.92391304 T T T
    0.66666667    0.00000000    0.92391304 T T T
    0.00000000    0.33333333    0.92391304 T T T
    0.33333333    0.33333333    0.92391304 T T T
    0.66666667    0.33333333    0.92391304 T T T
    0.00000000    0.66666667    0.92391304 T T T
    0.33333333    0.66666667    0.92391304 T T T
    0.66666667    0.66666667    0.92391304 T T T
    0.22222222    0.22222222    0.92934783 T T T
    0.55555556    0.22222222    0.92934783 T T T
    0.88888889    0.22222222    0.92934783 T T T
    0.22222222    0.55555556    0.92934783 T T T
    0.55555556    0.55555556    0.92934783 T T T
    0.88888889    0.55555556    0.92934783 T T T
    0.22222222    0.88888889    0.92934783 T T T
    0.55555556    0.88888889    0.92934783 T T T
    0.88888889    0.88888889    0.92934783 T T T
    0.11111111    0.11111111    0.93478261 T T T
    0.44444444    0.11111111    0.93478261 T T T
    0.77777778    0.11111111    0.93478261 T T T
    0.11111111    0.44444444    0.93478261 T T T
    0.44444444    0.44444444    0.93478261 T T T
    0.77777778    0.44444444    0.93478261 T T T
    0.11111111    0.77777778    0.93478261 T T T
    0.44444444    0.77777778    0.93478261 T T T
    0.77777778    0.77777778    0.93478261 T T T
    0.00000000    0.00000000    0.94021739 T T T
    0.33333333    0.00000000    0.94021739 T T T
    0.66666667    0.00000000    0.94021739 T T T
    0.00000000    0.33333333    0.94021739 T T T
    0.33333333    0.33333333    0.94021739 T T T
    0.66666667    0.33333333    0.94021739 T T T
    0.00000000    0.66666667    0.94021739 T T T
    0.33333333    0.66666667    0.94021739 T T T
    0.66666667    0.66666667    0.94021739 T T T
    0.22222222    0.22222222    0.94565217 T T T
    0.55555556    0.22222222    0.94565217 T T T
    0.88888889    0.22222222    0.94565217 T T T
    0.22222222    0.55555556    0.94565217 T T T
    0.55555556    0.55555556    0.94565217 T T T
    0.88888889    0.55555556    0.94565217 T T T
    0.22222222    0.88888889    0.94565217 T T T
    0.55555556    0.88888889    0.94565217 T T T
    0.88888889    0.88888889    0.94565217 T T T
    0.11111111    0.11111111    0.95108696 T T T
    0.44444444    0.11111111    0.95108696 T T T
    0.77777778    0.11111111    0.95108696 T T T
    0.11111111    0.44444444    0.95108696 T T T
    0.44444444    0.44444444    0.95108696 T T T
    0.77777778    0.44444444    0.95108696 T T T
    0.11111111    0.77777778    0.95108696 T T T
    0.44444444    0.77777778    0.95108696 T T T
    0.77777778    0.77777778    0.95108696 T T T
    0.00000000    0.00000000    0.95652174 T T T
    0.33333333    0.00000000    0.95652174 T T T
    0.66666667    0.00000000    0.95652174 T T T
    0.00000000    0.33333333    0.95652174 T T T
    0.33333333    0.33333333    0.95652174 T T T
    0.66666667    0.33333333    0.95652174 T T T
    0.00000000    0.66666667    0.95652174 T T T
    0.33333333    0.66666667    0.95652174 T T T
    0.66666667    0.66666667    0.95652174 T T T
    0.22222222    0.22222222    0.96195652 T T T
    0.55555556    0.22222222    0.96195652 T T T
    0.88888889    0.22222222    0.96195652 T T T
    0.22222222    0.55555556    0.96195652 T T T
    0.55555556    0.55555556    0.96195652 T T T
    0.88888889    0.55555556    0.96195652 T T T
    0.22222222    0.88888889    0.96195652 T T T
    0.55555556    0.88888889    0.96195652 T T T
    0.88888889    0.88888889    0.96195652 T T T
    0.11111111    0.11111111    0.96739130 T T T
    0.44444444    0.11111111    0.96739130 T T T
    0.77777778    0.11111111    0.96739130 T T T
    0.11111111    0.44444444    0.96739130 T T T
    0.44444444    0.44444444    0.96739130 T T T
    0.77777778    0.44444444    0.96739130 T T T
    0.11111111    0.77777778    0.96739130 T T T
    0.44444444    0.77777778    0.96739130 T T T
    0.77777778    0.77777778    0.96739130 T T T
    0.00000000    0.00000000    0.97282609 T T T
    0.33333333    0.00000000    0.97282609 T T T
    0.66666667    0.00000000    0.97282609 T T T
    0.00000000    0.33333333    0.97282609 T T T
    0.33333333    0.33333333    0.97282609 T T T
    0.66666667    0.33333333    0.97282609 T T T
    0.00000000    0.66666667    0.97282609 T T T
    0.33333333    0.66666667    0.97282609 T T T
    0.66666667    0.66666667    0.97282609 T T T
    0.22222222    0.22222222    0.97826087 T T T
    0.55555556    0.22222222    0.97826087 T T T
    0.88888889    0.22222222    0.97826087 T T T
    0.22222222    0.55555556    0.97826087 T T T
    0.55555556    0.55555556    0.97826087 T T T
    0.88888889    0.55555556    0.97826087 T T T
    0.22222222    0.88888889    0.97826087 T T T
    0.55555556    0.88888889    0.97826087 T T T
    0.88888889    0.88888889    0.97826087 T T T
    0.11111111    0.11111111    0.98369565 T T T
    0.44444444    0.11111111    0.98369565 T T T
    0.77777778    0.11111111    0.98369565 T T T
    0.11111111    0.44444444    0.98369565 T T T
    0.44444444    0.44444444    0.98369565 T T T
    0.77777778    0.44444444    0.98369565 T T T
    0.11111111    0.77777778    0.98369565 T T T
    0.44444444    0.77777778    0.98369565 T T T
    0.77777778    0.77777778    0.98369565 T T T
    0.00000000    0.00000000    0.98913043 T T T
    0.33333333    0.00000000    0.98913043 T T T
    0.66666667    0.00000000    0.98913043 T T T
    0.00000000    0.33333333    0.98913043 T T T
    0.33333333    0.33333333    0.98913043 T T T
    0.66666667    0.33333333    0.98913043 T T T
    0.00000000    0.66666667    0.98913043 T T T
    0.33333333    0.66666667    0.98913043 T T T
    0.66666667    0.66666667    0.98913043 T T T
    0.22222222    0.22222222    0.99456522 F F F
    0.55555556    0.22222222    0.99456522 F F F
    0.88888889    0.22222222    0.99456522 F F F
    0.22222222    0.55555556    0.99456522 F F F
    0.55555556    0.55555556    0.99456522 F F F
    0.88888889    0.55555556    0.99456522 F F F
    0.22222222    0.88888889    0.99456522 F F F
    0.55555556    0.88888889    0.99456522 F F F
    0.88888889    0.88888889    0.99456522 F F F
