Generated generic
1.0
    7.66857304    0.00000000    0.00000000
    3.83428652    6.64117907    0.00000000
    0.00000000    0.00000000  183.66666763
 Cu
 792
Selective dynamics
Direct
    0.00000000    0.00000000    0.00000000 F F F
    0.33333333    0.00000000    0.00000000 F F F
    0.66666667    0.00000000    0.00000000 F F F
    0.00000000    0.33333333    0.00000000 F F F
    0.33333333    0.33333333    0.00000000 F F F
    0.66666667    0.33333333    0.00000000 F F F
    0.00000000    0.66666667    0.00000000 F F F
    0.33333333    0.66666667    0.00000000 F F F
    0.66666667    0.66666667    0.00000000 F F F
    0.11111111    0.11111111    0.01136364 T T T
    0.44444444    0.11111111    0.01136364 T T T
    0.77777778    0.11111111    0.01136364 T T T
    0.11111111    0.44444444    0.01136364 T T T
    0.44444444    0.44444444    0.01136364 T T T
    0.77777778    0.44444444    0.01136364 T T T
    0.11111111    0.77777778    0.01136364 T T T
    0.44444444    0.77777778    0.01136364 T T T
    0.77777778    0.77777778    0.01136364 T T T
    0.22222222    0.22222222    0.02272727 T T T
    0.55555556    0.22222222    0.02272727 T T T
    0.88888889    0.22222222    0.02272727 T T T
    0.22222222    0.55555556    0.02272727 T T T
    0.55555556    0.55555556    0.02272727 T T T
    0.88888889    0.55555556    0.02272727 T T T
    0.22222222    0.88888889    0.02272727 T T T
    0.55555556    0.88888889    0.02272727 T T T
    0.88888889    0.88888889    0.02272727 T T T
    0.00000000    0.00000000    0.03409091 T T T
    0.33333333    0.00000000    0.03409091 T T T
    0.66666667    0.00000000    0.03409091 T T T
    0.00000000    0.33333333    0.03409091 T T T
    0.33333333    0.33333333    0.03409091 T T T
    0.66666667    0.33333333    0.03409091 T T T
    0.00000000    0.66666667    0.03409091 T T T
    0.33333333    0.66666667    0.03409091 T T T
    0.66666667    0.66666667    0.03409091 T T T
    0.11111111    0.11111111    0.04545455 T T T
    0.44444444    0.11111111    0.04545455 T T T
    0.77777778    0.11111111    0.04545455 T T T
    0.11111111    0.44444444    0.04545455 T T T
    0.44444444    0.44444444    0.04545455 T T T
    0.77777778    0.44444444    0.04545455 T T T
    0.11111111    0.77777778    0.04545455 T T T
    0.44444444    0.77777778    0.04545455 T T T
    0.77777778    0.77777778    0.04545455 T T T
    0.22222222    0.22222222    0.05681818 T T T
    0.55555556    0.22222222    0.05681818 T T T
    0.88888889    0.22222222    0.05681818 T T T
    0.22222222    0.55555556    0.05681818 T T T
    0.55555556    0.55555556    0.05681818 T T T
    0.88888889    0.55555556    0.05681818 T T T
    0.22222222    0.88888889    0.05681818 T T T
    0.55555556    0.88888889    0.05681818 T T T
    0.88888889    0.88888889    0.05681818 T T T
    0.00000000    0.00000000    0.06818182 T T T
    0.33333333    0.00000000    0.06818182 T T T
    0.66666667    0.00000000    0.06818182 T T T
    0.00000000    0.33333333    0.06818182 T T T
    0.33333333    0.33333333    0.06818182 T T T
    0.66666667    0.33333333    0.06818182 T T T
    0.00000000    0.66666667    0.06818182 T T T
    0.33333333    0.66666667    0.06818182 T T T
    0.66666667    0.66666667    0.06818182 T T T
    0.11111111    0.11111111    0.07954545 T T T
    0.44444444    0.11111111    0.07954545 T T T
    0.77777778    0.11111111    0.07954545 T T T
    0.11111111    0.44444444    0.07954545 T T T
    0.44444444    0.44444444    0.07954545 T T T
    0.77777778    0.44444444    0.07954545 T T T
    0.11111111    0.77777778    0.07954545 T T T
    0.44444444    0.77777778    0.07954545 T T T
    0.77777778    0.77777778    0.07954545 T T T
    0.22222222    0.22222222    0.09090909 T T T
    0.55555556    0.22222222    0.09090909 T T T
    0.88888889    0.22222222    0.09090909 T T T
    0.22222222    0.55555556    0.09090909 T T T
    0.55555556    0.55555556    0.09090909 T T T
    0.88888889    0.55555556    0.09090909 T T T
    0.22222222    0.88888889    0.09090909 T T T
    0.55555556    0.88888889    0.09090909 T T T
    0.88888889    0.88888889    0.09090909 T T T
    0.00000000    0.00000000    0.10227273 T T T
    0.33333333    0.00000000    0.10227273 T T T
    0.66666667    0.00000000    0.10227273 T T T
    0.00000000    0.33333333    0.10227273 T T T
    0.33333333    0.33333333    0.10227273 T T T
    0.66666667    0.33333333    0.10227273 T T T
    0.00000000    0.66666667    0.10227273 T T T
    0.33333333    0.66666667    0.10227273 T T T
    0.66666667    0.66666667    0.10227273 T T T
    0.11111111    0.11111111    0.11363636 T T T
    0.44444444    0.11111111    0.11363636 T T T
    0.77777778    0.11111111    0.11363636 T T T
    0.11111111    0.44444444    0.11363636 T T T
    0.44444444    0.44444444    0.11363636 T T T
    0.77777778    0.44444444    0.11363636 T T T
    0.11111111    0.77777778    0.11363636 T T T
    0.44444444    0.77777778    0.11363636 T T T
    0.77777778    0.77777778    0.11363636 T T T
    0.22222222    0.22222222    0.12500000 T T T
    0.55555556    0.22222222    0.12500000 T T T
    0.88888889    0.22222222    0.12500000 T T T
    0.22222222    0.55555556    0.12500000 T T T
    0.55555556    0.55555556    0.12500000 T T T
    0.88888889    0.55555556    0.12500000 T T T
    0.22222222    0.88888889    0.12500000 T T T
    0.55555556    0.88888889    0.12500000 T T T
    0.88888889    0.88888889    0.12500000 T T T
    0.00000000    0.00000000    0.13636364 T T T
    0.33333333    0.00000000    0.13636364 T T T
    0.66666667    0.00000000    0.13636364 T T T
    0.00000000    0.33333333    0.13636364 T T T
    0.33333333    0.33333333    0.13636364 T T T
    0.66666667    0.33333333    0.13636364 T T T
    0.00000000    0.66666667    0.13636364 T T T
    0.33333333    0.66666667    0.13636364 T T T
    0.66666667    0.66666667    0.13636364 T T T
    0.11111111    0.11111111    0.14772727 T T T
    0.44444444    0.11111111    0.14772727 T T T
    0.77777778    0.11111111    0.14772727 T T T
    0.11111111    0.44444444    0.14772727 T T T
    0.44444444    0.44444444    0.14772727 T T T
    0.77777778    0.44444444    0.14772727 T T T
    0.11111111    0.77777778    0.14772727 T T T
    0.44444444    0.77777778    0.14772727 T T T
    0.77777778    0.77777778    0.14772727 T T T
    0.22222222    0.22222222    0.15909091 T T T
    0.55555556    0.22222222    0.15909091 T T T
    0.88888889    0.22222222    0.15909091 T T T
    0.22222222    0.55555556    0.15909091 T T T
    0.55555556    0.55555556    0.15909091 T T T
    0.88888889    0.55555556    0.15909091 T T T
    0.22222222    0.88888889    0.15909091 T T T
    0.55555556    0.88888889    0.15909091 T T T
    0.88888889    0.88888889    0.15909091 T T T
    0.00000000    0.00000000    0.17045455 T T T
    0.33333333    0.00000000    0.17045455 T T T
    0.66666667    0.00000000    0.17045455 T T T
    0.00000000    0.33333333    0.17045455 T T T
    0.33333333    0.33333333    0.17045455 T T T
    0.66666667    0.33333333    0.17045455 T T T
    0.00000000    0.66666667    0.17045455 T T T
    0.33333333    0.66666667    0.17045455 T T T
    0.66666667    0.66666667    0.17045455 T T T
    0.11111111    0.11111111    0.18181818 T T T
    0.44444444    0.11111111    0.18181818 T T T
    0.77777778    0.11111111    0.18181818 T T T
    0.11111111    0.44444444    0.18181818 T T T
    0.44444444    0.44444444    0.18181818 T T T
    0.77777778    0.44444444    0.18181818 T T T
    0.11111111    0.77777778    0.18181818 T T T
    0.44444444    0.77777778    0.18181818 T T T
    0.77777778    0.77777778    0.18181818 T T T
    0.22222222    0.22222222    0.19318182 T T T
    0.55555556    0.22222222    0.19318182 T T T
    0.88888889    0.22222222    0.19318182 T T T
    0.22222222    0.55555556    0.19318182 T T T
    0.55555556    0.55555556    0.19318182 T T T
    0.88888889    0.55555556    0.19318182 T T T
    0.22222222    0.88888889    0.19318182 T T T
    0.55555556    0.88888889    0.19318182 T T T
    0.88888889    0.88888889    0.19318182 T T T
    0.00000000    0.00000000    0.20454545 T T T
    0.33333333    0.00000000    0.20454545 T T T
    0.66666667    0.00000000    0.20454545 T T T
    0.00000000    0.33333333    0.20454545 T T T
    0.33333333    0.33333333    0.20454545 T T T
    0.66666667    0.33333333    0.20454545 T T T
    0.00000000    0.66666667    0.20454545 T T T
    0.33333333    0.66666667    0.20454545 T T T
    0.66666667    0.66666667    0.20454545 T T T
    0.11111111    0.11111111    0.21590909 T T T
    0.44444444    0.11111111    0.21590909 T T T
    0.77777778    0.11111111    0.21590909 T T T
    0.11111111    0.44444444    0.21590909 T T T
    0.44444444    0.44444444    0.21590909 T T T
    0.77777778    0.44444444    0.21590909 T T T
    0.11111111    0.77777778    0.21590909 T T T
    0.44444444    0.77777778    0.21590909 T T T
    0.77777778    0.77777778    0.21590909 T T T
    0.22222222    0.22222222    0.22727273 T T T
    0.55555556    0.22222222    0.22727273 T T T
    0.88888889    0.22222222    0.22727273 T T T
    0.22222222    0.55555556    0.22727273 T T T
    0.55555556    0.55555556    0.22727273 T T T
    0.88888889    0.55555556    0.22727273 T T T
    0.22222222    0.88888889    0.22727273 T T T
    0.55555556    0.88888889    0.22727273 T T T
    0.88888889    0.88888889    0.22727273 T T T
    0.00000000    0.00000000    0.23863636 T T T
    0.33333333    0.00000000    0.23863636 T T T
    0.66666667    0.00000000    0.23863636 T T T
    0.00000000    0.33333333    0.23863636 T T T
    0.33333333    0.33333333    0.23863636 T T T
    0.66666667    0.33333333    0.23863636 T T T
    0.00000000    0.66666667    0.23863636 T T T
    0.33333333    0.66666667    0.23863636 T T T
    0.66666667    0.66666667    0.23863636 T T T
    0.22222222    0.22222222    0.25000000 T T T
    0.55555556    0.22222222    0.25000000 T T T
    0.88888889    0.22222222    0.25000000 T T T
    0.22222222    0.55555556    0.25000000 T T T
    0.55555556    0.55555556    0.25000000 T T T
    0.88888889    0.55555556    0.25000000 T T T
    0.22222222    0.88888889    0.25000000 T T T
    0.55555556    0.88888889    0.25000000 T T T
    0.88888889    0.88888889    0.25000000 T T T
    0.11111111    0.11111111    0.26136364 T T T
    0.44444444    0.11111111    0.26136364 T T T
    0.77777778    0.11111111    0.26136364 T T T
    0.11111111    0.44444444    0.26136364 T T T
    0.44444444    0.44444444    0.26136364 T T T
    0.77777778    0.44444444    0.26136364 T T T
    0.11111111    0.77777778    0.26136364 T T T
    0.44444444    0.77777778    0.26136364 T T T
    0.77777778    0.77777778    0.26136364 T T T
    0.00000000    0.00000000    0.27272727 T T T
    0.33333333    0.00000000    0.27272727 T T T
    0.66666667    0.00000000    0.27272727 T T T
    0.00000000    0.33333333    0.27272727 T T T
    0.33333333    0.33333333    0.27272727 T T T
    0.66666667    0.33333333    0.27272727 T T T
    0.00000000    0.66666667    0.27272727 T T T
    0.33333333    0.66666667    0.27272727 T T T
    0.66666667    0.66666667    0.27272727 T T T
    0.22222222    0.22222222    0.28409091 T T T
    0.55555556    0.22222222    0.28409091 T T T
    0.88888889    0.22222222    0.28409091 T T T
    0.22222222    0.55555556    0.28409091 T T T
    0.55555556    0.55555556    0.28409091 T T T
    0.88888889    0.55555556    0.28409091 T T T
    0.22222222    0.88888889    0.28409091 T T T
    0.55555556    0.88888889    0.28409091 T T T
    0.88888889    0.88888889    0.28409091 T T T
    0.11111111    0.11111111    0.29545455 T T T
    0.44444444    0.11111111    0.29545455 T T T
    0.77777778    0.11111111    0.29545455 T T T
    0.11111111    0.44444444    0.29545455 T T T
    0.44444444    0.44444444    0.29545455 T T T
    0.77777778    0.44444444    0.29545455 T T T
    0.11111111    0.77777778    0.29545455 T T T
    0.44444444    0.77777778    0.29545455 T T T
    0.77777778    0.77777778    0.29545455 T T T
    0.00000000    0.00000000    0.30681818 T T T
    0.33333333    0.00000000    0.30681818 T T T
    0.66666667    0.00000000    0.30681818 T T T
    0.00000000    0.33333333    0.30681818 T T T
    0.33333333    0.33333333    0.30681818 T T T
    0.66666667    0.33333333    0.30681818 T T T
    0.00000000    0.66666667    0.30681818 T T T
    0.33333333    0.66666667    0.30681818 T T T
    0.66666667    0.66666667    0.30681818 T T T
    0.22222222    0.22222222    0.31818182 T T T
    0.55555556    0.22222222    0.31818182 T T T
    0.88888889    0.22222222    0.31818182 T T T
    0.22222222    0.55555556    0.31818182 T T T
    0.55555556    0.55555556    0.31818182 T T T
    0.88888889    0.55555556    0.31818182 T T T
    0.22222222    0.88888889    0.31818182 T T T
    0.55555556    0.88888889    0.31818182 T T T
    0.88888889    0.88888889    0.31818182 T T T
    0.11111111    0.11111111    0.32954545 T T T
    0.44444444    0.11111111    0.32954545 T T T
    0.77777778    0.11111111    0.32954545 T T T
    0.11111111    0.44444444    0.32954545 T T T
    0.44444444    0.44444444    0.32954545 T T T
    0.77777778    0.44444444    0.32954545 T T T
    0.11111111    0.77777778    0.32954545 T T T
    0.44444444    0.77777778    0.32954545 T T T
    0.77777778    0.77777778    0.32954545 T T T
    0.00000000    0.00000000    0.34090909 T T T
    0.33333333    0.00000000    0.34090909 T T T
    0.66666667    0.00000000    0.34090909 T T T
    0.00000000    0.33333333    0.34090909 T T T
    0.33333333    0.33333333    0.34090909 T T T
    0.66666667    0.33333333    0.34090909 T T T
    0.00000000    0.66666667    0.34090909 T T T
    0.33333333    0.66666667    0.34090909 T T T
    0.66666667    0.66666667    0.34090909 T T T
    0.22222222    0.22222222    0.35227273 T T T
    0.55555556    0.22222222    0.35227273 T T T
    0.88888889    0.22222222    0.35227273 T T T
    0.22222222    0.55555556    0.35227273 T T T
    0.55555556    0.55555556    0.35227273 T T T
    0.88888889    0.55555556    0.35227273 T T T
    0.22222222    0.88888889    0.35227273 T T T
    0.55555556    0.88888889    0.35227273 T T T
    0.88888889    0.88888889    0.35227273 T T T
    0.11111111    0.11111111    0.36363636 T T T
    0.44444444    0.11111111    0.36363636 T T T
    0.77777778    0.11111111    0.36363636 T T T
    0.11111111    0.44444444    0.36363636 T T T
    0.44444444    0.44444444    0.36363636 T T T
    0.77777778    0.44444444    0.36363636 T T T
    0.11111111    0.77777778    0.36363636 T T T
    0.44444444    0.77777778    0.36363636 T T T
    0.77777778    0.77777778    0.36363636 T T T
    0.00000000    0.00000000    0.37500000 T T T
    0.33333333    0.00000000    0.37500000 T T T
    0.66666667    0.00000000    0.37500000 T T T
    0.00000000    0.33333333    0.37500000 T T T
    0.33333333    0.33333333    0.37500000 T T T
    0.66666667    0.33333333    0.37500000 T T T
    0.00000000    0.66666667    0.37500000 T T T
    0.33333333    0.66666667    0.37500000 T T T
    0.66666667    0.66666667    0.37500000 T T T
    0.22222222    0.22222222    0.38636364 T T T
    0.55555556    0.22222222    0.38636364 T T T
    0.88888889    0.22222222    0.38636364 T T T
    0.22222222    0.55555556    0.38636364 T T T
    0.55555556    0.55555556    0.38636364 T T T
    0.88888889    0.55555556    0.38636364 T T T
    0.22222222    0.88888889    0.38636364 T T T
    0.55555556    0.88888889    0.38636364 T T T
    0.88888889    0.88888889    0.38636364 T T T
    0.11111111    0.11111111    0.39772727 T T T
    0.44444444    0.11111111    0.39772727 T T T
    0.77777778    0.11111111    0.39772727 T T T
    0.11111111    0.44444444    0.39772727 T T T
    0.44444444    0.44444444    0.39772727 T T T
    0.77777778    0.44444444    0.39772727 T T T
    0.11111111    0.77777778    0.39772727 T T T
    0.44444444    0.77777778    0.39772727 T T T
    0.77777778    0.77777778    0.39772727 T T T
    0.00000000    0.00000000    0.40909091 T T T
    0.33333333    0.00000000    0.40909091 T T T
    0.66666667    0.00000000    0.40909091 T T T
    0.00000000    0.33333333    0.40909091 T T T
    0.33333333    0.33333333    0.40909091 T T T
    0.66666667    0.33333333    0.40909091 T T T
    0.00000000    0.66666667    0.40909091 T T T
    0.33333333    0.66666667    0.40909091 T T T
    0.66666667    0.66666667    0.40909091 T T T
    0.22222222    0.22222222    0.42045455 T T T
    0.55555556    0.22222222    0.42045455 T T T
    0.88888889    0.22222222    0.42045455 T T T
    0.22222222    0.55555556    0.42045455 T T T
    0.55555556    0.55555556    0.42045455 T T T
    0.88888889    0.55555556    0.42045455 T T T
    0.22222222    0.88888889    0.42045455 T T T
    0.55555556    0.88888889    0.42045455 T T T
    0.88888889    0.88888889    0.42045455 T T T
    0.11111111    0.11111111    0.43181818 T T T
    0.44444444    0.11111111    0.43181818 T T T
    0.77777778    0.11111111    0.43181818 T T T
    0.11111111    0.44444444    0.43181818 T T T
    0.44444444    0.44444444    0.43181818 T T T
    0.77777778    0.44444444    0.43181818 T T T
    0.11111111    0.77777778    0.43181818 T T T
    0.44444444    0.77777778    0.43181818 T T T
    0.77777778    0.77777778    0.43181818 T T T
    0.00000000    0.00000000    0.44318182 T T T
    0.33333333    0.00000000    0.44318182 T T T
    0.66666667    0.00000000    0.44318182 T T T
    0.00000000    0.33333333    0.44318182 T T T
    0.33333333    0.33333333    0.44318182 T T T
    0.66666667    0.33333333    0.44318182 T T T
    0.00000000    0.66666667    0.44318182 T T T
    0.33333333    0.66666667    0.44318182 T T T
    0.66666667    0.66666667    0.44318182 T T T
    0.22222222    0.22222222    0.45454545 T T T
    0.55555556    0.22222222    0.45454545 T T T
    0.88888889    0.22222222    0.45454545 T T T
    0.22222222    0.55555556    0.45454545 T T T
    0.55555556    0.55555556    0.45454545 T T T
    0.88888889    0.55555556    0.45454545 T T T
    0.22222222    0.88888889    0.45454545 T T T
    0.55555556    0.88888889    0.45454545 T T T
    0.88888889    0.88888889    0.45454545 T T T
    0.11111111    0.11111111    0.46590909 T T T
    0.44444444    0.11111111    0.46590909 T T T
    0.77777778    0.11111111    0.46590909 T T T
    0.11111111    0.44444444    0.46590909 T T T
    0.44444444    0.44444444    0.46590909 T T T
    0.77777778    0.44444444    0.46590909 T T T
    0.11111111    0.77777778    0.46590909 T T T
    0.44444444    0.77777778    0.46590909 T T T
    0.77777778    0.77777778    0.46590909 T T T
    0.00000000    0.00000000    0.47727273 T T T
    0.33333333    0.00000000    0.47727273 T T T
    0.66666667    0.00000000    0.47727273 T T T
    0.00000000    0.33333333    0.47727273 T T T
    0.33333333    0.33333333    0.47727273 T T T
    0.66666667    0.33333333    0.47727273 T T T
    0.00000000    0.66666667    0.47727273 T T T
    0.33333333    0.66666667    0.47727273 T T T
    0.66666667    0.66666667    0.47727273 T T T
    0.22222222    0.22222222    0.48863636 T T T
    0.55555556    0.22222222    0.48863636 T T T
    0.88888889    0.22222222    0.48863636 T T T
    0.22222222    0.55555556    0.48863636 T T T
    0.55555556    0.55555556    0.48863636 T T T
    0.88888889    0.55555556    0.48863636 T T T
    0.22222222    0.88888889    0.48863636 T T T
    0.55555556    0.88888889    0.48863636 T T T
    0.88888889    0.88888889    0.48863636 T T T
    0.00000000    0.00000000    0.50000000 T T T
    0.33333333    0.00000000    0.50000000 T T T
    0.66666667    0.00000000    0.50000000 T T T
    0.00000000    0.33333333    0.50000000 T T T
    0.33333333    0.33333333    0.50000000 T T T
    0.66666667    0.33333333    0.50000000 T T T
    0.00000000    0.66666667    0.50000000 T T T
    0.33333333    0.66666667    0.50000000 T T T
    0.66666667    0.66666667    0.50000000 T T T
    0.11111111    0.11111111    0.51136364 T T T
    0.44444444    0.11111111    0.51136364 T T T
    0.77777778    0.11111111    0.51136364 T T T
    0.11111111    0.44444444    0.51136364 T T T
    0.44444444    0.44444444    0.51136364 T T T
    0.77777778    0.44444444    0.51136364 T T T
    0.11111111    0.77777778    0.51136364 T T T
    0.44444444    0.77777778    0.51136364 T T T
    0.77777778    0.77777778    0.51136364 T T T
    0.22222222    0.22222222    0.52272727 T T T
    0.55555556    0.22222222    0.52272727 T T T
    0.88888889    0.22222222    0.52272727 T T T
    0.22222222    0.55555556    0.52272727 T T T
    0.55555556    0.55555556    0.52272727 T T T
    0.88888889    0.55555556    0.52272727 T T T
    0.22222222    0.88888889    0.52272727 T T T
    0.55555556    0.88888889    0.52272727 T T T
    0.88888889    0.88888889    0.52272727 T T T
    0.00000000    0.00000000    0.53409091 T T T
    0.33333333    0.00000000    0.53409091 T T T
    0.66666667    0.00000000    0.53409091 T T T
    0.00000000    0.33333333    0.53409091 T T T
    0.33333333    0.33333333    0.53409091 T T T
    0.66666667    0.33333333    0.53409091 T T T
    0.00000000    0.66666667    0.53409091 T T T
    0.33333333    0.66666667    0.53409091 T T T
    0.66666667    0.66666667    0.53409091 T T T
    0.11111111    0.11111111    0.54545455 T T T
    0.44444444    0.11111111    0.54545455 T T T
    0.77777778    0.11111111    0.54545455 T T T
    0.11111111    0.44444444    0.54545455 T T T
    0.44444444    0.44444444    0.54545455 T T T
    0.77777778    0.44444444    0.54545455 T T T
    0.11111111    0.77777778    0.54545455 T T T
    0.44444444    0.77777778    0.54545455 T T T
    0.77777778    0.77777778    0.54545455 T T T
    0.22222222    0.22222222    0.55681818 T T T
    0.55555556    0.22222222    0.55681818 T T T
    0.88888889    0.22222222    0.55681818 T T T
    0.22222222    0.55555556    0.55681818 T T T
    0.55555556    0.55555556    0.55681818 T T T
    0.88888889    0.55555556    0.55681818 T T T
    0.22222222    0.88888889    0.55681818 T T T
    0.55555556    0.88888889    0.55681818 T T T
    0.88888889    0.88888889    0.55681818 T T T
    0.00000000    0.00000000    0.56818182 T T T
    0.33333333    0.00000000    0.56818182 T T T
    0.66666667    0.00000000    0.56818182 T T T
    0.00000000    0.33333333    0.56818182 T T T
    0.33333333    0.33333333    0.56818182 T T T
    0.66666667    0.33333333    0.56818182 T T T
    0.00000000    0.66666667    0.56818182 T T T
    0.33333333    0.66666667    0.56818182 T T T
    0.66666667    0.66666667    0.56818182 T T T
    0.11111111    0.11111111    0.57954545 T T T
    0.44444444    0.11111111    0.57954545 T T T
    0.77777778    0.11111111    0.57954545 T T T
    0.11111111    0.44444444    0.57954545 T T T
    0.44444444    0.44444444    0.57954545 T T T
    0.77777778    0.44444444    0.57954545 T T T
    0.11111111    0.77777778    0.57954545 T T T
    0.44444444    0.77777778    0.57954545 T T T
    0.77777778    0.77777778    0.57954545 T T T
    0.22222222    0.22222222    0.59090909 T T T
    0.55555556    0.22222222    0.59090909 T T T
    0.88888889    0.22222222    0.59090909 T T T
    0.22222222    0.55555556    0.59090909 T T T
    0.55555556    0.55555556    0.59090909 T T T
    0.88888889    0.55555556    0.59090909 T T T
    0.22222222    0.88888889    0.59090909 T T T
    0.55555556    0.88888889    0.59090909 T T T
    0.88888889    0.88888889    0.59090909 T T T
    0.00000000    0.00000000    0.60227273 T T T
    0.33333333    0.00000000    0.60227273 T T T
    0.66666667    0.00000000    0.60227273 T T T
    0.00000000    0.33333333    0.60227273 T T T
    0.33333333    0.33333333    0.60227273 T T T
    0.66666667    0.33333333    0.60227273 T T T
    0.00000000    0.66666667    0.60227273 T T T
    0.33333333    0.66666667    0.60227273 T T T
    0.66666667    0.66666667    0.60227273 T T T
    0.11111111    0.11111111    0.61363636 T T T
    0.44444444    0.11111111    0.61363636 T T T
    0.77777778    0.11111111    0.61363636 T T T
    0.11111111    0.44444444    0.61363636 T T T
    0.44444444    0.44444444    0.61363636 T T T
    0.77777778    0.44444444    0.61363636 T T T
    0.11111111    0.77777778    0.61363636 T T T
    0.44444444    0.77777778    0.61363636 T T T
    0.77777778    0.77777778    0.61363636 T T T
    0.22222222    0.22222222    0.62500000 T T T
    0.55555556    0.22222222    0.62500000 T T T
    0.88888889    0.22222222    0.62500000 T T T
    0.22222222    0.55555556    0.62500000 T T T
    0.55555556    0.55555556    0.62500000 T T T
    0.88888889    0.55555556    0.62500000 T T T
    0.22222222    0.88888889    0.62500000 T T T
    0.55555556    0.88888889    0.62500000 T T T
    0.88888889    0.88888889    0.62500000 T T T
    0.00000000    0.00000000    0.63636364 T T T
    0.33333333    0.00000000    0.63636364 T T T
    0.66666667    0.00000000    0.63636364 T T T
    0.00000000    0.33333333    0.63636364 T T T
    0.33333333    0.33333333    0.63636364 T T T
    0.66666667    0.33333333    0.63636364 T T T
    0.00000000    0.66666667    0.63636364 T T T
    0.33333333    0.66666667    0.63636364 T T T
    0.66666667    0.66666667    0.63636364 T T T
    0.11111111    0.11111111    0.64772727 T T T
    0.44444444    0.11111111    0.64772727 T T T
    0.77777778    0.11111111    0.64772727 T T T
    0.11111111    0.44444444    0.64772727 T T T
    0.44444444    0.44444444    0.64772727 T T T
    0.77777778    0.44444444    0.64772727 T T T
    0.11111111    0.77777778    0.64772727 T T T
    0.44444444    0.77777778    0.64772727 T T T
    0.77777778    0.77777778    0.64772727 T T T
    0.22222222    0.22222222    0.65909091 T T T
    0.55555556    0.22222222    0.65909091 T T T
    0.88888889    0.22222222    0.65909091 T T T
    0.22222222    0.55555556    0.65909091 T T T
    0.55555556    0.55555556    0.65909091 T T T
    0.88888889    0.55555556    0.65909091 T T T
    0.22222222    0.88888889    0.65909091 T T T
    0.55555556    0.88888889    0.65909091 T T T
    0.88888889    0.88888889    0.65909091 T T T
    0.00000000    0.00000000    0.67045455 T T T
    0.33333333    0.00000000    0.67045455 T T T
    0.66666667    0.00000000    0.67045455 T T T
    0.00000000    0.33333333    0.67045455 T T T
    0.33333333    0.33333333    0.67045455 T T T
    0.66666667    0.33333333    0.67045455 T T T
    0.00000000    0.66666667    0.67045455 T T T
    0.33333333    0.66666667    0.67045455 T T T
    0.66666667    0.66666667    0.67045455 T T T
    0.11111111    0.11111111    0.68181818 T T T
    0.44444444    0.11111111    0.68181818 T T T
    0.77777778    0.11111111    0.68181818 T T T
    0.11111111    0.44444444    0.68181818 T T T
    0.44444444    0.44444444    0.68181818 T T T
    0.77777778    0.44444444    0.68181818 T T T
    0.11111111    0.77777778    0.68181818 T T T
    0.44444444    0.77777778    0.68181818 T T T
    0.77777778    0.77777778    0.68181818 T T T
    0.22222222    0.22222222    0.69318182 T T T
    0.55555556    0.22222222    0.69318182 T T T
    0.88888889    0.22222222    0.69318182 T T T
    0.22222222    0.55555556    0.69318182 T T T
    0.55555556    0.55555556    0.69318182 T T T
    0.88888889    0.55555556    0.69318182 T T T
    0.22222222    0.88888889    0.69318182 T T T
    0.55555556    0.88888889    0.69318182 T T T
    0.88888889    0.88888889    0.69318182 T T T
    0.00000000    0.00000000    0.70454545 T T T
    0.33333333    0.00000000    0.70454545 T T T
    0.66666667    0.00000000    0.70454545 T T T
    0.00000000    0.33333333    0.70454545 T T T
    0.33333333    0.33333333    0.70454545 T T T
    0.66666667    0.33333333    0.70454545 T T T
    0.00000000    0.66666667    0.70454545 T T T
    0.33333333    0.66666667    0.70454545 T T T
    0.66666667    0.66666667    0.70454545 T T T
    0.11111111    0.11111111    0.71590909 T T T
    0.44444444    0.11111111    0.71590909 T T T
    0.77777778    0.11111111    0.71590909 T T T
    0.11111111    0.44444444    0.71590909 T T T
    0.44444444    0.44444444    0.71590909 T T T
    0.77777778    0.44444444    0.71590909 T T T
    0.11111111    0.77777778    0.71590909 T T T
    0.44444444    0.77777778    0.71590909 T T T
    0.77777778    0.77777778    0.71590909 T T T
    0.22222222    0.22222222    0.72727273 T T T
    0.55555556    0.22222222    0.72727273 T T T
    0.88888889    0.22222222    0.72727273 T T T
    0.22222222    0.55555556    0.72727273 T T T
    0.55555556    0.55555556    0.72727273 T T T
    0.88888889    0.55555556    0.72727273 T T T
    0.22222222    0.88888889    0.72727273 T T T
    0.55555556    0.88888889    0.72727273 T T T
    0.88888889    0.88888889    0.72727273 T T T
    0.00000000    0.00000000    0.73863636 T T T
    0.33333333    0.00000000    0.73863636 T T T
    0.66666667    0.00000000    0.73863636 T T T
    0.00000000    0.33333333    0.73863636 T T T
    0.33333333    0.33333333    0.73863636 T T T
    0.66666667    0.33333333    0.73863636 T T T
    0.00000000    0.66666667    0.73863636 T T T
    0.33333333    0.66666667    0.73863636 T T T
    0.66666667    0.66666667    0.73863636 T T T
    0.22222222    0.22222222    0.75000000 T T T
    0.55555556    0.22222222    0.75000000 T T T
    0.88888889    0.22222222    0.75000000 T T T
    0.22222222    0.55555556    0.75000000 T T T
    0.55555556    0.55555556    0.75000000 T T T
    0.88888889    0.55555556    0.75000000 T T T
    0.22222222    0.88888889    0.75000000 T T T
    0.55555556    0.88888889    0.75000000 T T T
    0.88888889    0.88888889    0.75000000 T T T
    0.11111111    0.11111111    0.76136364 T T T
    0.44444444    0.11111111    0.76136364 T T T
    0.77777778    0.11111111    0.76136364 T T T
    0.11111111    0.44444444    0.76136364 T T T
    0.44444444    0.44444444    0.76136364 T T T
    0.77777778    0.44444444    0.76136364 T T T
    0.11111111    0.77777778    0.76136364 T T T
    0.44444444    0.77777778    0.76136364 T T T
    0.77777778    0.77777778    0.76136364 T T T
    0.00000000    0.00000000    0.77272727 T T T
    0.33333333    0.00000000    0.77272727 T T T
    0.66666667    0.00000000    0.77272727 T T T
    0.00000000    0.33333333    0.77272727 T T T
    0.33333333    0.33333333    0.77272727 T T T
    0.66666667    0.33333333    0.77272727 T T T
    0.00000000    0.66666667    0.77272727 T T T
    0.33333333    0.66666667    0.77272727 T T T
    0.66666667    0.66666667    0.77272727 T T T
    0.22222222    0.22222222    0.78409091 T T T
    0.55555556    0.22222222    0.78409091 T T T
    0.88888889    0.22222222    0.78409091 T T T
    0.22222222    0.55555556    0.78409091 T T T
    0.55555556    0.55555556    0.78409091 T T T
    0.88888889    0.55555556    0.78409091 T T T
    0.22222222    0.88888889    0.78409091 T T T
    0.55555556    0.88888889    0.78409091 T T T
    0.88888889    0.88888889    0.78409091 T T T
    0.11111111    0.11111111    0.79545455 T T T
    0.44444444    0.11111111    0.79545455 T T T
    0.77777778    0.11111111    0.79545455 T T T
    0.11111111    0.44444444    0.79545455 T T T
    0.44444444    0.44444444    0.79545455 T T T
    0.77777778    0.44444444    0.79545455 T T T
    0.11111111    0.77777778    0.79545455 T T T
    0.44444444    0.77777778    0.79545455 T T T
    0.77777778    0.77777778    0.79545455 T T T
    0.00000000    0.00000000    0.80681818 T T T
    0.33333333    0.00000000    0.80681818 T T T
    0.66666667    0.00000000    0.80681818 T T T
    0.00000000    0.33333333    0.80681818 T T T
    0.33333333    0.33333333    0.80681818 T T T
    0.66666667    0.33333333    0.80681818 T T T
    0.00000000    0.66666667    0.80681818 T T T
    0.33333333    0.66666667    0.80681818 T T T
    0.66666667    0.66666667    0.80681818 T T T
    0.22222222    0.22222222    0.81818182 T T T
    0.55555556    0.22222222    0.81818182 T T T
    0.88888889    0.22222222    0.81818182 T T T
    0.22222222    0.55555556    0.81818182 T T T
    0.55555556    0.55555556    0.81818182 T T T
    0.88888889    0.55555556    0.81818182 T T T
    0.22222222    0.88888889    0.81818182 T T T
    0.55555556    0.88888889    0.81818182 T T T
    0.88888889    0.88888889    0.81818182 T T T
    0.11111111    0.11111111    0.82954545 T T T
    0.44444444    0.11111111    0.82954545 T T T
    0.77777778    0.11111111    0.82954545 T T T
    0.11111111    0.44444444    0.82954545 T T T
    0.44444444    0.44444444    0.82954545 T T T
    0.77777778    0.44444444    0.82954545 T T T
    0.11111111    0.77777778    0.82954545 T T T
    0.44444444    0.77777778    0.82954545 T T T
    0.77777778    0.77777778    0.82954545 T T T
    0.00000000    0.00000000    0.84090909 T T T
    0.33333333    0.00000000    0.84090909 T T T
    0.66666667    0.00000000    0.84090909 T T T
    0.00000000    0.33333333    0.84090909 T T T
    0.33333333    0.33333333    0.84090909 T T T
    0.66666667    0.33333333    0.84090909 T T T
    0.00000000    0.66666667    0.84090909 T T T
    0.33333333    0.66666667    0.84090909 T T T
    0.66666667    0.66666667    0.84090909 T T T
    0.22222222    0.22222222    0.85227273 T T T
    0.55555556    0.22222222    0.85227273 T T T
    0.88888889    0.22222222    0.85227273 T T T
    0.22222222    0.55555556    0.85227273 T T T
    0.55555556    0.55555556    0.85227273 T T T
    0.88888889    0.55555556    0.85227273 T T T
    0.22222222    0.88888889    0.85227273 T T T
    0.55555556    0.88888889    0.85227273 T T T
    0.88888889    0.88888889    0.85227273 T T T
    0.11111111    0.11111111    0.86363636 T T T
    0.44444444    0.11111111    0.86363636 T T T
    0.77777778    0.11111111    0.86363636 T T T
    0.11111111    0.44444444    0.86363636 T T T
    0.44444444    0.44444444    0.86363636 T T T
    0.77777778    0.44444444    0.86363636 T T T
    0.11111111    0.77777778    0.86363636 T T T
    0.44444444    0.77777778    0.86363636 T T T
    0.77777778    0.77777778    0.86363636 T T T
    0.00000000    0.00000000    0.87500000 T T T
    0.33333333    0.00000000    0.87500000 T T T
    0.66666667    0.00000000    0.87500000 T T T
    0.00000000    0.33333333    0.87500000 T T T
    0.33333333    0.33333333    0.87500000 T T T
    0.66666667    0.33333333    0.87500000 T T T
    0.00000000    0.66666667    0.87500000 T T T
    0.33333333    0.66666667    0.87500000 T T T
    0.66666667    0.66666667    0.87500000 T T T
    0.22222222    0.22222222    0.88636364 T T T
    0.55555556    0.22222222    0.88636364 T T T
    0.88888889    0.22222222    0.88636364 T T T
    0.22222222    0.55555556    0.88636364 T T T
    0.55555556    0.55555556    0.88636364 T T T
    0.88888889    0.55555556    0.88636364 T T T
    0.22222222    0.88888889    0.88636364 T T T
    0.55555556    0.88888889    0.88636364 T T T
    0.88888889    0.88888889    0.88636364 T T T
    0.11111111    0.11111111    0.89772727 T T T
    0.44444444    0.11111111    0.89772727 T T T
    0.77777778    0.11111111    0.89772727 T T T
    0.11111111    0.44444444    0.89772727 T T T
    0.44444444    0.44444444    0.89772727 T T T
    0.77777778    0.44444444    0.89772727 T T T
    0.11111111    0.77777778    0.89772727 T T T
    0.44444444    0.77777778    0.89772727 T T T
    0.77777778    0.77777778    0.89772727 T T T
    0.00000000    0.00000000    0.90909091 T T T
    0.33333333    0.00000000    0.90909091 T T T
    0.66666667    0.00000000    0.90909091 T T T
    0.00000000    0.33333333    0.90909091 T T T
    0.33333333    0.33333333    0.90909091 T T T
    0.66666667    0.33333333    0.90909091 T T T
    0.00000000    0.66666667    0.90909091 T T T
    0.33333333    0.66666667    0.90909091 T T T
    0.66666667    0.66666667    0.90909091 T T T
    0.22222222    0.22222222    0.92045455 T T T
    0.55555556    0.22222222    0.92045455 T T T
    0.88888889    0.22222222    0.92045455 T T T
    0.22222222    0.55555556    0.92045455 T T T
    0.55555556    0.55555556    0.92045455 T T T
    0.88888889    0.55555556    0.92045455 T T T
    0.22222222    0.88888889    0.92045455 T T T
    0.55555556    0.88888889    0.92045455 T T T
    0.88888889    0.88888889    0.92045455 T T T
    0.11111111    0.11111111    0.93181818 T T T
    0.44444444    0.11111111    0.93181818 T T T
    0.77777778    0.11111111    0.93181818 T T T
    0.11111111    0.44444444    0.93181818 T T T
    0.44444444    0.44444444    0.93181818 T T T
    0.77777778    0.44444444    0.93181818 T T T
    0.11111111    0.77777778    0.93181818 T T T
    0.44444444    0.77777778    0.93181818 T T T
    0.77777778    0.77777778    0.93181818 T T T
    0.00000000    0.00000000    0.94318182 T T T
    0.33333333    0.00000000    0.94318182 T T T
    0.66666667    0.00000000    0.94318182 T T T
    0.00000000    0.33333333    0.94318182 T T T
    0.33333333    0.33333333    0.94318182 T T T
    0.66666667    0.33333333    0.94318182 T T T
    0.00000000    0.66666667    0.94318182 T T T
    0.33333333    0.66666667    0.94318182 T T T
    0.66666667    0.66666667    0.94318182 T T T
    0.22222222    0.22222222    0.95454545 T T T
    0.55555556    0.22222222    0.95454545 T T T
    0.88888889    0.22222222    0.95454545 T T T
    0.22222222    0.55555556    0.95454545 T T T
    0.55555556    0.55555556    0.95454545 T T T
    0.88888889    0.55555556    0.95454545 T T T
    0.22222222    0.88888889    0.95454545 T T T
    0.55555556    0.88888889    0.95454545 T T T
    0.88888889    0.88888889    0.95454545 T T T
    0.11111111    0.11111111    0.96590909 T T T
    0.44444444    0.11111111    0.96590909 T T T
    0.77777778    0.11111111    0.96590909 T T T
    0.11111111    0.44444444    0.96590909 T T T
    0.44444444    0.44444444    0.96590909 T T T
    0.77777778    0.44444444    0.96590909 T T T
    0.11111111    0.77777778    0.96590909 T T T
    0.44444444    0.77777778    0.96590909 T T T
    0.77777778    0.77777778    0.96590909 T T T
    0.00000000    0.00000000    0.97727273 T T T
    0.33333333    0.00000000    0.97727273 T T T
    0.66666667    0.00000000    0.97727273 T T T
    0.00000000    0.33333333    0.97727273 T T T
    0.33333333    0.33333333    0.97727273 T T T
    0.66666667    0.33333333    0.97727273 T T T
    0.00000000    0.66666667    0.97727273 T T T
    0.33333333    0.66666667    0.97727273 T T T
    0.66666667    0.66666667    0.97727273 T T T
    0.22222222    0.22222222    0.98863636 F F F
    0.55555556    0.22222222    0.98863636 F F F
    0.88888889    0.22222222    0.98863636 F F F
    0.22222222    0.55555556    0.98863636 F F F
    0.55555556    0.55555556    0.98863636 F F F
    0.88888889    0.55555556    0.98863636 F F F
    0.22222222    0.88888889    0.98863636 F F F
    0.55555556    0.88888889    0.98863636 F F F
    0.88888889    0.88888889    0.98863636 F F F
