Cu
 1.0000000000000000
     7.6685730419681093    0.0000000000000000    0.0000000000000000
     3.8342865209840546    6.6411790651208911    0.0000000000000000
     0.0000000000000000    0.0000000000000000  283.8484863443876520
 Cu 
 1224
Direct
  0.0000000000000000  0.0000000000000000  0.0000000000000000
  0.2222222222222222  0.2222222222222222  0.6691176470588234
  0.7777777777777778  0.7777777777777777  0.6617647058823529
  0.4444444444444444  0.7777777777777777  0.6617647058823529
  0.1111111111111111  0.7777777777777777  0.6617647058823529
  0.7777777777777778  0.4444444444444444  0.6617647058823529
  0.4444444444444444  0.4444444444444444  0.6617647058823529
  0.1111111111111111  0.4444444444444444  0.6617647058823529
  0.7777777777777778  0.1111111111111111  0.6617647058823529
  0.4444444444444444  0.1111111111111111  0.6617647058823529
  0.1111111111111111  0.1111111111111111  0.6617647058823529
  0.6666666666666666  0.6666666666666666  0.6544117647058821
  0.3333333333333333  0.6666666666666666  0.6544117647058821
  0.0000000000000000  0.6666666666666666  0.6544117647058821
  0.6666666666666666  0.3333333333333333  0.6544117647058821
  0.3333333333333333  0.3333333333333333  0.6544117647058821
  0.5555555555555556  0.2222222222222222  0.6691176470588234
  0.0000000000000000  0.3333333333333333  0.6544117647058821
  0.8888888888888887  0.2222222222222222  0.6691176470588234
  0.5555555555555555  0.5555555555555556  0.6691176470588234
  0.4444444444444444  0.1111111111111111  0.6838235294117645
  0.1111111111111111  0.1111111111111111  0.6838235294117645
  0.6666666666666666  0.6666666666666666  0.6764705882352942
  0.3333333333333333  0.6666666666666666  0.6764705882352942
  0.0000000000000000  0.6666666666666666  0.6764705882352942
  0.6666666666666666  0.3333333333333333  0.6764705882352942
  0.3333333333333333  0.3333333333333333  0.6764705882352942
  0.0000000000000000  0.3333333333333333  0.6764705882352942
  0.6666666666666666  0.0000000000000000  0.6764705882352942
  0.3333333333333333  0.0000000000000000  0.6764705882352942
  0.0000000000000000  0.0000000000000000  0.6764705882352942
  0.8888888888888888  0.8888888888888887  0.6691176470588234
  0.5555555555555556  0.8888888888888887  0.6691176470588234
  0.2222222222222223  0.8888888888888887  0.6691176470588234
  0.8888888888888887  0.5555555555555556  0.6691176470588234
  0.2222222222222222  0.5555555555555556  0.6691176470588234
  0.7777777777777778  0.1111111111111111  0.6838235294117645
  0.6666666666666666  0.0000000000000000  0.6544117647058821
  0.0000000000000000  0.0000000000000000  0.6544117647058821
  0.3333333333333333  0.6666666666666666  0.6323529411764706
  0.0000000000000000  0.6666666666666666  0.6323529411764706
  0.6666666666666666  0.3333333333333333  0.6323529411764706
  0.3333333333333333  0.3333333333333333  0.6323529411764706
  0.0000000000000000  0.3333333333333333  0.6323529411764706
  0.6666666666666666  0.0000000000000000  0.6323529411764706
  0.3333333333333333  0.0000000000000000  0.6323529411764706
  0.0000000000000000  0.0000000000000000  0.6323529411764706
  0.8888888888888888  0.8888888888888887  0.6249999999999998
  0.5555555555555556  0.8888888888888887  0.6249999999999998
  0.2222222222222223  0.8888888888888887  0.6249999999999998
  0.8888888888888887  0.5555555555555556  0.6249999999999998
  0.5555555555555555  0.5555555555555556  0.6249999999999998
  0.2222222222222222  0.5555555555555556  0.6249999999999998
  0.8888888888888887  0.2222222222222222  0.6249999999999998
  0.6666666666666666  0.6666666666666666  0.6323529411764706
  0.3333333333333333  0.0000000000000000  0.6544117647058821
  0.1111111111111111  0.1111111111111111  0.6397058823529410
  0.7777777777777778  0.1111111111111111  0.6397058823529410
  0.8888888888888888  0.8888888888888887  0.6470588235294118
  0.5555555555555556  0.8888888888888887  0.6470588235294118
  0.2222222222222223  0.8888888888888887  0.6470588235294118
  0.8888888888888887  0.5555555555555556  0.6470588235294118
  0.5555555555555555  0.5555555555555556  0.6470588235294118
  0.2222222222222222  0.5555555555555556  0.6470588235294118
  0.8888888888888887  0.2222222222222222  0.6470588235294118
  0.5555555555555556  0.2222222222222222  0.6470588235294118
  0.2222222222222222  0.2222222222222222  0.6470588235294118
  0.7777777777777778  0.7777777777777777  0.6397058823529410
  0.4444444444444444  0.7777777777777777  0.6397058823529410
  0.1111111111111111  0.7777777777777777  0.6397058823529410
  0.7777777777777778  0.4444444444444444  0.6397058823529410
  0.4444444444444444  0.4444444444444444  0.6397058823529410
  0.1111111111111111  0.4444444444444444  0.6397058823529410
  0.4444444444444444  0.1111111111111111  0.6397058823529410
  0.1111111111111111  0.4444444444444444  0.6838235294117645
  0.4444444444444444  0.4444444444444444  0.6838235294117645
  0.7777777777777778  0.4444444444444444  0.6838235294117645
  0.7777777777777778  0.4444444444444444  0.7279411764705881
  0.4444444444444444  0.4444444444444444  0.7279411764705881
  0.1111111111111111  0.4444444444444444  0.7279411764705881
  0.7777777777777778  0.1111111111111111  0.7279411764705881
  0.4444444444444444  0.1111111111111111  0.7279411764705881
  0.1111111111111111  0.1111111111111111  0.7279411764705881
  0.6666666666666666  0.6666666666666666  0.7205882352941176
  0.3333333333333333  0.6666666666666666  0.7205882352941176
  0.0000000000000000  0.6666666666666666  0.7205882352941176
  0.6666666666666666  0.3333333333333333  0.7205882352941176
  0.3333333333333333  0.3333333333333333  0.7205882352941176
  0.0000000000000000  0.3333333333333333  0.7205882352941176
  0.6666666666666666  0.0000000000000000  0.7205882352941176
  0.3333333333333333  0.0000000000000000  0.7205882352941176
  0.0000000000000000  0.0000000000000000  0.7205882352941176
  0.1111111111111111  0.7777777777777777  0.7279411764705881
  0.8888888888888888  0.8888888888888887  0.7132352941176469
  0.4444444444444444  0.7777777777777777  0.7279411764705881
  0.2222222222222222  0.2222222222222222  0.7352941176470588
  0.0000000000000000  0.6666666666666666  0.7426470588235292
  0.6666666666666666  0.3333333333333333  0.7426470588235292
  0.3333333333333333  0.3333333333333333  0.7426470588235292
  0.0000000000000000  0.3333333333333333  0.7426470588235292
  0.6666666666666666  0.0000000000000000  0.7426470588235292
  0.3333333333333333  0.0000000000000000  0.7426470588235292
  0.0000000000000000  0.0000000000000000  0.7426470588235292
  0.8888888888888888  0.8888888888888887  0.7352941176470588
  0.5555555555555556  0.8888888888888887  0.7352941176470588
  0.2222222222222223  0.8888888888888887  0.7352941176470588
  0.8888888888888887  0.5555555555555556  0.7352941176470588
  0.5555555555555555  0.5555555555555556  0.7352941176470588
  0.2222222222222222  0.5555555555555556  0.7352941176470588
  0.8888888888888887  0.2222222222222222  0.7352941176470588
  0.5555555555555556  0.2222222222222222  0.7352941176470588
  0.7777777777777778  0.7777777777777777  0.7279411764705881
  0.5555555555555556  0.8888888888888887  0.7132352941176469
  0.2222222222222223  0.8888888888888887  0.7132352941176469
  0.8888888888888887  0.5555555555555556  0.7132352941176469
  0.6666666666666666  0.0000000000000000  0.6985294117647057
  0.3333333333333333  0.0000000000000000  0.6985294117647057
  0.0000000000000000  0.0000000000000000  0.6985294117647057
  0.8888888888888888  0.8888888888888887  0.6911764705882353
  0.5555555555555556  0.8888888888888887  0.6911764705882353
  0.2222222222222223  0.8888888888888887  0.6911764705882353
  0.8888888888888887  0.5555555555555556  0.6911764705882353
  0.5555555555555555  0.5555555555555556  0.6911764705882353
  0.2222222222222222  0.5555555555555556  0.6911764705882353
  0.8888888888888887  0.2222222222222222  0.6911764705882353
  0.5555555555555556  0.2222222222222222  0.6911764705882353
  0.2222222222222222  0.2222222222222222  0.6911764705882353
  0.7777777777777778  0.7777777777777777  0.6838235294117645
  0.4444444444444444  0.7777777777777777  0.6838235294117645
  0.1111111111111111  0.7777777777777777  0.6838235294117645
  0.0000000000000000  0.3333333333333333  0.6985294117647057
  0.3333333333333333  0.3333333333333333  0.6985294117647057
  0.6666666666666666  0.3333333333333333  0.6985294117647057
  0.0000000000000000  0.6666666666666666  0.6985294117647057
  0.5555555555555555  0.5555555555555556  0.7132352941176469
  0.2222222222222222  0.5555555555555556  0.7132352941176469
  0.8888888888888887  0.2222222222222222  0.7132352941176469
  0.5555555555555556  0.2222222222222222  0.7132352941176469
  0.2222222222222222  0.2222222222222222  0.7132352941176469
  0.7777777777777778  0.7777777777777777  0.7058823529411764
  0.4444444444444444  0.7777777777777777  0.7058823529411764
  0.5555555555555556  0.2222222222222222  0.6249999999999998
  0.1111111111111111  0.7777777777777777  0.7058823529411764
  0.4444444444444444  0.4444444444444444  0.7058823529411764
  0.1111111111111111  0.4444444444444444  0.7058823529411764
  0.7777777777777778  0.1111111111111111  0.7058823529411764
  0.4444444444444444  0.1111111111111111  0.7058823529411764
  0.1111111111111111  0.1111111111111111  0.7058823529411764
  0.6666666666666666  0.6666666666666666  0.6985294117647057
  0.3333333333333333  0.6666666666666666  0.6985294117647057
  0.7777777777777778  0.4444444444444444  0.7058823529411764
  0.3333333333333333  0.6666666666666666  0.7426470588235292
  0.2222222222222222  0.2222222222222222  0.6249999999999998
  0.4444444444444444  0.7777777777777777  0.6176470588235294
  0.0000000000000000  0.0000000000000000  0.5441176470588235
  0.8888888888888888  0.8888888888888887  0.5367647058823528
  0.5555555555555556  0.8888888888888887  0.5367647058823528
  0.2222222222222223  0.8888888888888887  0.5367647058823528
  0.8888888888888887  0.5555555555555556  0.5367647058823528
  0.5555555555555555  0.5555555555555556  0.5367647058823528
  0.2222222222222222  0.5555555555555556  0.5367647058823528
  0.8888888888888887  0.2222222222222222  0.5367647058823528
  0.5555555555555556  0.2222222222222222  0.5367647058823528
  0.2222222222222222  0.2222222222222222  0.5367647058823528
  0.7777777777777778  0.7777777777777777  0.5294117647058824
  0.4444444444444444  0.7777777777777777  0.5294117647058824
  0.1111111111111111  0.7777777777777777  0.5294117647058824
  0.7777777777777778  0.4444444444444444  0.5294117647058824
  0.4444444444444444  0.4444444444444444  0.5294117647058824
  0.3333333333333333  0.0000000000000000  0.5441176470588235
  0.1111111111111111  0.4444444444444444  0.5294117647058824
  0.6666666666666666  0.0000000000000000  0.5441176470588235
  0.3333333333333333  0.3333333333333333  0.5441176470588235
  0.5555555555555556  0.2222222222222222  0.5588235294117647
  0.2222222222222222  0.2222222222222222  0.5588235294117647
  0.7777777777777778  0.7777777777777777  0.5514705882352939
  0.4444444444444444  0.7777777777777777  0.5514705882352939
  0.1111111111111111  0.7777777777777777  0.5514705882352939
  0.7777777777777778  0.4444444444444444  0.5514705882352939
  0.4444444444444444  0.4444444444444444  0.5514705882352939
  0.1111111111111111  0.4444444444444444  0.5514705882352939
  0.7777777777777778  0.1111111111111111  0.5514705882352939
  0.4444444444444444  0.1111111111111111  0.5514705882352939
  0.1111111111111111  0.1111111111111111  0.5514705882352939
  0.6666666666666666  0.6666666666666666  0.5441176470588235
  0.3333333333333333  0.6666666666666666  0.5441176470588235
  0.0000000000000000  0.6666666666666666  0.5441176470588235
  0.6666666666666666  0.3333333333333333  0.5441176470588235
  0.0000000000000000  0.3333333333333333  0.5441176470588235
  0.8888888888888887  0.2222222222222222  0.5588235294117647
  0.7777777777777778  0.1111111111111111  0.5294117647058824
  0.1111111111111111  0.1111111111111111  0.5294117647058824
  0.4444444444444444  0.7777777777777777  0.5073529411764705
  0.1111111111111111  0.7777777777777777  0.5073529411764705
  0.7777777777777778  0.4444444444444444  0.5073529411764705
  0.4444444444444444  0.4444444444444444  0.5073529411764705
  0.1111111111111111  0.4444444444444444  0.5073529411764705
  0.7777777777777778  0.1111111111111111  0.5073529411764705
  0.4444444444444444  0.1111111111111111  0.5073529411764705
  0.1111111111111111  0.1111111111111111  0.5073529411764705
  0.6666666666666666  0.6666666666666666  0.4999999999999999
  0.3333333333333333  0.6666666666666666  0.4999999999999999
  0.0000000000000000  0.6666666666666666  0.4999999999999999
  0.6666666666666666  0.3333333333333333  0.4999999999999999
  0.3333333333333333  0.3333333333333333  0.4999999999999999
  0.0000000000000000  0.3333333333333333  0.4999999999999999
  0.6666666666666666  0.0000000000000000  0.4999999999999999
  0.7777777777777778  0.7777777777777777  0.5073529411764705
  0.4444444444444444  0.1111111111111111  0.5294117647058824
  0.2222222222222222  0.2222222222222222  0.5147058823529411
  0.8888888888888887  0.2222222222222222  0.5147058823529411
  0.6666666666666666  0.6666666666666666  0.5220588235294116
  0.3333333333333333  0.6666666666666666  0.5220588235294116
  0.0000000000000000  0.6666666666666666  0.5220588235294116
  0.6666666666666666  0.3333333333333333  0.5220588235294116
  0.3333333333333333  0.3333333333333333  0.5220588235294116
  0.0000000000000000  0.3333333333333333  0.5220588235294116
  0.6666666666666666  0.0000000000000000  0.5220588235294116
  0.3333333333333333  0.0000000000000000  0.5220588235294116
  0.0000000000000000  0.0000000000000000  0.5220588235294116
  0.8888888888888888  0.8888888888888887  0.5147058823529411
  0.5555555555555556  0.8888888888888887  0.5147058823529411
  0.2222222222222223  0.8888888888888887  0.5147058823529411
  0.8888888888888887  0.5555555555555556  0.5147058823529411
  0.5555555555555555  0.5555555555555556  0.5147058823529411
  0.2222222222222222  0.5555555555555556  0.5147058823529411
  0.5555555555555556  0.2222222222222222  0.5147058823529411
  0.2222222222222222  0.5555555555555556  0.5588235294117647
  0.5555555555555555  0.5555555555555556  0.5588235294117647
  0.8888888888888887  0.5555555555555556  0.5588235294117647
  0.8888888888888887  0.5555555555555556  0.6029411764705882
  0.5555555555555555  0.5555555555555556  0.6029411764705882
  0.2222222222222222  0.5555555555555556  0.6029411764705882
  0.8888888888888887  0.2222222222222222  0.6029411764705882
  0.5555555555555556  0.2222222222222222  0.6029411764705882
  0.2222222222222222  0.2222222222222222  0.6029411764705882
  0.7777777777777778  0.7777777777777777  0.5955882352941174
  0.4444444444444444  0.7777777777777777  0.5955882352941174
  0.1111111111111111  0.7777777777777777  0.5955882352941174
  0.7777777777777778  0.4444444444444444  0.5955882352941174
  0.4444444444444444  0.4444444444444444  0.5955882352941174
  0.1111111111111111  0.4444444444444444  0.5955882352941174
  0.7777777777777778  0.1111111111111111  0.5955882352941174
  0.4444444444444444  0.1111111111111111  0.5955882352941174
  0.1111111111111111  0.1111111111111111  0.5955882352941174
  0.2222222222222223  0.8888888888888887  0.6029411764705882
  0.6666666666666666  0.6666666666666666  0.5882352941176471
  0.5555555555555556  0.8888888888888887  0.6029411764705882
  0.0000000000000000  0.0000000000000000  0.6102941176470587
  0.1111111111111111  0.7777777777777777  0.6176470588235294
  0.7777777777777778  0.4444444444444444  0.6176470588235294
  0.4444444444444444  0.4444444444444444  0.6176470588235294
  0.1111111111111111  0.4444444444444444  0.6176470588235294
  0.7777777777777778  0.1111111111111111  0.6176470588235294
  0.4444444444444444  0.1111111111111111  0.6176470588235294
  0.1111111111111111  0.1111111111111111  0.6176470588235294
  0.6666666666666666  0.6666666666666666  0.6102941176470587
  0.3333333333333333  0.6666666666666666  0.6102941176470587
  0.0000000000000000  0.6666666666666666  0.6102941176470587
  0.6666666666666666  0.3333333333333333  0.6102941176470587
  0.3333333333333333  0.3333333333333333  0.6102941176470587
  0.0000000000000000  0.3333333333333333  0.6102941176470587
  0.6666666666666666  0.0000000000000000  0.6102941176470587
  0.3333333333333333  0.0000000000000000  0.6102941176470587
  0.8888888888888888  0.8888888888888887  0.6029411764705882
  0.3333333333333333  0.6666666666666666  0.5882352941176471
  0.0000000000000000  0.6666666666666666  0.5882352941176471
  0.6666666666666666  0.3333333333333333  0.5882352941176471
  0.7777777777777778  0.1111111111111111  0.5735294117647058
  0.4444444444444444  0.1111111111111111  0.5735294117647058
  0.1111111111111111  0.1111111111111111  0.5735294117647058
  0.6666666666666666  0.6666666666666666  0.5661764705882352
  0.3333333333333333  0.6666666666666666  0.5661764705882352
  0.0000000000000000  0.6666666666666666  0.5661764705882352
  0.6666666666666666  0.3333333333333333  0.5661764705882352
  0.3333333333333333  0.3333333333333333  0.5661764705882352
  0.0000000000000000  0.3333333333333333  0.5661764705882352
  0.6666666666666666  0.0000000000000000  0.5661764705882352
  0.3333333333333333  0.0000000000000000  0.5661764705882352
  0.0000000000000000  0.0000000000000000  0.5661764705882352
  0.8888888888888888  0.8888888888888887  0.5588235294117647
  0.5555555555555556  0.8888888888888887  0.5588235294117647
  0.2222222222222223  0.8888888888888887  0.5588235294117647
  0.1111111111111111  0.4444444444444444  0.5735294117647058
  0.4444444444444444  0.4444444444444444  0.5735294117647058
  0.7777777777777778  0.4444444444444444  0.5735294117647058
  0.1111111111111111  0.7777777777777777  0.5735294117647058
  0.3333333333333333  0.3333333333333333  0.5882352941176471
  0.0000000000000000  0.3333333333333333  0.5882352941176471
  0.6666666666666666  0.0000000000000000  0.5882352941176471
  0.3333333333333333  0.0000000000000000  0.5882352941176471
  0.0000000000000000  0.0000000000000000  0.5882352941176471
  0.8888888888888888  0.8888888888888887  0.5808823529411763
  0.5555555555555556  0.8888888888888887  0.5808823529411763
  0.7777777777777778  0.7777777777777777  0.6176470588235294
  0.2222222222222223  0.8888888888888887  0.5808823529411763
  0.5555555555555555  0.5555555555555556  0.5808823529411763
  0.2222222222222222  0.5555555555555556  0.5808823529411763
  0.8888888888888887  0.2222222222222222  0.5808823529411763
  0.5555555555555556  0.2222222222222222  0.5808823529411763
  0.2222222222222222  0.2222222222222222  0.5808823529411763
  0.7777777777777778  0.7777777777777777  0.5735294117647058
  0.4444444444444444  0.7777777777777777  0.5735294117647058
  0.8888888888888887  0.5555555555555556  0.5808823529411763
  0.3333333333333333  0.0000000000000000  0.4999999999999999
  0.6666666666666666  0.6666666666666666  0.7426470588235292
  0.5555555555555556  0.2222222222222222  0.7500000000000000
  0.0000000000000000  0.0000000000000000  0.9191176470588234
  0.7777777777777778  0.7777777777777777  0.9117647058823530
  0.4444444444444444  0.7777777777777777  0.9117647058823530
  0.1111111111111111  0.7777777777777777  0.9117647058823530
  0.7777777777777778  0.4444444444444444  0.9117647058823530
  0.4444444444444444  0.4444444444444444  0.9117647058823530
  0.1111111111111111  0.4444444444444444  0.9117647058823530
  0.7777777777777778  0.1111111111111111  0.9117647058823530
  0.4444444444444444  0.1111111111111111  0.9117647058823530
  0.1111111111111111  0.1111111111111111  0.9117647058823530
  0.8888888888888888  0.8888888888888887  0.9044117647058824
  0.5555555555555556  0.8888888888888887  0.9044117647058824
  0.2222222222222223  0.8888888888888887  0.9044117647058824
  0.8888888888888887  0.5555555555555556  0.9044117647058824
  0.5555555555555555  0.5555555555555556  0.9044117647058824
  0.3333333333333333  0.0000000000000000  0.9191176470588234
  0.2222222222222222  0.5555555555555556  0.9044117647058824
  0.6666666666666666  0.0000000000000000  0.9191176470588234
  0.3333333333333333  0.3333333333333333  0.9191176470588234
  0.4444444444444444  0.1111111111111111  0.9338235294117646
  0.1111111111111111  0.1111111111111111  0.9338235294117646
  0.8888888888888888  0.8888888888888887  0.9264705882352940
  0.5555555555555556  0.8888888888888887  0.9264705882352940
  0.2222222222222223  0.8888888888888887  0.9264705882352940
  0.8888888888888887  0.5555555555555556  0.9264705882352940
  0.5555555555555555  0.5555555555555556  0.9264705882352940
  0.2222222222222222  0.5555555555555556  0.9264705882352940
  0.8888888888888887  0.2222222222222222  0.9264705882352940
  0.5555555555555556  0.2222222222222222  0.9264705882352940
  0.2222222222222222  0.2222222222222222  0.9264705882352940
  0.6666666666666666  0.6666666666666666  0.9191176470588234
  0.3333333333333333  0.6666666666666666  0.9191176470588234
  0.0000000000000000  0.6666666666666666  0.9191176470588234
  0.6666666666666666  0.3333333333333333  0.9191176470588234
  0.0000000000000000  0.3333333333333333  0.9191176470588234
  0.7777777777777778  0.1111111111111111  0.9338235294117646
  0.8888888888888887  0.2222222222222222  0.9044117647058824
  0.2222222222222222  0.2222222222222222  0.9044117647058824
  0.5555555555555556  0.8888888888888887  0.8823529411764706
  0.2222222222222223  0.8888888888888887  0.8823529411764706
  0.8888888888888887  0.5555555555555556  0.8823529411764706
  0.5555555555555555  0.5555555555555556  0.8823529411764706
  0.2222222222222222  0.5555555555555556  0.8823529411764706
  0.8888888888888887  0.2222222222222222  0.8823529411764706
  0.5555555555555556  0.2222222222222222  0.8823529411764706
  0.2222222222222222  0.2222222222222222  0.8823529411764706
  0.6666666666666666  0.6666666666666666  0.8749999999999998
  0.3333333333333333  0.6666666666666666  0.8749999999999998
  0.0000000000000000  0.6666666666666666  0.8749999999999998
  0.6666666666666666  0.3333333333333333  0.8749999999999998
  0.3333333333333333  0.3333333333333333  0.8749999999999998
  0.0000000000000000  0.3333333333333333  0.8749999999999998
  0.6666666666666666  0.0000000000000000  0.8749999999999998
  0.8888888888888888  0.8888888888888887  0.8823529411764706
  0.5555555555555556  0.2222222222222222  0.9044117647058824
  0.1111111111111111  0.1111111111111111  0.8897058823529410
  0.7777777777777778  0.1111111111111111  0.8897058823529410
  0.6666666666666666  0.6666666666666666  0.8970588235294118
  0.3333333333333333  0.6666666666666666  0.8970588235294118
  0.0000000000000000  0.6666666666666666  0.8970588235294118
  0.6666666666666666  0.3333333333333333  0.8970588235294118
  0.3333333333333333  0.3333333333333333  0.8970588235294118
  0.0000000000000000  0.3333333333333333  0.8970588235294118
  0.6666666666666666  0.0000000000000000  0.8970588235294118
  0.3333333333333333  0.0000000000000000  0.8970588235294118
  0.0000000000000000  0.0000000000000000  0.8970588235294118
  0.7777777777777778  0.7777777777777777  0.8897058823529410
  0.4444444444444444  0.7777777777777777  0.8897058823529410
  0.1111111111111111  0.7777777777777777  0.8897058823529410
  0.7777777777777778  0.4444444444444444  0.8897058823529410
  0.4444444444444444  0.4444444444444444  0.8897058823529410
  0.1111111111111111  0.4444444444444444  0.8897058823529410
  0.4444444444444444  0.1111111111111111  0.8897058823529410
  0.1111111111111111  0.4444444444444444  0.9338235294117646
  0.4444444444444444  0.4444444444444444  0.9338235294117646
  0.7777777777777778  0.4444444444444444  0.9338235294117646
  0.7777777777777778  0.4444444444444444  0.9779411764705881
  0.4444444444444444  0.4444444444444444  0.9779411764705881
  0.1111111111111111  0.4444444444444444  0.9779411764705881
  0.7777777777777778  0.1111111111111111  0.9779411764705881
  0.4444444444444444  0.1111111111111111  0.9779411764705881
  0.1111111111111111  0.1111111111111111  0.9779411764705881
  0.8888888888888888  0.8888888888888887  0.9705882352941175
  0.5555555555555556  0.8888888888888887  0.9705882352941175
  0.2222222222222223  0.8888888888888887  0.9705882352941175
  0.8888888888888887  0.5555555555555556  0.9705882352941175
  0.5555555555555555  0.5555555555555556  0.9705882352941175
  0.2222222222222222  0.5555555555555556  0.9705882352941175
  0.8888888888888887  0.2222222222222222  0.9705882352941175
  0.5555555555555556  0.2222222222222222  0.9705882352941175
  0.2222222222222222  0.2222222222222222  0.9705882352941175
  0.1111111111111111  0.7777777777777777  0.9779411764705881
  0.6666666666666666  0.6666666666666666  0.9632352941176471
  0.4444444444444444  0.7777777777777777  0.9779411764705881
  0.0000000000000000  0.0000000000000000  0.9852941176470588
  0.2222222222222223  0.8888888888888887  0.9926470588235293
  0.8888888888888887  0.5555555555555556  0.9926470588235293
  0.5555555555555555  0.5555555555555556  0.9926470588235293
  0.2222222222222222  0.5555555555555556  0.9926470588235293
  0.8888888888888887  0.2222222222222222  0.9926470588235293
  0.5555555555555556  0.2222222222222222  0.9926470588235293
  0.2222222222222222  0.2222222222222222  0.9926470588235293
  0.6666666666666666  0.6666666666666666  0.9852941176470588
  0.3333333333333333  0.6666666666666666  0.9852941176470588
  0.0000000000000000  0.6666666666666666  0.9852941176470588
  0.6666666666666666  0.3333333333333333  0.9852941176470588
  0.3333333333333333  0.3333333333333333  0.9852941176470588
  0.0000000000000000  0.3333333333333333  0.9852941176470588
  0.6666666666666666  0.0000000000000000  0.9852941176470588
  0.3333333333333333  0.0000000000000000  0.9852941176470588
  0.7777777777777778  0.7777777777777777  0.9779411764705881
  0.3333333333333333  0.6666666666666666  0.9632352941176471
  0.0000000000000000  0.6666666666666666  0.9632352941176471
  0.6666666666666666  0.3333333333333333  0.9632352941176471
  0.8888888888888887  0.2222222222222222  0.9485294117647058
  0.5555555555555556  0.2222222222222222  0.9485294117647058
  0.2222222222222222  0.2222222222222222  0.9485294117647058
  0.6666666666666666  0.6666666666666666  0.9411764705882353
  0.3333333333333333  0.6666666666666666  0.9411764705882353
  0.0000000000000000  0.6666666666666666  0.9411764705882353
  0.6666666666666666  0.3333333333333333  0.9411764705882353
  0.3333333333333333  0.3333333333333333  0.9411764705882353
  0.0000000000000000  0.3333333333333333  0.9411764705882353
  0.6666666666666666  0.0000000000000000  0.9411764705882353
  0.3333333333333333  0.0000000000000000  0.9411764705882353
  0.0000000000000000  0.0000000000000000  0.9411764705882353
  0.7777777777777778  0.7777777777777777  0.9338235294117646
  0.4444444444444444  0.7777777777777777  0.9338235294117646
  0.1111111111111111  0.7777777777777777  0.9338235294117646
  0.2222222222222222  0.5555555555555556  0.9485294117647058
  0.5555555555555555  0.5555555555555556  0.9485294117647058
  0.8888888888888887  0.5555555555555556  0.9485294117647058
  0.2222222222222223  0.8888888888888887  0.9485294117647058
  0.3333333333333333  0.3333333333333333  0.9632352941176471
  0.0000000000000000  0.3333333333333333  0.9632352941176471
  0.6666666666666666  0.0000000000000000  0.9632352941176471
  0.3333333333333333  0.0000000000000000  0.9632352941176471
  0.0000000000000000  0.0000000000000000  0.9632352941176471
  0.7777777777777778  0.7777777777777777  0.9558823529411765
  0.4444444444444444  0.7777777777777777  0.9558823529411765
  0.3333333333333333  0.0000000000000000  0.8749999999999998
  0.1111111111111111  0.7777777777777777  0.9558823529411765
  0.4444444444444444  0.4444444444444444  0.9558823529411765
  0.1111111111111111  0.4444444444444444  0.9558823529411765
  0.7777777777777778  0.1111111111111111  0.9558823529411765
  0.4444444444444444  0.1111111111111111  0.9558823529411765
  0.1111111111111111  0.1111111111111111  0.9558823529411765
  0.8888888888888888  0.8888888888888887  0.9485294117647058
  0.5555555555555556  0.8888888888888887  0.9485294117647058
  0.7777777777777778  0.4444444444444444  0.9558823529411765
  0.2222222222222222  0.2222222222222222  0.7500000000000000
  0.0000000000000000  0.0000000000000000  0.8749999999999998
  0.4444444444444444  0.7777777777777777  0.8676470588235294
  0.2222222222222222  0.2222222222222222  0.7941176470588235
  0.6666666666666666  0.6666666666666666  0.7867647058823528
  0.3333333333333333  0.6666666666666666  0.7867647058823528
  0.0000000000000000  0.6666666666666666  0.7867647058823528
  0.6666666666666666  0.3333333333333333  0.7867647058823528
  0.3333333333333333  0.3333333333333333  0.7867647058823528
  0.0000000000000000  0.3333333333333333  0.7867647058823528
  0.6666666666666666  0.0000000000000000  0.7867647058823528
  0.3333333333333333  0.0000000000000000  0.7867647058823528
  0.0000000000000000  0.0000000000000000  0.7867647058823528
  0.7777777777777778  0.7777777777777777  0.7794117647058824
  0.4444444444444444  0.7777777777777777  0.7794117647058824
  0.1111111111111111  0.7777777777777777  0.7794117647058824
  0.7777777777777778  0.4444444444444444  0.7794117647058824
  0.4444444444444444  0.4444444444444444  0.7794117647058824
  0.5555555555555556  0.2222222222222222  0.7941176470588235
  0.1111111111111111  0.4444444444444444  0.7794117647058824
  0.8888888888888887  0.2222222222222222  0.7941176470588235
  0.5555555555555555  0.5555555555555556  0.7941176470588235
  0.3333333333333333  0.0000000000000000  0.8088235294117647
  0.0000000000000000  0.0000000000000000  0.8088235294117647
  0.7777777777777778  0.7777777777777777  0.8014705882352939
  0.4444444444444444  0.7777777777777777  0.8014705882352939
  0.1111111111111111  0.7777777777777777  0.8014705882352939
  0.7777777777777778  0.4444444444444444  0.8014705882352939
  0.4444444444444444  0.4444444444444444  0.8014705882352939
  0.1111111111111111  0.4444444444444444  0.8014705882352939
  0.7777777777777778  0.1111111111111111  0.8014705882352939
  0.4444444444444444  0.1111111111111111  0.8014705882352939
  0.1111111111111111  0.1111111111111111  0.8014705882352939
  0.8888888888888888  0.8888888888888887  0.7941176470588235
  0.5555555555555556  0.8888888888888887  0.7941176470588235
  0.2222222222222223  0.8888888888888887  0.7941176470588235
  0.8888888888888887  0.5555555555555556  0.7941176470588235
  0.2222222222222222  0.5555555555555556  0.7941176470588235
  0.6666666666666666  0.0000000000000000  0.8088235294117647
  0.7777777777777778  0.1111111111111111  0.7794117647058824
  0.1111111111111111  0.1111111111111111  0.7794117647058824
  0.4444444444444444  0.7777777777777777  0.7573529411764705
  0.1111111111111111  0.7777777777777777  0.7573529411764705
  0.7777777777777778  0.4444444444444444  0.7573529411764705
  0.4444444444444444  0.4444444444444444  0.7573529411764705
  0.1111111111111111  0.4444444444444444  0.7573529411764705
  0.7777777777777778  0.1111111111111111  0.7573529411764705
  0.4444444444444444  0.1111111111111111  0.7573529411764705
  0.1111111111111111  0.1111111111111111  0.7573529411764705
  0.8888888888888888  0.8888888888888887  0.7500000000000000
  0.5555555555555556  0.8888888888888887  0.7500000000000000
  0.2222222222222223  0.8888888888888887  0.7500000000000000
  0.8888888888888887  0.5555555555555556  0.7500000000000000
  0.5555555555555555  0.5555555555555556  0.7500000000000000
  0.2222222222222222  0.5555555555555556  0.7500000000000000
  0.8888888888888887  0.2222222222222222  0.7500000000000000
  0.7777777777777778  0.7777777777777777  0.7573529411764705
  0.4444444444444444  0.1111111111111111  0.7794117647058824
  0.0000000000000000  0.0000000000000000  0.7647058823529411
  0.6666666666666666  0.0000000000000000  0.7647058823529411
  0.8888888888888888  0.8888888888888887  0.7720588235294116
  0.5555555555555556  0.8888888888888887  0.7720588235294116
  0.2222222222222223  0.8888888888888887  0.7720588235294116
  0.8888888888888887  0.5555555555555556  0.7720588235294116
  0.5555555555555555  0.5555555555555556  0.7720588235294116
  0.2222222222222222  0.5555555555555556  0.7720588235294116
  0.8888888888888887  0.2222222222222222  0.7720588235294116
  0.5555555555555556  0.2222222222222222  0.7720588235294116
  0.2222222222222222  0.2222222222222222  0.7720588235294116
  0.6666666666666666  0.6666666666666666  0.7647058823529411
  0.3333333333333333  0.6666666666666666  0.7647058823529411
  0.0000000000000000  0.6666666666666666  0.7647058823529411
  0.6666666666666666  0.3333333333333333  0.7647058823529411
  0.3333333333333333  0.3333333333333333  0.7647058823529411
  0.0000000000000000  0.3333333333333333  0.7647058823529411
  0.3333333333333333  0.0000000000000000  0.7647058823529411
  0.0000000000000000  0.3333333333333333  0.8088235294117647
  0.3333333333333333  0.3333333333333333  0.8088235294117647
  0.6666666666666666  0.3333333333333333  0.8088235294117647
  0.6666666666666666  0.3333333333333333  0.8529411764705882
  0.3333333333333333  0.3333333333333333  0.8529411764705882
  0.0000000000000000  0.3333333333333333  0.8529411764705882
  0.6666666666666666  0.0000000000000000  0.8529411764705882
  0.3333333333333333  0.0000000000000000  0.8529411764705882
  0.0000000000000000  0.0000000000000000  0.8529411764705882
  0.7777777777777778  0.7777777777777777  0.8455882352941174
  0.4444444444444444  0.7777777777777777  0.8455882352941174
  0.1111111111111111  0.7777777777777777  0.8455882352941174
  0.7777777777777778  0.4444444444444444  0.8455882352941174
  0.4444444444444444  0.4444444444444444  0.8455882352941174
  0.1111111111111111  0.4444444444444444  0.8455882352941174
  0.7777777777777778  0.1111111111111111  0.8455882352941174
  0.4444444444444444  0.1111111111111111  0.8455882352941174
  0.1111111111111111  0.1111111111111111  0.8455882352941174
  0.0000000000000000  0.6666666666666666  0.8529411764705882
  0.8888888888888888  0.8888888888888887  0.8382352941176471
  0.3333333333333333  0.6666666666666666  0.8529411764705882
  0.2222222222222222  0.2222222222222222  0.8602941176470587
  0.1111111111111111  0.7777777777777777  0.8676470588235294
  0.7777777777777778  0.4444444444444444  0.8676470588235294
  0.4444444444444444  0.4444444444444444  0.8676470588235294
  0.1111111111111111  0.4444444444444444  0.8676470588235294
  0.7777777777777778  0.1111111111111111  0.8676470588235294
  0.4444444444444444  0.1111111111111111  0.8676470588235294
  0.1111111111111111  0.1111111111111111  0.8676470588235294
  0.8888888888888888  0.8888888888888887  0.8602941176470587
  0.5555555555555556  0.8888888888888887  0.8602941176470587
  0.2222222222222223  0.8888888888888887  0.8602941176470587
  0.8888888888888887  0.5555555555555556  0.8602941176470587
  0.5555555555555555  0.5555555555555556  0.8602941176470587
  0.2222222222222222  0.5555555555555556  0.8602941176470587
  0.8888888888888887  0.2222222222222222  0.8602941176470587
  0.5555555555555556  0.2222222222222222  0.8602941176470587
  0.6666666666666666  0.6666666666666666  0.8529411764705882
  0.5555555555555556  0.8888888888888887  0.8382352941176471
  0.2222222222222223  0.8888888888888887  0.8382352941176471
  0.8888888888888887  0.5555555555555556  0.8382352941176471
  0.7777777777777778  0.1111111111111111  0.8235294117647058
  0.4444444444444444  0.1111111111111111  0.8235294117647058
  0.1111111111111111  0.1111111111111111  0.8235294117647058
  0.8888888888888888  0.8888888888888887  0.8161764705882352
  0.5555555555555556  0.8888888888888887  0.8161764705882352
  0.2222222222222223  0.8888888888888887  0.8161764705882352
  0.8888888888888887  0.5555555555555556  0.8161764705882352
  0.5555555555555555  0.5555555555555556  0.8161764705882352
  0.2222222222222222  0.5555555555555556  0.8161764705882352
  0.8888888888888887  0.2222222222222222  0.8161764705882352
  0.5555555555555556  0.2222222222222222  0.8161764705882352
  0.2222222222222222  0.2222222222222222  0.8161764705882352
  0.6666666666666666  0.6666666666666666  0.8088235294117647
  0.3333333333333333  0.6666666666666666  0.8088235294117647
  0.0000000000000000  0.6666666666666666  0.8088235294117647
  0.1111111111111111  0.4444444444444444  0.8235294117647058
  0.4444444444444444  0.4444444444444444  0.8235294117647058
  0.7777777777777778  0.4444444444444444  0.8235294117647058
  0.1111111111111111  0.7777777777777777  0.8235294117647058
  0.5555555555555555  0.5555555555555556  0.8382352941176471
  0.2222222222222222  0.5555555555555556  0.8382352941176471
  0.8888888888888887  0.2222222222222222  0.8382352941176471
  0.5555555555555556  0.2222222222222222  0.8382352941176471
  0.2222222222222222  0.2222222222222222  0.8382352941176471
  0.6666666666666666  0.6666666666666666  0.8308823529411763
  0.3333333333333333  0.6666666666666666  0.8308823529411763
  0.7777777777777778  0.7777777777777777  0.8676470588235294
  0.0000000000000000  0.6666666666666666  0.8308823529411763
  0.3333333333333333  0.3333333333333333  0.8308823529411763
  0.0000000000000000  0.3333333333333333  0.8308823529411763
  0.6666666666666666  0.0000000000000000  0.8308823529411763
  0.3333333333333333  0.0000000000000000  0.8308823529411763
  0.0000000000000000  0.0000000000000000  0.8308823529411763
  0.7777777777777778  0.7777777777777777  0.8235294117647058
  0.4444444444444444  0.7777777777777777  0.8235294117647058
  0.6666666666666666  0.3333333333333333  0.8308823529411763
  0.0000000000000000  0.0000000000000000  0.4999999999999999
  0.8888888888888888  0.8888888888888887  0.4926470588235294
  0.5555555555555556  0.8888888888888887  0.4926470588235294
  0.7777777777777778  0.7777777777777777  0.1617647058823529
  0.4444444444444444  0.7777777777777777  0.1617647058823529
  0.1111111111111111  0.7777777777777777  0.1617647058823529
  0.7777777777777778  0.4444444444444444  0.1617647058823529
  0.4444444444444444  0.4444444444444444  0.1617647058823529
  0.1111111111111111  0.4444444444444444  0.1617647058823529
  0.7777777777777778  0.1111111111111111  0.1617647058823529
  0.4444444444444444  0.1111111111111111  0.1617647058823529
  0.1111111111111111  0.1111111111111111  0.1617647058823529
  0.6666666666666666  0.6666666666666666  0.1544117647058824
  0.3333333333333333  0.6666666666666666  0.1544117647058824
  0.0000000000000000  0.6666666666666666  0.1544117647058824
  0.6666666666666666  0.3333333333333333  0.1544117647058824
  0.3333333333333333  0.3333333333333333  0.1544117647058824
  0.0000000000000000  0.3333333333333333  0.1544117647058824
  0.2222222222222222  0.2222222222222222  0.1691176470588235
  0.6666666666666666  0.0000000000000000  0.1544117647058824
  0.5555555555555556  0.2222222222222222  0.1691176470588235
  0.2222222222222222  0.5555555555555556  0.1691176470588235
  0.1111111111111111  0.1111111111111111  0.1838235294117647
  0.6666666666666666  0.6666666666666666  0.1764705882352941
  0.3333333333333333  0.6666666666666666  0.1764705882352941
  0.0000000000000000  0.6666666666666666  0.1764705882352941
  0.6666666666666666  0.3333333333333333  0.1764705882352941
  0.3333333333333333  0.3333333333333333  0.1764705882352941
  0.0000000000000000  0.3333333333333333  0.1764705882352941
  0.6666666666666666  0.0000000000000000  0.1764705882352941
  0.3333333333333333  0.0000000000000000  0.1764705882352941
  0.0000000000000000  0.0000000000000000  0.1764705882352941
  0.8888888888888888  0.8888888888888887  0.1691176470588235
  0.5555555555555556  0.8888888888888887  0.1691176470588235
  0.2222222222222223  0.8888888888888887  0.1691176470588235
  0.8888888888888887  0.5555555555555556  0.1691176470588235
  0.5555555555555555  0.5555555555555556  0.1691176470588235
  0.8888888888888887  0.2222222222222222  0.1691176470588235
  0.4444444444444444  0.1111111111111111  0.1838235294117647
  0.3333333333333333  0.0000000000000000  0.1544117647058824
  0.8888888888888888  0.8888888888888887  0.1470588235294118
  0.0000000000000000  0.6666666666666666  0.1323529411764706
  0.6666666666666666  0.3333333333333333  0.1323529411764706
  0.3333333333333333  0.3333333333333333  0.1323529411764706
  0.0000000000000000  0.3333333333333333  0.1323529411764706
  0.6666666666666666  0.0000000000000000  0.1323529411764706
  0.3333333333333333  0.0000000000000000  0.1323529411764706
  0.0000000000000000  0.0000000000000000  0.1323529411764706
  0.8888888888888888  0.8888888888888887  0.1250000000000000
  0.5555555555555556  0.8888888888888887  0.1250000000000000
  0.2222222222222223  0.8888888888888887  0.1250000000000000
  0.8888888888888887  0.5555555555555556  0.1250000000000000
  0.5555555555555555  0.5555555555555556  0.1250000000000000
  0.2222222222222222  0.5555555555555556  0.1250000000000000
  0.8888888888888887  0.2222222222222222  0.1250000000000000
  0.5555555555555556  0.2222222222222222  0.1250000000000000
  0.3333333333333333  0.6666666666666666  0.1323529411764706
  0.0000000000000000  0.0000000000000000  0.1544117647058824
  0.6666666666666666  0.6666666666666666  0.1323529411764706
  0.4444444444444444  0.1111111111111111  0.1397058823529412
  0.5555555555555556  0.8888888888888887  0.1470588235294118
  0.2222222222222223  0.8888888888888887  0.1470588235294118
  0.8888888888888887  0.5555555555555556  0.1470588235294118
  0.5555555555555555  0.5555555555555556  0.1470588235294118
  0.2222222222222222  0.5555555555555556  0.1470588235294118
  0.8888888888888887  0.2222222222222222  0.1470588235294118
  0.5555555555555556  0.2222222222222222  0.1470588235294118
  0.2222222222222222  0.2222222222222222  0.1470588235294118
  0.7777777777777778  0.7777777777777777  0.1397058823529412
  0.4444444444444444  0.7777777777777777  0.1397058823529412
  0.1111111111111111  0.7777777777777777  0.1397058823529412
  0.7777777777777778  0.4444444444444444  0.1397058823529412
  0.4444444444444444  0.4444444444444444  0.1397058823529412
  0.1111111111111111  0.4444444444444444  0.1397058823529412
  0.7777777777777778  0.1111111111111111  0.1397058823529412
  0.1111111111111111  0.1111111111111111  0.1397058823529412
  0.7777777777777778  0.1111111111111111  0.1838235294117647
  0.1111111111111111  0.4444444444444444  0.1838235294117647
  0.4444444444444444  0.4444444444444444  0.1838235294117647
  0.4444444444444444  0.4444444444444444  0.2279411764705883
  0.1111111111111111  0.4444444444444444  0.2279411764705883
  0.7777777777777778  0.1111111111111111  0.2279411764705883
  0.4444444444444444  0.1111111111111111  0.2279411764705883
  0.1111111111111111  0.1111111111111111  0.2279411764705883
  0.6666666666666666  0.6666666666666666  0.2205882352941176
  0.3333333333333333  0.6666666666666666  0.2205882352941176
  0.0000000000000000  0.6666666666666666  0.2205882352941176
  0.6666666666666666  0.3333333333333333  0.2205882352941176
  0.3333333333333333  0.3333333333333333  0.2205882352941176
  0.0000000000000000  0.3333333333333333  0.2205882352941176
  0.6666666666666666  0.0000000000000000  0.2205882352941176
  0.3333333333333333  0.0000000000000000  0.2205882352941176
  0.0000000000000000  0.0000000000000000  0.2205882352941176
  0.8888888888888888  0.8888888888888887  0.2132352941176471
  0.7777777777777778  0.4444444444444444  0.2279411764705883
  0.5555555555555556  0.8888888888888887  0.2132352941176471
  0.1111111111111111  0.7777777777777777  0.2279411764705883
  0.7777777777777778  0.7777777777777777  0.2279411764705883
  0.6666666666666666  0.3333333333333333  0.2426470588235294
  0.3333333333333333  0.3333333333333333  0.2426470588235294
  0.0000000000000000  0.3333333333333333  0.2426470588235294
  0.6666666666666666  0.0000000000000000  0.2426470588235294
  0.3333333333333333  0.0000000000000000  0.2426470588235294
  0.0000000000000000  0.0000000000000000  0.2426470588235294
  0.8888888888888888  0.8888888888888887  0.2352941176470588
  0.5555555555555556  0.8888888888888887  0.2352941176470588
  0.2222222222222223  0.8888888888888887  0.2352941176470588
  0.8888888888888887  0.5555555555555556  0.2352941176470588
  0.5555555555555555  0.5555555555555556  0.2352941176470588
  0.2222222222222222  0.5555555555555556  0.2352941176470588
  0.8888888888888887  0.2222222222222222  0.2352941176470588
  0.5555555555555556  0.2222222222222222  0.2352941176470588
  0.2222222222222222  0.2222222222222222  0.2352941176470588
  0.4444444444444444  0.7777777777777777  0.2279411764705883
  0.2222222222222223  0.8888888888888887  0.2132352941176471
  0.8888888888888887  0.5555555555555556  0.2132352941176471
  0.5555555555555555  0.5555555555555556  0.2132352941176471
  0.3333333333333333  0.0000000000000000  0.1985294117647059
  0.0000000000000000  0.0000000000000000  0.1985294117647059
  0.8888888888888888  0.8888888888888887  0.1911764705882353
  0.5555555555555556  0.8888888888888887  0.1911764705882353
  0.2222222222222223  0.8888888888888887  0.1911764705882353
  0.8888888888888887  0.5555555555555556  0.1911764705882353
  0.5555555555555555  0.5555555555555556  0.1911764705882353
  0.2222222222222222  0.5555555555555556  0.1911764705882353
  0.8888888888888887  0.2222222222222222  0.1911764705882353
  0.5555555555555556  0.2222222222222222  0.1911764705882353
  0.2222222222222222  0.2222222222222222  0.1911764705882353
  0.7777777777777778  0.7777777777777777  0.1838235294117647
  0.4444444444444444  0.7777777777777777  0.1838235294117647
  0.1111111111111111  0.7777777777777777  0.1838235294117647
  0.7777777777777778  0.4444444444444444  0.1838235294117647
  0.6666666666666666  0.0000000000000000  0.1985294117647059
  0.0000000000000000  0.3333333333333333  0.1985294117647059
  0.3333333333333333  0.3333333333333333  0.1985294117647059
  0.6666666666666666  0.3333333333333333  0.1985294117647059
  0.2222222222222222  0.5555555555555556  0.2132352941176471
  0.8888888888888887  0.2222222222222222  0.2132352941176471
  0.5555555555555556  0.2222222222222222  0.2132352941176471
  0.2222222222222222  0.2222222222222222  0.2132352941176471
  0.7777777777777778  0.7777777777777777  0.2058823529411765
  0.4444444444444444  0.7777777777777777  0.2058823529411765
  0.1111111111111111  0.7777777777777777  0.2058823529411765
  0.2222222222222222  0.2222222222222222  0.1250000000000000
  0.7777777777777778  0.4444444444444444  0.2058823529411765
  0.1111111111111111  0.4444444444444444  0.2058823529411765
  0.7777777777777778  0.1111111111111111  0.2058823529411765
  0.4444444444444444  0.1111111111111111  0.2058823529411765
  0.1111111111111111  0.1111111111111111  0.2058823529411765
  0.6666666666666666  0.6666666666666666  0.1985294117647059
  0.3333333333333333  0.6666666666666666  0.1985294117647059
  0.0000000000000000  0.6666666666666666  0.1985294117647059
  0.4444444444444444  0.4444444444444444  0.2058823529411765
  0.0000000000000000  0.6666666666666666  0.2426470588235294
  0.7777777777777778  0.7777777777777777  0.1176470588235294
  0.1111111111111111  0.7777777777777777  0.1176470588235294
  0.8888888888888888  0.8888888888888887  0.0367647058823529
  0.5555555555555556  0.8888888888888887  0.0367647058823529
  0.2222222222222223  0.8888888888888887  0.0367647058823529
  0.8888888888888887  0.5555555555555556  0.0367647058823529
  0.5555555555555555  0.5555555555555556  0.0367647058823529
  0.2222222222222222  0.5555555555555556  0.0367647058823529
  0.8888888888888887  0.2222222222222222  0.0367647058823529
  0.5555555555555556  0.2222222222222222  0.0367647058823529
  0.2222222222222222  0.2222222222222222  0.0367647058823529
  0.7777777777777778  0.7777777777777777  0.0294117647058824
  0.4444444444444444  0.7777777777777777  0.0294117647058824
  0.1111111111111111  0.7777777777777777  0.0294117647058824
  0.7777777777777778  0.4444444444444444  0.0294117647058824
  0.4444444444444444  0.4444444444444444  0.0294117647058824
  0.1111111111111111  0.4444444444444444  0.0294117647058824
  0.0000000000000000  0.0000000000000000  0.0441176470588235
  0.7777777777777778  0.1111111111111111  0.0294117647058824
  0.3333333333333333  0.0000000000000000  0.0441176470588235
  0.0000000000000000  0.3333333333333333  0.0441176470588235
  0.2222222222222222  0.2222222222222222  0.0588235294117647
  0.7777777777777778  0.7777777777777777  0.0514705882352941
  0.4444444444444444  0.7777777777777777  0.0514705882352941
  0.1111111111111111  0.7777777777777777  0.0514705882352941
  0.7777777777777778  0.4444444444444444  0.0514705882352941
  0.4444444444444444  0.4444444444444444  0.0514705882352941
  0.1111111111111111  0.4444444444444444  0.0514705882352941
  0.7777777777777778  0.1111111111111111  0.0514705882352941
  0.4444444444444444  0.1111111111111111  0.0514705882352941
  0.1111111111111111  0.1111111111111111  0.0514705882352941
  0.6666666666666666  0.6666666666666666  0.0441176470588235
  0.3333333333333333  0.6666666666666666  0.0441176470588235
  0.0000000000000000  0.6666666666666666  0.0441176470588235
  0.6666666666666666  0.3333333333333333  0.0441176470588235
  0.3333333333333333  0.3333333333333333  0.0441176470588235
  0.6666666666666666  0.0000000000000000  0.0441176470588235
  0.5555555555555556  0.2222222222222222  0.0588235294117647
  0.4444444444444444  0.1111111111111111  0.0294117647058824
  0.6666666666666666  0.6666666666666666  0.0220588235294118
  0.1111111111111111  0.7777777777777777  0.0073529411764706
  0.7777777777777778  0.4444444444444444  0.0073529411764706
  0.4444444444444444  0.4444444444444444  0.0073529411764706
  0.1111111111111111  0.4444444444444444  0.0073529411764706
  0.7777777777777778  0.1111111111111111  0.0073529411764706
  0.4444444444444444  0.1111111111111111  0.0073529411764706
  0.1111111111111111  0.1111111111111111  0.0073529411764706
  0.6666666666666666  0.6666666666666666  0.0000000000000000
  0.3333333333333333  0.6666666666666666  0.0000000000000000
  0.0000000000000000  0.6666666666666666  0.0000000000000000
  0.6666666666666666  0.3333333333333333  0.0000000000000000
  0.3333333333333333  0.3333333333333333  0.0000000000000000
  0.0000000000000000  0.3333333333333333  0.0000000000000000
  0.6666666666666666  0.0000000000000000  0.0000000000000000
  0.3333333333333333  0.0000000000000000  0.0000000000000000
  0.4444444444444444  0.7777777777777777  0.0073529411764706
  0.1111111111111111  0.1111111111111111  0.0294117647058824
  0.7777777777777778  0.7777777777777777  0.0073529411764706
  0.5555555555555556  0.2222222222222222  0.0147058823529412
  0.3333333333333333  0.6666666666666666  0.0220588235294118
  0.0000000000000000  0.6666666666666666  0.0220588235294118
  0.6666666666666666  0.3333333333333333  0.0220588235294118
  0.3333333333333333  0.3333333333333333  0.0220588235294118
  0.0000000000000000  0.3333333333333333  0.0220588235294118
  0.6666666666666666  0.0000000000000000  0.0220588235294118
  0.3333333333333333  0.0000000000000000  0.0220588235294118
  0.0000000000000000  0.0000000000000000  0.0220588235294118
  0.8888888888888888  0.8888888888888887  0.0147058823529412
  0.5555555555555556  0.8888888888888887  0.0147058823529412
  0.2222222222222223  0.8888888888888887  0.0147058823529412
  0.8888888888888887  0.5555555555555556  0.0147058823529412
  0.5555555555555555  0.5555555555555556  0.0147058823529412
  0.2222222222222222  0.5555555555555556  0.0147058823529412
  0.8888888888888887  0.2222222222222222  0.0147058823529412
  0.2222222222222222  0.2222222222222222  0.0147058823529412
  0.8888888888888887  0.2222222222222222  0.0588235294117647
  0.2222222222222222  0.5555555555555556  0.0588235294117647
  0.5555555555555555  0.5555555555555556  0.0588235294117647
  0.5555555555555555  0.5555555555555556  0.1029411764705882
  0.2222222222222222  0.5555555555555556  0.1029411764705882
  0.8888888888888887  0.2222222222222222  0.1029411764705882
  0.5555555555555556  0.2222222222222222  0.1029411764705882
  0.2222222222222222  0.2222222222222222  0.1029411764705882
  0.7777777777777778  0.7777777777777777  0.0955882352941176
  0.4444444444444444  0.7777777777777777  0.0955882352941176
  0.1111111111111111  0.7777777777777777  0.0955882352941176
  0.7777777777777778  0.4444444444444444  0.0955882352941176
  0.4444444444444444  0.4444444444444444  0.0955882352941176
  0.1111111111111111  0.4444444444444444  0.0955882352941176
  0.7777777777777778  0.1111111111111111  0.0955882352941176
  0.4444444444444444  0.1111111111111111  0.0955882352941176
  0.1111111111111111  0.1111111111111111  0.0955882352941176
  0.6666666666666666  0.6666666666666666  0.0882352941176471
  0.8888888888888887  0.5555555555555556  0.1029411764705882
  0.3333333333333333  0.6666666666666666  0.0882352941176471
  0.2222222222222223  0.8888888888888887  0.1029411764705882
  0.8888888888888888  0.8888888888888887  0.1029411764705882
  0.7777777777777778  0.4444444444444444  0.1176470588235294
  0.4444444444444444  0.4444444444444444  0.1176470588235294
  0.1111111111111111  0.4444444444444444  0.1176470588235294
  0.7777777777777778  0.1111111111111111  0.1176470588235294
  0.4444444444444444  0.1111111111111111  0.1176470588235294
  0.1111111111111111  0.1111111111111111  0.1176470588235294
  0.6666666666666666  0.6666666666666666  0.1102941176470588
  0.3333333333333333  0.6666666666666666  0.1102941176470588
  0.0000000000000000  0.6666666666666666  0.1102941176470588
  0.6666666666666666  0.3333333333333333  0.1102941176470588
  0.3333333333333333  0.3333333333333333  0.1102941176470588
  0.0000000000000000  0.3333333333333333  0.1102941176470588
  0.6666666666666666  0.0000000000000000  0.1102941176470588
  0.3333333333333333  0.0000000000000000  0.1102941176470588
  0.0000000000000000  0.0000000000000000  0.1102941176470588
  0.5555555555555556  0.8888888888888887  0.1029411764705882
  0.0000000000000000  0.6666666666666666  0.0882352941176471
  0.6666666666666666  0.3333333333333333  0.0882352941176471
  0.3333333333333333  0.3333333333333333  0.0882352941176471
  0.4444444444444444  0.1111111111111111  0.0735294117647059
  0.1111111111111111  0.1111111111111111  0.0735294117647059
  0.6666666666666666  0.6666666666666666  0.0661764705882353
  0.3333333333333333  0.6666666666666666  0.0661764705882353
  0.0000000000000000  0.6666666666666666  0.0661764705882353
  0.6666666666666666  0.3333333333333333  0.0661764705882353
  0.3333333333333333  0.3333333333333333  0.0661764705882353
  0.0000000000000000  0.3333333333333333  0.0661764705882353
  0.6666666666666666  0.0000000000000000  0.0661764705882353
  0.3333333333333333  0.0000000000000000  0.0661764705882353
  0.0000000000000000  0.0000000000000000  0.0661764705882353
  0.8888888888888888  0.8888888888888887  0.0588235294117647
  0.5555555555555556  0.8888888888888887  0.0588235294117647
  0.2222222222222223  0.8888888888888887  0.0588235294117647
  0.8888888888888887  0.5555555555555556  0.0588235294117647
  0.7777777777777778  0.1111111111111111  0.0735294117647059
  0.1111111111111111  0.4444444444444444  0.0735294117647059
  0.4444444444444444  0.4444444444444444  0.0735294117647059
  0.7777777777777778  0.4444444444444444  0.0735294117647059
  0.0000000000000000  0.3333333333333333  0.0882352941176471
  0.6666666666666666  0.0000000000000000  0.0882352941176471
  0.3333333333333333  0.0000000000000000  0.0882352941176471
  0.0000000000000000  0.0000000000000000  0.0882352941176471
  0.8888888888888888  0.8888888888888887  0.0808823529411765
  0.5555555555555556  0.8888888888888887  0.0808823529411765
  0.2222222222222223  0.8888888888888887  0.0808823529411765
  0.4444444444444444  0.7777777777777777  0.1176470588235294
  0.8888888888888887  0.5555555555555556  0.0808823529411765
  0.2222222222222222  0.5555555555555556  0.0808823529411765
  0.8888888888888887  0.2222222222222222  0.0808823529411765
  0.5555555555555556  0.2222222222222222  0.0808823529411765
  0.2222222222222222  0.2222222222222222  0.0808823529411765
  0.7777777777777778  0.7777777777777777  0.0735294117647059
  0.4444444444444444  0.7777777777777777  0.0735294117647059
  0.1111111111111111  0.7777777777777777  0.0735294117647059
  0.5555555555555555  0.5555555555555556  0.0808823529411765
  0.3333333333333333  0.6666666666666666  0.2426470588235294
  0.6666666666666666  0.6666666666666666  0.2426470588235294
  0.2222222222222222  0.2222222222222222  0.2500000000000000
  0.0000000000000000  0.0000000000000000  0.4191176470588235
  0.7777777777777778  0.7777777777777777  0.4117647058823529
  0.4444444444444444  0.7777777777777777  0.4117647058823529
  0.1111111111111111  0.7777777777777777  0.4117647058823529
  0.7777777777777778  0.4444444444444444  0.4117647058823529
  0.4444444444444444  0.4444444444444444  0.4117647058823529
  0.1111111111111111  0.4444444444444444  0.4117647058823529
  0.7777777777777778  0.1111111111111111  0.4117647058823529
  0.4444444444444444  0.1111111111111111  0.4117647058823529
  0.1111111111111111  0.1111111111111111  0.4117647058823529
  0.8888888888888888  0.8888888888888887  0.4044117647058824
  0.5555555555555556  0.8888888888888887  0.4044117647058824
  0.2222222222222223  0.8888888888888887  0.4044117647058824
  0.8888888888888887  0.5555555555555556  0.4044117647058824
  0.5555555555555555  0.5555555555555556  0.4044117647058824
  0.3333333333333333  0.0000000000000000  0.4191176470588235
  0.2222222222222222  0.5555555555555556  0.4044117647058824
  0.6666666666666666  0.0000000000000000  0.4191176470588235
  0.3333333333333333  0.3333333333333333  0.4191176470588235
  0.4444444444444444  0.1111111111111111  0.4338235294117647
  0.1111111111111111  0.1111111111111111  0.4338235294117647
  0.8888888888888888  0.8888888888888887  0.4264705882352941
  0.5555555555555556  0.8888888888888887  0.4264705882352941
  0.2222222222222223  0.8888888888888887  0.4264705882352941
  0.8888888888888887  0.5555555555555556  0.4264705882352941
  0.5555555555555555  0.5555555555555556  0.4264705882352941
  0.2222222222222222  0.5555555555555556  0.4264705882352941
  0.8888888888888887  0.2222222222222222  0.4264705882352941
  0.5555555555555556  0.2222222222222222  0.4264705882352941
  0.2222222222222222  0.2222222222222222  0.4264705882352941
  0.6666666666666666  0.6666666666666666  0.4191176470588235
  0.3333333333333333  0.6666666666666666  0.4191176470588235
  0.0000000000000000  0.6666666666666666  0.4191176470588235
  0.6666666666666666  0.3333333333333333  0.4191176470588235
  0.0000000000000000  0.3333333333333333  0.4191176470588235
  0.7777777777777778  0.1111111111111111  0.4338235294117647
  0.8888888888888887  0.2222222222222222  0.4044117647058824
  0.2222222222222222  0.2222222222222222  0.4044117647058824
  0.5555555555555556  0.8888888888888887  0.3823529411764706
  0.2222222222222223  0.8888888888888887  0.3823529411764706
  0.8888888888888887  0.5555555555555556  0.3823529411764706
  0.5555555555555555  0.5555555555555556  0.3823529411764706
  0.2222222222222222  0.5555555555555556  0.3823529411764706
  0.8888888888888887  0.2222222222222222  0.3823529411764706
  0.5555555555555556  0.2222222222222222  0.3823529411764706
  0.2222222222222222  0.2222222222222222  0.3823529411764706
  0.6666666666666666  0.6666666666666666  0.3750000000000000
  0.3333333333333333  0.6666666666666666  0.3750000000000000
  0.0000000000000000  0.6666666666666666  0.3750000000000000
  0.6666666666666666  0.3333333333333333  0.3750000000000000
  0.3333333333333333  0.3333333333333333  0.3750000000000000
  0.0000000000000000  0.3333333333333333  0.3750000000000000
  0.6666666666666666  0.0000000000000000  0.3750000000000000
  0.8888888888888888  0.8888888888888887  0.3823529411764706
  0.5555555555555556  0.2222222222222222  0.4044117647058824
  0.1111111111111111  0.1111111111111111  0.3897058823529412
  0.7777777777777778  0.1111111111111111  0.3897058823529412
  0.6666666666666666  0.6666666666666666  0.3970588235294117
  0.3333333333333333  0.6666666666666666  0.3970588235294117
  0.0000000000000000  0.6666666666666666  0.3970588235294117
  0.6666666666666666  0.3333333333333333  0.3970588235294117
  0.3333333333333333  0.3333333333333333  0.3970588235294117
  0.0000000000000000  0.3333333333333333  0.3970588235294117
  0.6666666666666666  0.0000000000000000  0.3970588235294117
  0.3333333333333333  0.0000000000000000  0.3970588235294117
  0.0000000000000000  0.0000000000000000  0.3970588235294117
  0.7777777777777778  0.7777777777777777  0.3897058823529412
  0.4444444444444444  0.7777777777777777  0.3897058823529412
  0.1111111111111111  0.7777777777777777  0.3897058823529412
  0.7777777777777778  0.4444444444444444  0.3897058823529412
  0.4444444444444444  0.4444444444444444  0.3897058823529412
  0.1111111111111111  0.4444444444444444  0.3897058823529412
  0.4444444444444444  0.1111111111111111  0.3897058823529412
  0.1111111111111111  0.4444444444444444  0.4338235294117647
  0.4444444444444444  0.4444444444444444  0.4338235294117647
  0.7777777777777778  0.4444444444444444  0.4338235294117647
  0.7777777777777778  0.4444444444444444  0.4779411764705883
  0.4444444444444444  0.4444444444444444  0.4779411764705883
  0.1111111111111111  0.4444444444444444  0.4779411764705883
  0.7777777777777778  0.1111111111111111  0.4779411764705883
  0.4444444444444444  0.1111111111111111  0.4779411764705883
  0.1111111111111111  0.1111111111111111  0.4779411764705883
  0.8888888888888888  0.8888888888888887  0.4705882352941176
  0.5555555555555556  0.8888888888888887  0.4705882352941176
  0.2222222222222223  0.8888888888888887  0.4705882352941176
  0.8888888888888887  0.5555555555555556  0.4705882352941176
  0.5555555555555555  0.5555555555555556  0.4705882352941176
  0.2222222222222222  0.5555555555555556  0.4705882352941176
  0.8888888888888887  0.2222222222222222  0.4705882352941176
  0.5555555555555556  0.2222222222222222  0.4705882352941176
  0.2222222222222222  0.2222222222222222  0.4705882352941176
  0.1111111111111111  0.7777777777777777  0.4779411764705883
  0.6666666666666666  0.6666666666666666  0.4632352941176470
  0.4444444444444444  0.7777777777777777  0.4779411764705883
  0.0000000000000000  0.0000000000000000  0.4852941176470588
  0.2222222222222223  0.8888888888888887  0.4926470588235294
  0.8888888888888887  0.5555555555555556  0.4926470588235294
  0.5555555555555555  0.5555555555555556  0.4926470588235294
  0.2222222222222222  0.5555555555555556  0.4926470588235294
  0.8888888888888887  0.2222222222222222  0.4926470588235294
  0.5555555555555556  0.2222222222222222  0.4926470588235294
  0.2222222222222222  0.2222222222222222  0.4926470588235294
  0.6666666666666666  0.6666666666666666  0.4852941176470588
  0.3333333333333333  0.6666666666666666  0.4852941176470588
  0.0000000000000000  0.6666666666666666  0.4852941176470588
  0.6666666666666666  0.3333333333333333  0.4852941176470588
  0.3333333333333333  0.3333333333333333  0.4852941176470588
  0.0000000000000000  0.3333333333333333  0.4852941176470588
  0.6666666666666666  0.0000000000000000  0.4852941176470588
  0.3333333333333333  0.0000000000000000  0.4852941176470588
  0.7777777777777778  0.7777777777777777  0.4779411764705883
  0.3333333333333333  0.6666666666666666  0.4632352941176470
  0.0000000000000000  0.6666666666666666  0.4632352941176470
  0.6666666666666666  0.3333333333333333  0.4632352941176470
  0.8888888888888887  0.2222222222222222  0.4485294117647059
  0.5555555555555556  0.2222222222222222  0.4485294117647059
  0.2222222222222222  0.2222222222222222  0.4485294117647059
  0.6666666666666666  0.6666666666666666  0.4411764705882353
  0.3333333333333333  0.6666666666666666  0.4411764705882353
  0.0000000000000000  0.6666666666666666  0.4411764705882353
  0.6666666666666666  0.3333333333333333  0.4411764705882353
  0.3333333333333333  0.3333333333333333  0.4411764705882353
  0.0000000000000000  0.3333333333333333  0.4411764705882353
  0.6666666666666666  0.0000000000000000  0.4411764705882353
  0.3333333333333333  0.0000000000000000  0.4411764705882353
  0.0000000000000000  0.0000000000000000  0.4411764705882353
  0.7777777777777778  0.7777777777777777  0.4338235294117647
  0.4444444444444444  0.7777777777777777  0.4338235294117647
  0.1111111111111111  0.7777777777777777  0.4338235294117647
  0.2222222222222222  0.5555555555555556  0.4485294117647059
  0.5555555555555555  0.5555555555555556  0.4485294117647059
  0.8888888888888887  0.5555555555555556  0.4485294117647059
  0.2222222222222223  0.8888888888888887  0.4485294117647059
  0.3333333333333333  0.3333333333333333  0.4632352941176470
  0.0000000000000000  0.3333333333333333  0.4632352941176470
  0.6666666666666666  0.0000000000000000  0.4632352941176470
  0.3333333333333333  0.0000000000000000  0.4632352941176470
  0.0000000000000000  0.0000000000000000  0.4632352941176470
  0.7777777777777778  0.7777777777777777  0.4558823529411765
  0.4444444444444444  0.7777777777777777  0.4558823529411765
  0.3333333333333333  0.0000000000000000  0.3750000000000000
  0.1111111111111111  0.7777777777777777  0.4558823529411765
  0.4444444444444444  0.4444444444444444  0.4558823529411765
  0.1111111111111111  0.4444444444444444  0.4558823529411765
  0.7777777777777778  0.1111111111111111  0.4558823529411765
  0.4444444444444444  0.1111111111111111  0.4558823529411765
  0.1111111111111111  0.1111111111111111  0.4558823529411765
  0.8888888888888888  0.8888888888888887  0.4485294117647059
  0.5555555555555556  0.8888888888888887  0.4485294117647059
  0.7777777777777778  0.4444444444444444  0.4558823529411765
  0.0000000000000000  0.0000000000000000  0.3750000000000000
  0.7777777777777778  0.7777777777777777  0.3676470588235294
  0.4444444444444444  0.7777777777777777  0.3676470588235294
  0.2222222222222222  0.2222222222222222  0.2941176470588235
  0.6666666666666666  0.6666666666666666  0.2867647058823529
  0.3333333333333333  0.6666666666666666  0.2867647058823529
  0.0000000000000000  0.6666666666666666  0.2867647058823529
  0.6666666666666666  0.3333333333333333  0.2867647058823529
  0.3333333333333333  0.3333333333333333  0.2867647058823529
  0.0000000000000000  0.3333333333333333  0.2867647058823529
  0.6666666666666666  0.0000000000000000  0.2867647058823529
  0.3333333333333333  0.0000000000000000  0.2867647058823529
  0.0000000000000000  0.0000000000000000  0.2867647058823529
  0.7777777777777778  0.7777777777777777  0.2794117647058824
  0.4444444444444444  0.7777777777777777  0.2794117647058824
  0.1111111111111111  0.7777777777777777  0.2794117647058824
  0.7777777777777778  0.4444444444444444  0.2794117647058824
  0.4444444444444444  0.4444444444444444  0.2794117647058824
  0.5555555555555556  0.2222222222222222  0.2941176470588235
  0.1111111111111111  0.4444444444444444  0.2794117647058824
  0.8888888888888887  0.2222222222222222  0.2941176470588235
  0.5555555555555555  0.5555555555555556  0.2941176470588235
  0.3333333333333333  0.0000000000000000  0.3088235294117647
  0.0000000000000000  0.0000000000000000  0.3088235294117647
  0.7777777777777778  0.7777777777777777  0.3014705882352941
  0.4444444444444444  0.7777777777777777  0.3014705882352941
  0.1111111111111111  0.7777777777777777  0.3014705882352941
  0.7777777777777778  0.4444444444444444  0.3014705882352941
  0.4444444444444444  0.4444444444444444  0.3014705882352941
  0.1111111111111111  0.4444444444444444  0.3014705882352941
  0.7777777777777778  0.1111111111111111  0.3014705882352941
  0.4444444444444444  0.1111111111111111  0.3014705882352941
  0.1111111111111111  0.1111111111111111  0.3014705882352941
  0.8888888888888888  0.8888888888888887  0.2941176470588235
  0.5555555555555556  0.8888888888888887  0.2941176470588235
  0.2222222222222223  0.8888888888888887  0.2941176470588235
  0.8888888888888887  0.5555555555555556  0.2941176470588235
  0.2222222222222222  0.5555555555555556  0.2941176470588235
  0.7777777777777778  0.1111111111111111  0.2794117647058824
  0.4444444444444444  0.1111111111111111  0.2794117647058824
  0.1111111111111111  0.1111111111111111  0.2794117647058824
  0.1111111111111111  0.7777777777777777  0.2573529411764706
  0.7777777777777778  0.4444444444444444  0.2573529411764706
  0.4444444444444444  0.4444444444444444  0.2573529411764706
  0.1111111111111111  0.4444444444444444  0.2573529411764706
  0.7777777777777778  0.1111111111111111  0.2573529411764706
  0.4444444444444444  0.1111111111111111  0.2573529411764706
  0.1111111111111111  0.1111111111111111  0.2573529411764706
  0.8888888888888888  0.8888888888888887  0.2500000000000000
  0.5555555555555556  0.8888888888888887  0.2500000000000000
  0.2222222222222223  0.8888888888888887  0.2500000000000000
  0.8888888888888887  0.5555555555555556  0.2500000000000000
  0.5555555555555555  0.5555555555555556  0.2500000000000000
  0.2222222222222222  0.5555555555555556  0.2500000000000000
  0.8888888888888887  0.2222222222222222  0.2500000000000000
  0.5555555555555556  0.2222222222222222  0.2500000000000000
  0.4444444444444444  0.7777777777777777  0.2573529411764706
  0.7777777777777778  0.7777777777777777  0.2573529411764706
  0.0000000000000000  0.0000000000000000  0.2647058823529412
  0.3333333333333333  0.0000000000000000  0.2647058823529412
  0.8888888888888888  0.8888888888888887  0.2720588235294117
  0.5555555555555556  0.8888888888888887  0.2720588235294117
  0.2222222222222223  0.8888888888888887  0.2720588235294117
  0.8888888888888887  0.5555555555555556  0.2720588235294117
  0.5555555555555555  0.5555555555555556  0.2720588235294117
  0.2222222222222222  0.5555555555555556  0.2720588235294117
  0.8888888888888887  0.2222222222222222  0.2720588235294117
  0.6666666666666666  0.0000000000000000  0.3088235294117647
  0.5555555555555556  0.2222222222222222  0.2720588235294117
  0.6666666666666666  0.6666666666666666  0.2647058823529412
  0.3333333333333333  0.6666666666666666  0.2647058823529412
  0.0000000000000000  0.6666666666666666  0.2647058823529412
  0.6666666666666666  0.3333333333333333  0.2647058823529412
  0.3333333333333333  0.3333333333333333  0.2647058823529412
  0.0000000000000000  0.3333333333333333  0.2647058823529412
  0.6666666666666666  0.0000000000000000  0.2647058823529412
  0.2222222222222222  0.2222222222222222  0.2720588235294117
  0.5555555555555556  0.8888888888888887  0.9926470588235293
  0.0000000000000000  0.3333333333333333  0.3088235294117647
  0.6666666666666666  0.3333333333333333  0.3088235294117647
  0.6666666666666666  0.3333333333333333  0.3529411764705882
  0.3333333333333333  0.3333333333333333  0.3529411764705882
  0.0000000000000000  0.3333333333333333  0.3529411764705882
  0.6666666666666666  0.0000000000000000  0.3529411764705882
  0.3333333333333333  0.0000000000000000  0.3529411764705882
  0.0000000000000000  0.0000000000000000  0.3529411764705882
  0.7777777777777778  0.7777777777777777  0.3455882352941176
  0.4444444444444444  0.7777777777777777  0.3455882352941176
  0.1111111111111111  0.7777777777777777  0.3455882352941176
  0.7777777777777778  0.4444444444444444  0.3455882352941176
  0.4444444444444444  0.4444444444444444  0.3455882352941176
  0.1111111111111111  0.4444444444444444  0.3455882352941176
  0.7777777777777778  0.1111111111111111  0.3455882352941176
  0.4444444444444444  0.1111111111111111  0.3455882352941176
  0.1111111111111111  0.1111111111111111  0.3455882352941176
  0.0000000000000000  0.6666666666666666  0.3529411764705882
  0.8888888888888888  0.8888888888888887  0.3382352941176471
  0.3333333333333333  0.6666666666666666  0.3529411764705882
  0.2222222222222222  0.2222222222222222  0.3602941176470588
  0.1111111111111111  0.7777777777777777  0.3676470588235294
  0.7777777777777778  0.4444444444444444  0.3676470588235294
  0.4444444444444444  0.4444444444444444  0.3676470588235294
  0.1111111111111111  0.4444444444444444  0.3676470588235294
  0.7777777777777778  0.1111111111111111  0.3676470588235294
  0.4444444444444444  0.1111111111111111  0.3676470588235294
  0.1111111111111111  0.1111111111111111  0.3676470588235294
  0.8888888888888888  0.8888888888888887  0.3602941176470588
  0.5555555555555556  0.8888888888888887  0.3602941176470588
  0.2222222222222223  0.8888888888888887  0.3602941176470588
  0.8888888888888887  0.5555555555555556  0.3602941176470588
  0.5555555555555555  0.5555555555555556  0.3602941176470588
  0.2222222222222222  0.5555555555555556  0.3602941176470588
  0.8888888888888887  0.2222222222222222  0.3602941176470588
  0.5555555555555556  0.2222222222222222  0.3602941176470588
  0.6666666666666666  0.6666666666666666  0.3529411764705882
  0.5555555555555556  0.8888888888888887  0.3382352941176471
  0.2222222222222223  0.8888888888888887  0.3382352941176471
  0.8888888888888887  0.5555555555555556  0.3382352941176471
  0.7777777777777778  0.1111111111111111  0.3235294117647059
  0.4444444444444444  0.1111111111111111  0.3235294117647059
  0.1111111111111111  0.1111111111111111  0.3235294117647059
  0.8888888888888888  0.8888888888888887  0.3161764705882353
  0.5555555555555556  0.8888888888888887  0.3161764705882353
  0.2222222222222223  0.8888888888888887  0.3161764705882353
  0.8888888888888887  0.5555555555555556  0.3161764705882353
  0.5555555555555555  0.5555555555555556  0.3161764705882353
  0.2222222222222222  0.5555555555555556  0.3161764705882353
  0.8888888888888887  0.2222222222222222  0.3161764705882353
  0.5555555555555556  0.2222222222222222  0.3161764705882353
  0.2222222222222222  0.2222222222222222  0.3161764705882353
  0.6666666666666666  0.6666666666666666  0.3088235294117647
  0.3333333333333333  0.6666666666666666  0.3088235294117647
  0.0000000000000000  0.6666666666666666  0.3088235294117647
  0.1111111111111111  0.4444444444444444  0.3235294117647059
  0.4444444444444444  0.4444444444444444  0.3235294117647059
  0.7777777777777778  0.4444444444444444  0.3235294117647059
  0.1111111111111111  0.7777777777777777  0.3235294117647059
  0.5555555555555555  0.5555555555555556  0.3382352941176471
  0.2222222222222222  0.5555555555555556  0.3382352941176471
  0.8888888888888887  0.2222222222222222  0.3382352941176471
  0.5555555555555556  0.2222222222222222  0.3382352941176471
  0.2222222222222222  0.2222222222222222  0.3382352941176471
  0.6666666666666666  0.6666666666666666  0.3308823529411765
  0.3333333333333333  0.6666666666666666  0.3308823529411765
  0.3333333333333333  0.3333333333333333  0.3088235294117647
  0.0000000000000000  0.6666666666666666  0.3308823529411765
  0.3333333333333333  0.3333333333333333  0.3308823529411765
  0.0000000000000000  0.3333333333333333  0.3308823529411765
  0.6666666666666666  0.0000000000000000  0.3308823529411765
  0.3333333333333333  0.0000000000000000  0.3308823529411765
  0.0000000000000000  0.0000000000000000  0.3308823529411765
  0.7777777777777778  0.7777777777777777  0.3235294117647059
  0.4444444444444444  0.7777777777777777  0.3235294117647059
  0.6666666666666666  0.3333333333333333  0.3308823529411765
  0.8888888888888888  0.8888888888888887  0.9926470588235293
