Cu
 1.0000000000000000
     7.6685730419681093    0.0000000000000000    0.0000000000000000
     3.8342865209840546    6.6411790651208911    0.0000000000000000
     0.0000000000000000    0.0000000000000000   25.0450909090909093
 Cu 
 108
Direct
  0.1091602056049133  0.1120309113044592  0.0002065914561326
  0.3153293594431424  0.6665554109223478  0.6674580070813967
  0.9858151125317522  0.3317411663828451  0.6673111798579445
  0.6518667651939233  0.3341419913491490  0.6674003645773662
  0.3156850441727314  0.3313027069382209  0.6666876238914690
  0.9817307907762866 -0.0011036102087333  0.6667876592816199
  0.6512257343166429 -0.0004286388687225  0.6659103649399500
  0.3186724254664158 -0.0000667098268484  0.6665428937104667
  0.8705566009544803  0.8887303511616150  0.5831573603719650
  0.5377050241576367  0.8879396073565896  0.5833993473467100
  0.2074705441154148  0.8859067787151874  0.5835296458105216
  0.8691941731219518  0.5581086062452431  0.5829544730275644
  0.5416903282921243  0.5550812661627366  0.5836897853521287
  0.2039903029861583  0.5550456167674531  0.5832331161705970
  0.8735710663998295  0.2236666849241627  0.5839666266656853
  0.5363769495903121  0.2246229930655716  0.5839489499716659
  0.2058021092302693  0.2192343939662229  0.5833577948793002
  0.0958103135414513  0.7780559809923225  0.5003519859846695
  0.7614062018891664  0.7760016269165534  0.5000101265970012
  0.4252488753796383  0.7790165247927483  0.5006734924789652
  0.0945442026444784  0.4456748033801129  0.5000388005495634
  0.7625851602765772  0.4440719979995547  0.4995952595140916
  0.4284166777360353  0.4456422009581911  0.5001887625907832
  0.0938667735157630  0.1128536275267536  0.5006831978623463
  0.6479232607437471  0.6679353931229126  0.6660141326441035
  0.7614218778782420  0.1094650679711067  0.5000094517078283
  0.9838899232322559  0.6656492775520908  0.6668780457434423
  0.7626995423339435  0.1101526744943364  0.7507290327996666
  0.3192382372866752  0.6659334239594394  0.9162582824474880
  0.9860340917622851  0.3318283764234966  0.9167548111726254
  0.6485350498464588  0.3345757791229920  0.9167330819151234
  0.3202623070823176  0.3312686938977579  0.9169338899705783
  0.9850215619459567 -0.0016363612371321  0.9161567694683040
  0.6493441499970264 -0.0018204712351169  0.9169836620926572
  0.3141810238844714  0.0015811707759376  0.9161419204425676
  0.8720463170140250  0.8912309794947307  0.8338827096347763
  0.5394271424686177  0.8909926185745867  0.8331114917704037
  0.2081646399375876  0.8878109624420759  0.8339145067504325
  0.8753907146622095  0.5528944243732877  0.8335540490011125
  0.5383565125477532  0.5531880898221860  0.8332235355668226
  0.2067887516518861  0.5536826351534262  0.8340657901203589
  0.8703412185742400  0.2215758224212619  0.8332717786096191
  0.5395860239387056  0.2192972628541592  0.8333176035402661
  0.2083917805398688  0.2204802442224856  0.8339042099674751
  0.0963518694750676  0.7771728211119636  0.7495538156159686
  0.7640361251668556  0.7760757139012423  0.7494445488302474
  0.4283400358220029  0.7774883314843379  0.7500093878458302
  0.0926083597514417  0.4461695013991955  0.7504734199481949
  0.7621088542309361  0.4445893808189064  0.7505644507721582
  0.4282730000521212  0.4436604470518326  0.7502491796187061
  0.0942214427599556  0.1087457196784718  0.7504741753954007
  0.4304248562581098  0.1108768748115138  0.7507563853508032
  0.4266713535397069  0.1096247879735441  0.5004331280153160
  0.6663872106244969  0.6639247308821589  0.4158841340864579
  0.3331839463648543  0.6684069679548879  0.4171641810111730
  0.6675600713877753  0.3326306646960943  0.1673299190791068
  0.3329649280728362  0.3306918264082607  0.1659462361912103
 -0.0023762537188168  0.3357010214148186  0.1664559117550057
  0.6684477557610902 -0.0004286081447246  0.1668738922140298
  0.3337087342013809  0.0009305191187585  0.1666381165906048
  0.0015592880090143 -0.0027389520692638  0.1670955302839612
  0.5566807387028641  0.8892597715759534  0.0834930325194185
  0.2210732412237975  0.8897910383496271  0.0825415779811268
  0.8894989664179677  0.8888306668716718  0.0832156252721184
  0.5532072287695183  0.5578117434635695  0.0833349412034270
  0.2215274549891646  0.5578296874010747  0.0834631897376587
  0.8922031590437780  0.5532338733065463  0.0838231240861603
  0.5533918859628505  0.2223138687759333  0.0835135622632257
  0.2218839819166428  0.2226718204339432  0.0831683372997179
  0.8863495216506080  0.2241629361796948  0.0832881487236682
  0.7770668222301548  0.7804514103283714 -0.0003478177229121
  0.4429608253005555  0.7798274598418422 -0.0000731053192086
  0.1121790483577544  0.7783830409782302 -0.0001274785185092
  0.7790746729381157  0.4461381901742414 -0.0003158314666237
  0.4449949051059595  0.4442479165933576  0.0002316111155223
  0.1090054772566611  0.4469971968462546  0.0006273837501989
  0.7775872045877997  0.1136092103183538  0.0001247164214606
  0.4456028150354765  0.1091824220979151  0.0005889594739422
 -0.0031399684971538  0.6680247769595792  0.1670539461772551
  0.3295426092485119  0.6694843701021985  0.1674000969819440
  0.6681158929794535  0.6657168103239216  0.1668210090233298
  0.1107869743773755  0.1122217660884538  0.2501322450232232
 -0.0027769230394448  0.6680841354452174  0.4160969053396363
  0.6665888943070606  0.3324777248154034  0.4166774714948435
  0.3343510287857157  0.3321257018127320  0.4173788726592302
 -0.0015778378273696  0.3346340449298384  0.4173354643237117
  0.6686661704494391 -0.0025586165696721  0.4160744354452474
  0.3344744609391527  0.0005710420070532  0.4161075209376898
  0.0000132202842928  0.0022090100756406  0.4165513535557993
  0.5541816698531137  0.8882340218134734  0.3329862189544407
  0.2237661640060299  0.8868441057407132  0.3336346432909136
  0.8897918892766490  0.8890842074210309  0.3333288832002598
  0.5542011465554721  0.5576264006640340  0.3339790043376291
  0.6486645037207287  0.6664864390312951  0.9158815696539810
  0.2218639617544374  0.5555303942446558  0.3336629945206242
  0.5553395022959816  0.2207591421186987  0.3339013591306499
  0.2237990869701282  0.2196583266456387  0.3339749768836748
  0.8881561557640522  0.2218035945649569  0.3340449247468539
  0.7756897608597657  0.7771526709471599  0.2506888674864332
  0.4467549309966463  0.7780011992860948  0.2499024007278957
  0.1149706142113189  0.7751998759229437  0.2507336763096817
  0.7752459614499143  0.4452812173564898  0.2503186376671772
  0.4447750693750230  0.4429725369387952  0.2503003296069929
  0.1135416732678822  0.4428398161763183  0.2493172182515938
  0.7777809043289219  0.1125575882848734  0.2493936470074893
  0.4453158050665483  0.1131246121223754  0.2492525321877479
  0.8892739276489229  0.5526556700456656  0.3328590730092238
  0.9851979518706810  0.6642692211463311  0.9172209908128810
