Cu
 1.0000000000000000
     7.6685730419681093    0.0000000000000000    0.0000000000000000
     3.8342865209840546    6.6411790651208911    0.0000000000000000
     0.0000000000000000    0.0000000000000000   25.0450909090909093
 Cu 
 108
Direct
  0.1088779989360156  0.1141082925729528 -0.0007877002391266
  0.2328244967037910  0.6653373139857217  0.6672994256812806
  0.8970294688607798  0.3354604186720159  0.6662186693147591
  0.5682441457960877  0.3351087521582449  0.6673698947479623
  0.2340205292833198  0.3332629847826591  0.6667089772586111
  0.9038947015401098 -0.0025810555164088  0.6659910085413060
  0.5676017721065065  0.0006566750498614  0.6665312702001385
  0.2328663029500425 -0.0000451776109619  0.6667418101634895
  0.7905406657228310  0.8867580529158110  0.5838786340567815
  0.4568449951197373  0.8885952242344216  0.5830798747285424
  0.1241020467177396  0.8886136148872464  0.5827683783467503
  0.7893283489146385  0.5578679048145485  0.5841347819369745
  0.4549320633566313  0.5546522012574646  0.5838872195289340
  0.1239643515461867  0.5554708668271744  0.5832826946258479
  0.7920975544806228  0.2195638112783262  0.5841065997568821
  0.4581535618929889  0.2198303004335575  0.5826700519417302
  0.1253586904305882  0.2196483982959587  0.5840034872107387
  0.0113968618837603  0.7786581176233306  0.4995115165332537
  0.6800780118948990  0.7751521992431198  0.5007048311118847
  0.3460924600371838  0.7784943985207270  0.4992400559337303
  0.0089851264713871  0.4465827730445688  0.4998086498974397
  0.6797291607887801  0.4414865194837828  0.5002939140639769
  0.3465622496890455  0.4444943123239760  0.4993374021293738
  0.0099218195459483  0.1116492571109725  0.5001610418622436
  0.5693946338035236  0.6655250814294094  0.6667529573791131
  0.6766622124625614  0.1133946913813291  0.5003310245107080
  0.8992277744335520  0.6696186299613116  0.6666152942677075
  0.6777632241185420  0.1123353923525635  0.7496380850313893
  0.2356663412064160  0.6653127865201345  0.9163326842310334
  0.9014147796680952  0.3330519019123550  0.9170242065144298
  0.5636706017966886  0.3351079751466004  0.9171806002000844
  0.2350761286004542  0.3321261474075210  0.9170845439255600
  0.8988014099520086  0.0006386226788277  0.9160334922371823
  0.5689526595653226 -0.0011416039493157  0.9173346680209240
  0.2311027928008415 -0.0006216811593969  0.9174724356398514
  0.7903407633148840  0.8877576301992504  0.8327985345916270
  0.4582416685617234  0.8870941912911343  0.8327283852516622
  0.1201861469656673  0.8899452648800225  0.8336581639728351
  0.7893431596384587  0.5530395889810095  0.8333437783985377
  0.4571166059475539  0.5529817073740619  0.8335379361435956
  0.1198212308976640  0.5579015163068384  0.8336386732122890
  0.7908107524496573  0.2216689229790376  0.8333956367549555
  0.4567613701219820  0.2205567823790126  0.8329231201303886
  0.1197492987272330  0.2240976577525507  0.8330560373570016
  0.0138032891391718  0.7760748539901638  0.7507387144260068
  0.6812941608604787  0.7757839366900943  0.7507068804589806
  0.3436827120129315  0.7805321235100673  0.7504701085807792
  0.0120277676630783  0.4435709536632254  0.7493552085953739
  0.6800854856330154  0.4447946360515923  0.7498778419418414
  0.3421442853253814  0.4445957104683227  0.7495088347501777
  0.0123236733730574  0.1093926972931134  0.7497547326337523
  0.3472930344274737  0.1104111339695746  0.7496290878785058
  0.3457435001583827  0.1119639286237628  0.4994123537982491
  0.6661029797066123  0.6660022472448881  0.4170841862581851
  0.3356671026013660  0.6641178630063861  0.4168430341199308
  0.6682832983894936  0.3324955542139668  0.1665021153626059
  0.3341221068534077  0.3361915903033986  0.1673667178738726
 -0.0001517950328572  0.3328829801279269  0.1667640710447517
  0.6667675485812096 -0.0011243871048342  0.1673003263314701
  0.3332777120605269 -0.0019459792255740  0.1659933886862699
 -0.0001943552297112  0.0019608901670549  0.1669036973148487
  0.5549154203742893  0.8898214652881865  0.0832117427435131
  0.2223535898918331  0.8860800485673277  0.0830782097930841
  0.8881312181626537  0.8872166024561905  0.0829519927379770
  0.5569753202400521  0.5576674075790784  0.0838371071685422
  0.2197013089180192  0.5564780006717116  0.0825967227247258
  0.8900803505559239  0.5564189718360906  0.0826714581770062
  0.5572908162925007  0.2193488288879249  0.0836979787929945
  0.2233801543970569  0.2225310914852573  0.0832033562848745
  0.8886442387614216  0.2198149124366121  0.0834012660104224
  0.7772039686597584  0.7761130174987166  0.0000864297328041
  0.4466594517760802  0.7774637533367725 -0.0007842222332352
  0.1087178639530083  0.7784433108780544 -0.0002057680844147
  0.7783656490054401  0.4471865441869836 -0.0004504400248803
  0.4426722039958887  0.4471445639423366  0.0000519752084312
  0.1089215302932671  0.4471760963448106  0.0007056597595523
  0.7774196519600075  0.1093702567844492  0.0001197587550420
  0.4479841743051954  0.1092383173012027  0.0003433845723595
  0.0006691777306814  0.6682420810954770  0.1658718167075827
  0.3359433763969588  0.6661342931161164  0.1662086077131482
  0.6695001338466919  0.6658208309521667  0.1669104908802042
  0.1081113770782681  0.1128674625375756  0.2506778617392090
  0.0020626788523935  0.6671522244376875  0.4170346727949345
  0.6650764380881140  0.3353469456196908  0.4163355675343442
  0.3340487158421596  0.3330521079824331  0.4163732002874365
  0.0005291029351172  0.3319416195962515  0.4159642304941851
  0.6668016284766438 -0.0011433133548244  0.4161465922970564
  0.3355990170170005 -0.0028503261077696  0.4166279211413899
  0.0035508998221269 -0.0019599194575716  0.4163982032116332
  0.5553951497275930  0.8886660365157014  0.3325667243645395
  0.2238791706391410  0.8892483566771660  0.3337617636363369
  0.8903109635617926  0.8892058284117241  0.3327959884685109
  0.5546639928690673  0.5552940059214648  0.3337456861420982
  0.5634208143575896  0.6681451644596139  0.9159994462351183
  0.2220248580239291  0.5576415439791491  0.3325922351058035
  0.5576766948798690  0.2202027430880996  0.3333711413389787
  0.2257540559760119  0.2195762443306822  0.3327342469779639
  0.8913479465382090  0.2207677859029072  0.3336055965041665
  0.7780940348711647  0.7782409488181744  0.2507192502267268
  0.4453955068912584  0.7775817404596770  0.2492701442672023
  0.1125024415905482  0.7764148242188124  0.2500299833035409
  0.7751938819398817  0.4474329139046988  0.2492294987052837
  0.4416021802234189  0.4458434672310320  0.2505506809811562
  0.1089415086311529  0.4457906726767885  0.2505236656297704
  0.7782266857074223  0.1112757536112987  0.2494303132816316
  0.4445614734163948  0.1110462131581308  0.2498515889396249
  0.8907850525981393  0.5551057029553019  0.3336992704693843
  0.9003300118096130  0.6646707551760680  0.9165700482717187
