Cu
 1.0000000000000000
     7.6685730419681093    0.0000000000000000    0.0000000000000000
     3.8342865209840546    6.6411790651208911    0.0000000000000000
     0.0000000000000000    0.0000000000000000   25.0450909090909093
 Cu 
 108
Direct
  0.1131843132261984  0.1102398103299310  0.0004097259762017
  0.0020952961672440  0.8971705818660761  0.6671361676328655
  0.6662962877371079  0.5642375523821437  0.6665195876477009
  0.3332192150229117  0.5685591947212989  0.6671249170678319
 -0.0010429932390630  0.5685310254130873  0.6667544664173898
  0.6662293452258548  0.2340114023999641  0.6660122351745531
  0.3367356939694076  0.2317108981615719  0.6664460477555161
 -0.0013260004151292  0.2355933903960638  0.6661473218549222
  0.5569330624794506  0.1194723500618020  0.5832009210375194
  0.2238988517154297  0.1215293460552991  0.5833761887855254
  0.8907027609356276  0.1203201179880941  0.5827779189946740
  0.5531127838241402  0.7909845974131073  0.5838128551373316
  0.2234908354709573  0.7888275553578962  0.5831565483156345
  0.8919960394176755  0.7873139074954790  0.5830732122939858
  0.5574787600988972  0.4527231350262331  0.5832390980050436
  0.2203912249207629  0.4546654881804809  0.5829648967807280
  0.8901725295878610  0.4557164142180761  0.5831020738070902
  0.7795876914539766  0.0096344057222246  0.4999824063335557
  0.4416445795821724  0.0134196840112268  0.5004677673469529
  0.1092200673145990  0.0098372233631519  0.5007822953296860
  0.7758109395837745  0.6770907623355942  0.5005955897612736
  0.4463662876810248  0.6770348968511241  0.5006831050860342
  0.1106902574901124  0.6794099411247118  0.5002106012138831
  0.7801165964368523  0.3421599612356550  0.5000181954091371
  0.3309014197543237  0.9018072553242792  0.6671230725152100
  0.4424723598522060  0.3459179118135677  0.5005209536058193
  0.6662125963762301  0.9027863676904166  0.6664446325300131
  0.4452069623144142  0.3437100232330990  0.7502761772867614
  0.0034357537768214  0.8975275033939352  0.9165239155131538
  0.6645860375065255  0.5679566364191300  0.9163733534167109
  0.3332579225404841  0.5675282677703549  0.9170759373754868
  0.0023122646915131  0.5655720160553382  0.9163398728376293
  0.6645788151741976  0.2352566710149788  0.9171955905211455
  0.3321557804654092  0.2337905834718273  0.9165278977927559
  0.0021510495298781  0.2312292301758075  0.9163383431850077
  0.5536925331064941  0.1243760773520779  0.8329846922954461
  0.2247005796049877  0.1197494641824889  0.8339354817042874
  0.8921319884455466  0.1200138559527177  0.8335067481220491
  0.5525476949702443  0.7910652927914614  0.8332831243821357
  0.2244025420645276  0.7865276815628606  0.8326320028041480
  0.8887965674033921  0.7864612097955596  0.8340420296467986
  0.5539612989344597  0.4560101731367534  0.8329158006860861
  0.2197467516633790  0.4574014393801472  0.8336253654940089
  0.8899733007750480  0.4584697769300736  0.8331596688579951
  0.7747765290225271  0.0129043595519119  0.7506410655854193
  0.4463806703092283  0.0111689997758380  0.7508061333647232
  0.1103809872294975  0.0097304529636640  0.7502550196968963
  0.7779777997973760  0.6802174519886086  0.7493713835690736
  0.4435825280717950  0.6802075069646516  0.7503446596328565
  0.1111701771091585  0.6798976678975047  0.7505752512590688
  0.7793453307227124  0.3440081733260230  0.7504554547821677
  0.1137378482814799  0.3423915841646002  0.7499914178473525
  0.1098618657994014  0.3427880989654293  0.5004245231034873
  0.6641916564367888  0.6683381614438273  0.4169727661852378
  0.3338420110100354  0.6681645266186629  0.4172646101254946
  0.6677445566559965  0.3350576549220697  0.1665052124326316
  0.3332096461299607  0.3313962137219656  0.1666702362606103
  0.0008192943229307  0.3347366376519143  0.1668531108350486
  0.6643223482660603  0.0027125078331405  0.1669197856777811
  0.3337383402970429  0.0002097419029274  0.1669770744899177
 -0.0002576603654368 -0.0007584490623282  0.1662824439756584
  0.5555618973255601  0.8895580249134549  0.0841284934237245
  0.2196052398928862  0.8899977603894588  0.0834035503460105
  0.8883137012412162  0.8861152680173633  0.0832294247409052
  0.5556924871668356  0.5530421671797185  0.0831537512211626
  0.2193333624568122  0.5568296442020658  0.0834080449066822
  0.8915900558508920  0.5540400049057184  0.0834297024533465
  0.5537322713110915  0.2218529683916224  0.0830237537923991
  0.2231366904011049  0.2242394224408035  0.0836028976888652
  0.8879009729016817  0.2231013534668513  0.0837333384959203
  0.7792136986715031  0.7785229904179192 -0.0001948742828588
  0.4438251258236323  0.7786443698912743  0.0005645434827896
  0.1113091463620143  0.7757416554069082 -0.0001698630845208
  0.7800711114018384  0.4421639851998610 -0.0002374633484784
  0.4480921723530452  0.4416269583917430  0.0001534192719464
  0.1102578765266311  0.4467952555803348 -0.0007952458621779
  0.7778849438513188  0.1101708333568829  0.0007426288663550
  0.4449404055413375  0.1135220312605073  0.0001332066102311
  0.0028291662262057  0.6645983823697892  0.1661770763247468
  0.3339938334559541  0.6638313497410632  0.1668166747450811
  0.6681382477685384  0.6658522470421665  0.1674194505108409
  0.1116215898623858  0.1126935435040468  0.2497829882566903
  0.0033023843015728  0.6645582689183630  0.4166334081282402
  0.6672083388373740  0.3348284523784330  0.4172708538089479
  0.3359277375259693  0.3306812161831021  0.4166326553101218
  0.0039218430481083  0.3304930818193765  0.4165329822857561
  0.6668713590472327  0.0001408534859275  0.4168979676802145
  0.3335837137753874  0.0025724475629989  0.4167153201788221
  0.0011411733619360  0.0011512117063467  0.4168206684382069
  0.5572767959283372  0.8896951642897372  0.3331509774912130
  0.2210561752806101  0.8904127009878844  0.3340032033717035
  0.8884308606400245  0.8877900878980068  0.3329601340474629
  0.5561154926814222  0.5581839405186264  0.3330602762031667
  0.3307700373734200  0.8999406407228002  0.9170938588453318
  0.2239020013637632  0.5552397079222575  0.3332331270580555
  0.5576946103062489  0.2195100100568823  0.3335667844228348
  0.2221966035221964  0.2203558701864113  0.3340939238867371
  0.8922715212161055  0.2198951170489343  0.3329659225012274
  0.7793655609843168  0.7778878898866196  0.2500478558129781
  0.4453374016916420  0.7805383360287380  0.2501599840359554
  0.1110082337829685  0.7795066132602564  0.2502645234603859
  0.7788900032989861  0.4452976114970990  0.2503898041811504
  0.4428774621400668  0.4470148721358982  0.2498133328582982
  0.1088753244421130  0.4448391811532298  0.2492807667003943
  0.7761495016884526  0.1117472726828411  0.2497627027624202
  0.4473099455554979  0.1105110763506628  0.2503468767245547
  0.8921767068810287  0.5531357681943242  0.3331349342759876
  0.6681445456293282  0.9021567665047829  0.9170021016284046
