Cu
 1.0000000000000000
     7.6685730419681093    0.0000000000000000    0.0000000000000000
     3.8342865209840546    6.6411790651208911    0.0000000000000000
     0.0000000000000000    0.0000000000000000   25.0450909090909093
 Cu 
 108
Direct
  0.1088779989360156  0.1141082925729528 -0.0007877002391266
 -0.0005088366295424  0.7320039806523884  0.6672994256812806
  0.6636961355274466  0.4021270853386826  0.6662186693147591
  0.3349108124627543  0.4017754188249116  0.6673698947479623
  0.0006871959499864  0.3999296514493258  0.6667089772586111
  0.6705613682067764  0.0640856111502578  0.6659910085413060
  0.3342684387731732  0.0673233417165280  0.6665312702001385
 -0.0004670303832908  0.0666214890557048  0.6667418101634895
  0.5572073323894976  0.9534247195824775  0.5838786340567815
  0.2235116617864038  0.9552618909010883  0.5830798747285424
  0.8907687133844066  0.9552802815539131  0.5827683783467503
  0.5559950155813053  0.6245345714812151  0.5841347819369745
  0.2215987300232979  0.6213188679241312  0.5838872195289340
  0.8906310182128534  0.6221375334938409  0.5832826946258479
  0.5587642211472893  0.2862304779449928  0.5841065997568821
  0.2248202285596555  0.2864969671002242  0.5826700519417302
  0.8920253570972549  0.2863150649626254  0.5840034872107387
  0.7780635285504272  0.8453247842899971  0.4995115165332537
  0.4467446785615656  0.8418188659097865  0.5007048311118847
  0.1127591267038505  0.8451610651873935  0.4992400559337303
  0.7756517931380537  0.5132494397112355  0.4998086498974397
  0.4463958274554467  0.5081531861504495  0.5002939140639769
  0.1132289163557121  0.5111609789906426  0.4993374021293738
  0.7765884862126149  0.1783159237776392  0.5001610418622436
  0.3360613004701904  0.7321917480960759  0.6667529573791131
  0.4433288791292280  0.1800613580479957  0.5003310245107080
  0.6658944411002188  0.7362852966279781  0.6666152942677075
  0.4444298907852086  0.1790020590192302  0.7496380850313893
  0.0023330078730826  0.7319794531868011  0.9163326842310334
  0.6680814463347620  0.3997185685790217  0.9170242065144298
  0.3303372684633551  0.4017746418132671  0.9171806002000844
  0.0017427952671209  0.3987928140741877  0.9170845439255600
  0.6654680766186752  0.0673052893454944  0.9160334922371823
  0.3356193262319891  0.0655250627173510  0.9173346680209240
 -0.0022305405324918  0.0660449855072698  0.9174724356398514
  0.5570074299815506  0.9544242968659169  0.8327985345916270
  0.2249083352283900  0.9537608579578010  0.8327283852516622
  0.8868528136323343  0.9566119315466891  0.8336581639728351
  0.5560098263051254  0.6197062556476761  0.8333437783985377
  0.2237832726142206  0.6196483740407285  0.8335379361435956
  0.8864878975643307  0.6245681829735050  0.8336386732122890
  0.5574774191163238  0.2883355896457042  0.8333956367549555
  0.2234280367886486  0.2872234490456792  0.8329231201303886
  0.8864159653938997  0.2907643244192173  0.8330560373570016
  0.7804699558058387  0.8427415206568305  0.7507387144260068
  0.4479608275271454  0.8424506033567609  0.7507068804589806
  0.1103493786795983  0.8471987901767338  0.7504701085807792
  0.7786944343297449  0.5102376203298921  0.7493552085953739
  0.4467521522996819  0.5114613027182590  0.7498778419418414
  0.1088109519920481  0.5112623771349895  0.7495088347501777
  0.7789903400397239  0.1760593639597801  0.7497547326337523
  0.1139597010941404  0.1770778006362413  0.7496290878785058
  0.1124101668250494  0.1786305952904295  0.4994123537982491
  0.6661029797066123  0.6660022472448881  0.4170841862581851
  0.3356671026013660  0.6641178630063861  0.4168430341199308
  0.6682832983894936  0.3324955542139668  0.1665021153626059
  0.3341221068534077  0.3361915903033986  0.1673667178738726
 -0.0001517950328572  0.3328829801279269  0.1667640710447517
  0.6667675485812096 -0.0011243871048342  0.1673003263314701
  0.3332777120605269 -0.0019459792255740  0.1659933886862699
 -0.0001943552297112  0.0019608901670549  0.1669036973148487
  0.5549154203742893  0.8898214652881865  0.0832117427435131
  0.2223535898918331  0.8860800485673277  0.0830782097930841
  0.8881312181626537  0.8872166024561905  0.0829519927379770
  0.5569753202400521  0.5576674075790784  0.0838371071685422
  0.2197013089180192  0.5564780006717116  0.0825967227247258
  0.8900803505559239  0.5564189718360906  0.0826714581770062
  0.5572908162925007  0.2193488288879249  0.0836979787929945
  0.2233801543970569  0.2225310914852573  0.0832033562848745
  0.8886442387614216  0.2198149124366121  0.0834012660104224
  0.7772039686597584  0.7761130174987166  0.0000864297328041
  0.4466594517760802  0.7774637533367725 -0.0007842222332352
  0.1087178639530083  0.7784433108780544 -0.0002057680844147
  0.7783656490054401  0.4471865441869836 -0.0004504400248803
  0.4426722039958887  0.4471445639423366  0.0000519752084312
  0.1089215302932671  0.4471760963448106  0.0007056597595523
  0.7774196519600075  0.1093702567844492  0.0001197587550420
  0.4479841743051954  0.1092383173012027  0.0003433845723595
  0.0006691777306814  0.6682420810954770  0.1658718167075827
  0.3359433763969588  0.6661342931161164  0.1662086077131482
  0.6695001338466919  0.6658208309521667  0.1669104908802042
  0.1081113770782681  0.1128674625375756  0.2506778617392090
  0.0020626788523935  0.6671522244376875  0.4170346727949345
  0.6650764380881140  0.3353469456196908  0.4163355675343442
  0.3340487158421596  0.3330521079824331  0.4163732002874365
  0.0005291029351172  0.3319416195962515  0.4159642304941851
  0.6668016284766438 -0.0011433133548244  0.4161465922970564
  0.3355990170170005 -0.0028503261077696  0.4166279211413899
  0.0035508998221269 -0.0019599194575716  0.4163982032116332
  0.5553951497275930  0.8886660365157014  0.3325667243645395
  0.2238791706391410  0.8892483566771660  0.3337617636363369
  0.8903109635617926  0.8892058284117241  0.3327959884685109
  0.5546639928690673  0.5552940059214648  0.3337456861420982
  0.3300874810242563  0.7348118311262805  0.9159994462351183
  0.2220248580239291  0.5576415439791491  0.3325922351058035
  0.5576766948798690  0.2202027430880996  0.3333711413389787
  0.2257540559760119  0.2195762443306822  0.3327342469779639
  0.8913479465382090  0.2207677859029072  0.3336055965041665
  0.7780940348711647  0.7782409488181744  0.2507192502267268
  0.4453955068912584  0.7775817404596770  0.2492701442672023
  0.1125024415905482  0.7764148242188124  0.2500299833035409
  0.7751938819398817  0.4474329139046988  0.2492294987052837
  0.4416021802234189  0.4458434672310320  0.2505506809811562
  0.1089415086311529  0.4457906726767885  0.2505236656297704
  0.7782266857074223  0.1112757536112987  0.2494303132816316
  0.4445614734163948  0.1110462131581308  0.2498515889396249
  0.8907850525981393  0.5551057029553019  0.3336992704693843
  0.6669966784762797  0.7313374218427346  0.9165700482717187
