Cu
 1.0000000000000000
     7.6685730419681093    0.0000000000000000    0.0000000000000000
     3.8342865209840546    6.6411790651208911    0.0000000000000000
     0.0000000000000000    0.0000000000000000   25.0450909090909093
 Cu 
 108
Direct
  0.1131295848825287  0.1116932217823905  0.0001195549030054
 -0.0014555523729078  0.8840422805551147  0.6662748237192540
  0.6665710329254348  0.5495860706425703  0.6669342371798133
  0.3343613857302961  0.5525797928191087  0.6664148604532766
  0.0011596826886643  0.5480282618926007  0.6660839164268429
  0.6683927055698592  0.2140189162528942  0.6665855772550492
  0.3354937370249418  0.2158895583466629  0.6659347903997802
 -0.0006210224768274  0.2161802643912109  0.6661180045694342
  0.5542750288203451  0.1070301956132066  0.5832079061530220
  0.2237944889758007  0.1050700440640770  0.5827544895870121
  0.8877222857754912  0.1080607530201330  0.5828798881040177
  0.5543658764158839  0.7747078343548420  0.5826381263980400
  0.2216933349513576  0.7724022500954251  0.5828258584092439
  0.8901273262688357  0.7727119545587333  0.5831373121100438
  0.5550108882299064  0.4364060872123184  0.5839622603619508
  0.2215999212892650  0.4372104233194122  0.5835787069477564
  0.8888712973169133  0.4395430797233126  0.5825475876913965
  0.7803866026956292  0.9937236384462234  0.4995333125335633
  0.4473577275338602  0.9930150699890278  0.5007464731895381
  0.1140103055348758  0.9919745595332252  0.4994537437314453
  0.7787128649950557  0.6640903913681254  0.5005492214025751
  0.4411915033004747  0.6630150982659991  0.5007595265183721
  0.1103950857344640  0.6594374408715307  0.5001189953945469
  0.7769573161454054  0.3265696315383395  0.5001249035933136
  0.3317145299814441  0.8819949421000601  0.6662574631886569
  0.4454090610396874  0.3266762985025394  0.4992287255660753
  0.6667792098239915  0.8829156958245646  0.6660218741389097
  0.4430022123705459  0.3287741963092108  0.7506639106082897
 -0.0011035501765585  0.8833562720123674  0.9160583917235926
  0.6662400780061626  0.5528187398017238  0.9158884553845590
  0.3298952997201373  0.5518263173348220  0.9160440047637939
  0.0012585149339805  0.5497679469738533  0.9173833214154701
  0.6650248173216151  0.2179404464693355  0.9165054508097744
  0.3312502988703557  0.2166234544534155  0.9162961736671354
  0.0011830973196158  0.2157568636159587  0.9162262547089918
  0.5577025040966994  0.1033315102171144  0.8333816955745172
  0.2182494355691738  0.1082959208429986  0.8341136614947556
  0.8863537304006681  0.1072164552381410  0.8333430005411414
  0.5516380461216087  0.7749097810895751  0.8329442617400457
  0.2226368487962313  0.7714149101671094  0.8332342241043671
  0.8905319767320173  0.7736960403367007  0.8336766257839636
  0.5556935096665239  0.4403447527260854  0.8340619474842027
  0.2219714704959524  0.4370525921859779  0.8339119394469153
  0.8916534185368137  0.4375331512310273  0.8330247961233953
  0.7749020284203701  0.9964129707422621  0.7506227561446689
  0.4427700674528911  0.9933996988736593  0.7504119556272247
  0.1118058077490170  0.9954564075907748  0.7493063074968594
  0.7758452512390626  0.6624501138679368  0.7508043930300528
  0.4450740440710748  0.6589380262918726  0.7501480577797059
  0.1109704547870527  0.6635821015830204  0.7499428346173216
  0.7811829514197600  0.3258208573809971  0.7507687910958529
  0.1102936460078970  0.3292353158789065  0.7492469213963586
  0.1099967585935052  0.3252922728804641  0.4993179904121173
  0.6673119407693296  0.6637714612536768  0.4167921526952021
  0.3313328451078735  0.6659728031399104  0.4164081377498962
  0.6662664692324897  0.3307387226170724  0.1669902853110214
  0.3320807680492626  0.3306903328553497  0.1668317441985381
  0.0010984268260258  0.3346437353692759  0.1665694669730937
  0.6679533897456008 -0.0017512593568868  0.1662180620520512
  0.3339221939019753 -0.0012486805762918  0.1667730658135847
  0.0011541713535654  0.0001043160430311  0.1663549248059445
  0.5529546600768821  0.8908272990648597  0.0839855216798277
  0.2207216628563658  0.8893565313114192  0.0825597178092252
  0.8917741418535150  0.8862299474085631  0.0832241169271730
  0.5539232979662192  0.5547186467854255  0.0827659035365273
  0.2240508912864530  0.5553176416942284  0.0826641724216231
  0.8876127800867216  0.5544312714007250  0.0839428828522860
  0.5529384584361348  0.2235576362290900  0.0835004503845646
  0.2217280010611644  0.2193787865514687  0.0834424656774736
  0.8878588484388055  0.2208772208720366  0.0826353484552160
  0.7788972377104413  0.7800101305622253  0.0001923443089160
  0.4435320612018541  0.7765294820304179  0.0007466595696863
  0.1126139440848255  0.7769811234703420  0.0004158223773475
  0.7768762889296592  0.4435216078569712  0.0001811813961488
  0.4431282707458228  0.4463233326113599 -0.0007564815574307
  0.1120317686167214  0.4437943627906343  0.0000834269179727
  0.7746905588007333  0.1128442763590209 -0.0005767031197559
  0.4462069137408756  0.1099836457547302 -0.0001882663523730
  0.0002754108372123  0.6696641936530828  0.1674419449233896
  0.3347185456028766  0.6655772328537621  0.1668135570962821
  0.6656046640124693  0.6661073203919309  0.1663402617580682
  0.1078526966012084  0.1130219789909994  0.2493496366139275
 -0.0013294226289074  0.6669180365627556  0.4167171120024720
  0.6671388878740064  0.3309555938132424  0.4162865188121355
  0.3322225480406708  0.3354813206943150  0.4167259787010016
  0.0018496413064733  0.3327987713941651  0.4161371362275596
  0.6673271476063841 -0.0016452729969868  0.4163994500916977
  0.3332853892398869  0.0027882546123123  0.4168338446852804
  0.0024647751472871 -0.0011928533184546  0.4159562399276013
  0.5549607788823723  0.8903918148970166  0.3335738426656613
  0.2250419113998415  0.8863447771211970  0.3331798472975434
  0.8873177808801754  0.8883938754715307  0.3327881543612411
  0.5550387340595854  0.5546263858484690  0.3340094015186464
  0.3322942696085108  0.8839216386889953  0.9169818138816632
  0.2231660520477009  0.5576886233694954  0.3330569690949680
  0.5583884963865373  0.2210374199261031  0.3334894985002382
  0.2219893043014988  0.2211254466604757  0.3326287974937410
  0.8895074445168333  0.2194841868201576  0.3333713641934048
  0.7782761618963259  0.7757933061575425  0.2507305251542716
  0.4447833793052797  0.7749940659588158  0.2498931291756613
  0.1125386497393238  0.7778209383405925  0.2494286629730399
  0.7773956740390142  0.4421618371531201  0.2495737891663687
  0.4447245615152394  0.4448835679561212  0.2500659737325281
  0.1098796360225353  0.4449646326954191  0.2498052756494789
  0.7774362993266258  0.1091366604675347  0.2499390988146313
  0.4461980087250163  0.1110074666644669  0.2499057725737541
  0.8864584171829453  0.5557255499654508  0.3333258374821017
  0.6678219918127772  0.8833050807354216  0.9172477534079096
