Cu
 1.0000000000000000
     7.6685730419681093    0.0000000000000000    0.0000000000000000
     3.8342865209840546    6.6411790651208911    0.0000000000000000
     0.0000000000000000    0.0000000000000000   25.0450909090909093
 Cu 
 108
Direct
  0.1110319544213727  0.1120532607370076 -0.0007553772478248
 -0.0024161060948545  0.8346197256747344  0.6660221001266992
  0.6640806110311372  0.5027951394618810  0.6665558165538925
  0.3298686376413423  0.5020682916367903  0.6668245714419551
 -0.0028319983481379  0.5025351463351987  0.6669881151917940
  0.6651693527642027  0.1662873092545236  0.6667458668945890
  0.3364435432992597  0.1655990317081963  0.6661337206770321
 -0.0022809419201142  0.1680874609978968  0.6660449455980416
  0.5560186863727598  0.0574860587974479  0.5831101302891170
  0.2207371347545488  0.0545204083110715  0.5838445418135169
  0.8900716592896387  0.0558988414027661  0.5828736170502813
  0.5549643751331075  0.7212558451224979  0.5834889058024377
  0.2229845392611339  0.7233989915344651  0.5833396817815719
  0.8904402639429571  0.7220845345980141  0.5840538001761491
  0.5563524502759186  0.3871726716580566  0.5836302030664117
  0.2217855821058947  0.3896526690562775  0.5827513979543636
  0.8903734671888169  0.3878141861875229  0.5826220758552150
  0.7789189948226096  0.9461255920389599  0.5001604653613136
  0.4427142313018718  0.9429428650698806  0.4997381718333610
  0.1100823307849075  0.9428393061340835  0.5005152500772206
  0.7782952093246264  0.6093383428735368  0.5006215747753250
  0.4476909100512598  0.6084521284841484  0.4994645923801098
  0.1125451324243617  0.6102159941852430  0.4999146347124140
  0.7779173510426609  0.2753248529764881  0.4997207844903545
  0.3329356409074536  0.8361310646621115  0.6666396528581191
  0.4455409491090758  0.2781038631791603  0.4995513525480220
  0.6652661719851215  0.8324388859994034  0.6669127346035540
  0.4447468211604945  0.2789877736547848  0.7497386418709732
 -0.0014759574713675  0.8333579525977328  0.9159190368381175
  0.6664839754051184  0.4979518272339418  0.9173820803006382
  0.3343952584558637  0.5000053199000941  0.9168050423173080
  0.0023729623479901  0.4999922127487983  0.9171375948312583
  0.6689525018848921  0.1667662143012499  0.9171645296358824
  0.3321677724957232  0.1671954987033463  0.9163709004432032
 -0.0014367761170879  0.1660460773124837  0.9167638324146379
  0.5564524388284378  0.0540353073192123  0.8331133617043222
  0.2202915064055549  0.0551409104207912  0.8330394750696196
  0.8865972193491983  0.0552365821996073  0.8332121584123483
  0.5547918602945051  0.7232608769185205  0.8335011385527078
  0.2185501822350074  0.7248952977223924  0.8329207579159205
  0.8865434186906996  0.7249761008826393  0.8331360300216960
  0.5542521962122202  0.3917842819831721  0.8335031126776360
  0.2204226345902493  0.3896149578490074  0.8335137100187098
  0.8897981367277493  0.3914933379320181  0.8340017415519345
  0.7776428880878883  0.9445364375755532  0.7498469586717516
  0.4406554446220193  0.9472296646071755  0.7501439589493497
  0.1129002389684261  0.9441634142957041  0.7506792157842510
  0.7778397232462656  0.6112281223403386  0.7503567021148028
  0.4421275611826015  0.6116987304574831  0.7507260474650559
  0.1116450246474179  0.6117573337294357  0.7500584384845348
  0.7781670749976024  0.2806709479579734  0.7499813195673488
  0.1130374712979277  0.2779404648520651  0.7492150012522911
  0.1098130488773536  0.2779685323558904  0.4997656049484314
  0.6705242071592442  0.6638381995411071  0.4168009324602069
  0.3309342623578554  0.6666671567665620  0.4168079831752338
  0.6652853473402462  0.3345806990923070  0.1659645947618301
  0.3300470730476409  0.3351123579442020  0.1660574667308732
 -0.0003133675697219  0.3340947251696027  0.1664007477876646
  0.6644377199779942  0.0002867431689439  0.1664302077918791
  0.3346493368770620  0.0006936074614785  0.1662146877719019
  0.0015179934965669 -0.0009092206195832  0.1666637399827286
  0.5579255722079312  0.8883786869766856  0.0829502050917331
  0.2186176166179163  0.8912657522961970  0.0832572053502788
  0.8882060213920453  0.8904398503366756  0.0837152375104001
  0.5544545360647449  0.5551650469711121  0.0833712821771523
  0.2226202507846635  0.5583170113233974  0.0840118095682454
  0.8883547615078775  0.5530650814667514  0.0837833859279731
  0.5537806517306867  0.2231825458004684  0.0827940923845076
  0.2232744210162229  0.2212093648225731  0.0831727214369897
  0.8899044202372985  0.2201213605021140  0.0834479788571137
  0.7782814177033794  0.7775112167234158 -0.0003177856448133
  0.4421209473126493  0.7799943744249203  0.0003120230128964
  0.1082797089605214  0.7794510995991399 -0.0000116332194207
  0.7774859279334357  0.4436432408351831 -0.0006968247171985
  0.4423774400412290  0.4459039140733562 -0.0007949602456931
  0.1100150010708436  0.4420676580603274  0.0000689854120934
  0.7804554784895970  0.1105697279428696  0.0000563223982883
  0.4440354477246812  0.1119975107960538 -0.0003688537892463
 -0.0015050377664837  0.6691230982157130  0.1670991338272274
  0.3345318669636874  0.6638669223336897  0.1672423819013243
  0.6671697774926004  0.6679481780404144  0.1670581505485151
  0.1095721637325579  0.1115199066541307  0.2502333308267820
 -0.0000380687920311  0.6686854786229165  0.4172246401684638
  0.6646595412657509  0.3344078418472604  0.4162705338038449
  0.3340861931248391  0.3331066897298492  0.4163547798590400
  0.0007428967789654  0.3336710157948704  0.4174463022339724
  0.6668092996492037  0.0018774778699052  0.4159126513173724
  0.3328913705435532  0.0018382100103450  0.4158881127620284
 -0.0000887063963928  0.0019472548732306  0.4160117558203528
  0.5536964699739163  0.8879136980495761  0.3331831744013865
  0.2191655142292628  0.8900032873365302  0.3331810215298761
  0.8876674947347668  0.8866171495781369  0.3325484819062453
  0.5572744670907896  0.5553857355834901  0.3336734995534633
  0.3320491549618530  0.8309765431022447  0.9171489203254223
  0.2232923771051994  0.5560532474782145  0.3329771512030852
  0.5552209786031282  0.2201797641453519  0.3331933231670641
  0.2239767846375940  0.2214022097377625  0.3339512884298260
  0.8899952892544737  0.2227132226280026  0.3338707452457363
  0.7789132433630805  0.7752932498777815  0.2501277820136326
  0.4440324331535206  0.7772614830233159  0.2505022821529989
  0.1133411726474837  0.7763731716183053  0.2503493430481584
  0.7807197961970460  0.4431852468716858  0.2502979283113490
  0.4446074312349046  0.4454380154353806  0.2501176511009182
  0.1081131608535693  0.4471981048283717  0.2498465815076637
  0.7765318126487710  0.1084875941537462  0.2507166390774642
  0.4463660873745114  0.1089616148052401  0.2502190517408711
  0.8893883235957509  0.5569367012241313  0.3333300104713614
  0.6676732388209282  0.8355629917192304  0.9170612644517513
