Cu
 1.0000000000000000
     7.6685730419681093    0.0000000000000000    0.0000000000000000
     3.8342865209840546    6.6411790651208911    0.0000000000000000
     0.0000000000000000    0.0000000000000000   25.0450909090909093
 Cu 
 108
Direct
  0.1130005140531985  0.1093665881042375 -0.0003560039481081
  0.0000374388034030  0.8695934821220374  0.6668332476130474
  0.6653544385693289  0.5328177200286196  0.6674512813970448
  0.3323361100976808  0.5334666362571125  0.6673568809126330
  0.0010742744166622  0.5329536255892744  0.6674135554623916
  0.6678786856717955  0.1995250512057533  0.6666316527186386
  0.3317609069187977  0.2025691276215223  0.6663005557294732
 -0.0031363708771226  0.2023831420532060  0.6661727949895652
  0.5544278402482921  0.0908469882717831  0.5835106392834795
  0.2256508224708872  0.0868908179267708  0.5837025323785888
  0.8908986736879877  0.0887664274214820  0.5838855071449947
  0.5560099626758326  0.7570489094404749  0.5836699863069573
  0.2249319961547703  0.7527988124730773  0.5829252523462612
  0.8880686361309795  0.7574057417017485  0.5826014159651822
  0.5524190391015722  0.4246811350141270  0.5833208919877784
  0.2209437270078670  0.4215221620028218  0.5838257914647007
  0.8887064299183567  0.4211181087159650  0.5833669765632720
  0.7809785103938649  0.9751513473556328  0.4993140007650937
  0.4461212186540583  0.9795663636660670  0.4995353694362099
  0.1143886296917965  0.9753426158340144  0.5005323626886551
  0.7783053052772115  0.6417530686927699  0.4997443879273221
  0.4459342879290855  0.6421110642710147  0.4993365496232030
  0.1121690043615240  0.6422221078256476  0.5004468999083728
  0.7808006436701976  0.3102005005576698  0.5000184492470137
  0.3328470541743121  0.8640808280053980  0.6671027935312375
  0.4448546752686782  0.3096483756688347  0.4994490288484233
  0.6672895248117853  0.8678751057554891  0.6666641634850317
  0.4441354925638502  0.3124683033966398  0.7498019949286953
  0.0013696255483478  0.8655212732662754  0.9168188040523917
  0.6694132970412986  0.5317836117015656  0.9168872034185793
  0.3324458663283272  0.5340974629742171  0.9159283575022952
  0.0016761628725274  0.5309437669419749  0.9173886749140101
  0.6692869991050183  0.1985511047617581  0.9162394553384929
  0.3356264942173562  0.1996349792872125  0.9169372781206119
 -0.0008179233855345  0.1973009986472023  0.9174540896875212
  0.5535431958982550  0.0885943106887935  0.8327489001816011
  0.2183841845399971  0.0914205034949025  0.8339554785293395
  0.8885530582921346  0.0863834646077739  0.8326240399412714
  0.5559377502345106  0.7533942029316842  0.8338447656543163
  0.2195942073775675  0.7572141929942645  0.8337095151305687
  0.8912113095808080  0.7528889205012428  0.8336911547509014
  0.5530849098205766  0.4226487513411430  0.8326904620975473
  0.2212810496657138  0.4232591102898459  0.8334053038788771
  0.8873632412507100  0.4206424961245746  0.8333024555165627
  0.7779859233221871  0.9778602805504940  0.7501706371880098
  0.4438944906008020  0.9763020617384794  0.7495653269257865
  0.1116380162925518  0.9807813590444128  0.7502876470644514
  0.7750531209189326  0.6461910278617174  0.7498278740181470
  0.4452439455856554  0.6443962573333997  0.7506348387442164
  0.1099505060503524  0.6457806133365882  0.7496041047895098
  0.7774742971528814  0.3123965396958945  0.7502261036567461
  0.1109291750776550  0.3085210407354603  0.7494132093558541
  0.1123341055850720  0.3093636444592307  0.5001321652748519
  0.6651964822767371  0.6670535149080182  0.4161796784636545
  0.3347161730749987  0.6685436683958204  0.4163700801722638
  0.6699360276936170  0.3315266951965156  0.1666076812307402
  0.3336775353588486  0.3309987884806245  0.1672699906877242
  0.0021437109903757  0.3326591203592530  0.1673637669633270
  0.6661106251967569  0.0002625473598952  0.1664312027370043
  0.3314535486896889 -0.0012841502387679  0.1665871451934697
  0.0013555903659859 -0.0009853592847462  0.1660625643154590
  0.5542395381865053  0.8866011412526023  0.0839177929260371
  0.2226187384965255  0.8868689216712030  0.0840564331229767
  0.8873021399366123  0.8888274229063984  0.0826434541653079
  0.5565856459823330  0.5542565947166888  0.0826360748213143
  0.2235780690684056  0.5531344192184940  0.0839786564169242
  0.8892255530414473  0.5542979886929403  0.0832700749889570
  0.5585837749224174  0.2201423566787825  0.0829455906366349
  0.2244899608957295  0.2205794946609408  0.0833217695152520
  0.8886509623426039  0.2246622471244700  0.0831546386084172
  0.7763078841807766  0.7762480878287817 -0.0007268090763618
  0.4425019462170590  0.7781874758803099  0.0007610094850623
  0.1105893740790266  0.7761331871735518  0.0005081241298834
  0.7782569096263198  0.4420377936483739 -0.0002449238376780
  0.4469038272504505  0.4415316087511046  0.0005767518776647
  0.1097325593647830  0.4425346667685634  0.0005379026808336
  0.7796027377473669  0.1086762007767212 -0.0006884703926029
  0.4463489190128243  0.1105148600997096 -0.0004944141344038
 -0.0018266877254983  0.6696195404967819  0.1673538949789158
  0.3347581665714575  0.6671929295707804  0.1666860898934197
  0.6663315645106255  0.6642046624535826  0.1662195184449164
  0.1101368244467113  0.1121222567424331  0.2501479407786348
  0.0011788326438875  0.6649810451343008  0.4169326819641410
  0.6649416603608742  0.3337083716986782  0.4158886746500378
  0.3344170693526105  0.3334187212298520  0.4173073042864088
 -0.0023835715757282  0.3334065947188147  0.4168623656551290
  0.6669574274535913  0.0005442491830517  0.4167181943149829
  0.3329667827111706 -0.0001346399691280  0.4172382045279004
  0.0005482534684653  0.0028494107444352  0.4171028669228488
  0.5565406419414818  0.8869421889978564  0.3336268880623528
  0.2226100005719865  0.8909640431704257  0.3329215415979870
  0.8896595851505803  0.8900101035771726  0.3337155892179366
  0.5575681742833120  0.5535306097331213  0.3331773624028922
  0.3344186785025013  0.8695322763990286  0.9164098665199528
  0.2209796131864079  0.5545076795109672  0.3326529410770875
  0.5585560813351910  0.2205234211571208  0.3328185791148373
  0.2242712752339977  0.2213441144086449  0.3336008389815603
  0.8888957274044404  0.2202474368969412  0.3336548766043131
  0.7799488512629922  0.7767641987788177  0.2506027717537138
  0.4436891586985259  0.7754955953325868  0.2494138690924601
  0.1108223508414652  0.7797032839727797  0.2502214600587768
  0.7753822134199413  0.4450320055212317  0.2501651900347717
  0.4456334308643139  0.4429255013247384  0.2506758403198815
  0.1125532166191008  0.4418241898470261  0.2500014275778583
  0.7751603876604223  0.1112997833509153  0.2493561586399382
  0.4435195467841951  0.1122658329713535  0.2505132819443778
  0.8910748810497036  0.5555605295826314  0.3327040788741347
  0.6655201696394633  0.8647418252717192  0.9163532933824780
