Cu
 1.0000000000000000
     7.6685730419681093    0.0000000000000000    0.0000000000000000
     3.8342865209840546    6.6411790651208911    0.0000000000000000
     0.0000000000000000    0.0000000000000000   25.0450909090909093
 Cu 
 108
Direct
  0.1091602056049133  0.1120309113044592  0.0002065914561326
 -0.0013373072235242  0.8165554109223478  0.6674580070813967
  0.6691484458650857  0.4817411663828451  0.6673111798579445
  0.3352000985272566  0.4841419913491490  0.6674003645773662
 -0.0009816224939353  0.4813027069382210  0.6666876238914690
  0.6650641241096199  0.1488963897912667  0.6667876592816199
  0.3345590676499763  0.1495713611312774  0.6659103649399500
  0.0020057587997491  0.1499332901731516  0.6665428937104667
  0.5538899342878137  0.0387303511616151  0.5831573603719650
  0.2210383574909699  0.0379396073565897  0.5833993473467100
  0.8908038774487483  0.0359067787151874  0.5835296458105216
  0.5525275064552851  0.7081086062452430  0.5829544730275644
  0.2250236616254577  0.7050812661627366  0.5836897853521287
  0.8873236363194916  0.7050456167674531  0.5832331161705970
  0.5569043997331626  0.3736666849241628  0.5839666266656853
  0.2197102829236457  0.3746229930655716  0.5839489499716659
  0.8891354425636028  0.3692343939662229  0.5833577948793002
  0.7791436468747847  0.9280559809923224  0.5003519859846695
  0.4447395352224997  0.9260016269165533  0.5000101265970012
  0.1085822087129717  0.9290165247927482  0.5006734924789652
  0.7778775359778117  0.5956748033801129  0.5000388005495634
  0.4459184936099105  0.5940719979995547  0.4995952595140916
  0.1117500110693687  0.5956422009581912  0.5001887625907832
  0.7772001068490962  0.2628536275267536  0.5006831978623463
  0.3312565940770806  0.8179353931229125  0.6660141326441035
  0.4447552112115755  0.2594650679711066  0.5000094517078283
  0.6672232565655895  0.8156492775520908  0.6668780457434423
  0.4460328756672770  0.2601526744943364  0.7507290327996666
  0.0025715706200087  0.8159334239594394  0.9162582824474880
  0.6693674250956186  0.4818283764234966  0.9167548111726254
  0.3318683831797922  0.4845757791229919  0.9167330819151234
  0.0035956404156509  0.4812686938977579  0.9169338899705783
  0.6683548952792902  0.1483636387628679  0.9161567694683040
  0.3326774833303598  0.1481795287648831  0.9169836620926572
 -0.0024856427821952  0.1515811707759376  0.9161419204425676
  0.5553796503473586  0.0412309794947308  0.8338827096347763
  0.2227604758019511  0.0409926185745866  0.8331114917704037
  0.8914979732709213  0.0378109624420759  0.8339145067504325
  0.5587240479955430  0.7028944243732876  0.8335540490011125
  0.2216898458810866  0.7031880898221861  0.8332235355668226
  0.8901220849852195  0.7036826351534261  0.8340657901203589
  0.5536745519075733  0.3715758224212620  0.8332717786096191
  0.2229193572720389  0.3692972628541593  0.8333176035402661
  0.8917251138732022  0.3704802442224856  0.8339042099674751
  0.7796852028084010  0.9271728211119636  0.7495538156159686
  0.4473694585001892  0.9260757139012422  0.7494445488302474
  0.1116733691553363  0.9274883314843378  0.7500093878458302
  0.7759416930847752  0.5961695013991954  0.7504734199481949
  0.4454421875642694  0.5945893808189063  0.7505644507721582
  0.1116063333854547  0.5936604470518325  0.7502491796187061
  0.7775547760932889  0.2587457196784718  0.7504741753954007
  0.1137581895914432  0.2608768748115138  0.7507563853508032
  0.1100046868730403  0.2596247879735441  0.5004331280153160
  0.6663872106244969  0.6639247308821589  0.4158841340864579
  0.3331839463648543  0.6684069679548879  0.4171641810111730
  0.6675600713877753  0.3326306646960943  0.1673299190791068
  0.3329649280728362  0.3306918264082607  0.1659462361912103
 -0.0023762537188168  0.3357010214148186  0.1664559117550057
  0.6684477557610902 -0.0004286081447246  0.1668738922140298
  0.3337087342013809  0.0009305191187585  0.1666381165906048
  0.0015592880090143 -0.0027389520692638  0.1670955302839612
  0.5566807387028641  0.8892597715759534  0.0834930325194185
  0.2210732412237975  0.8897910383496271  0.0825415779811268
  0.8894989664179677  0.8888306668716718  0.0832156252721184
  0.5532072287695183  0.5578117434635695  0.0833349412034270
  0.2215274549891646  0.5578296874010747  0.0834631897376587
  0.8922031590437780  0.5532338733065463  0.0838231240861603
  0.5533918859628505  0.2223138687759333  0.0835135622632257
  0.2218839819166428  0.2226718204339432  0.0831683372997179
  0.8863495216506080  0.2241629361796948  0.0832881487236682
  0.7770668222301548  0.7804514103283714 -0.0003478177229121
  0.4429608253005555  0.7798274598418422 -0.0000731053192086
  0.1121790483577544  0.7783830409782302 -0.0001274785185092
  0.7790746729381157  0.4461381901742414 -0.0003158314666237
  0.4449949051059595  0.4442479165933576  0.0002316111155223
  0.1090054772566611  0.4469971968462546  0.0006273837501989
  0.7775872045877997  0.1136092103183538  0.0001247164214606
  0.4456028150354765  0.1091824220979151  0.0005889594739422
 -0.0031399684971538  0.6680247769595792  0.1670539461772551
  0.3295426092485119  0.6694843701021985  0.1674000969819440
  0.6681158929794535  0.6657168103239216  0.1668210090233298
  0.1107869743773755  0.1122217660884538  0.2501322450232232
 -0.0027769230394448  0.6680841354452174  0.4160969053396363
  0.6665888943070606  0.3324777248154034  0.4166774714948435
  0.3343510287857157  0.3321257018127320  0.4173788726592302
 -0.0015778378273696  0.3346340449298384  0.4173354643237117
  0.6686661704494391 -0.0025586165696721  0.4160744354452474
  0.3344744609391527  0.0005710420070532  0.4161075209376898
  0.0000132202842928  0.0022090100756406  0.4165513535557993
  0.5541816698531137  0.8882340218134734  0.3329862189544407
  0.2237661640060299  0.8868441057407132  0.3336346432909136
  0.8897918892766490  0.8890842074210309  0.3333288832002598
  0.5542011465554721  0.5576264006640340  0.3339790043376291
  0.3319978370540621  0.8164864390312950  0.9158815696539810
  0.2218639617544374  0.5555303942446558  0.3336629945206242
  0.5553395022959816  0.2207591421186987  0.3339013591306499
  0.2237990869701282  0.2196583266456387  0.3339749768836748
  0.8881561557640522  0.2218035945649569  0.3340449247468539
  0.7756897608597657  0.7771526709471599  0.2506888674864332
  0.4467549309966463  0.7780011992860948  0.2499024007278957
  0.1149706142113189  0.7751998759229437  0.2507336763096817
  0.7752459614499143  0.4452812173564898  0.2503186376671772
  0.4447750693750230  0.4429725369387952  0.2503003296069929
  0.1135416732678822  0.4428398161763183  0.2493172182515938
  0.7777809043289219  0.1125575882848734  0.2493936470074893
  0.4453158050665483  0.1131246121223754  0.2492525321877479
  0.8892739276489229  0.5526556700456656  0.3328590730092238
  0.6685312852040146  0.8142692211463310  0.9172209908128810
