Cu
 1.0000000000000000
     7.6685730419681093    0.0000000000000000    0.0000000000000000
     3.8342865209840546    6.6411790651208911    0.0000000000000000
     0.0000000000000000    0.0000000000000000   25.0450909090909093
 Cu 
 108
Direct
  0.1103301329789221  0.1134113987927251  0.0005804455909130
 -0.0006026756155667  0.9683611965746393  0.6664164971718889
  0.6678825608114102  0.6313444444940856  0.6663062250704777
  0.3313437272895433  0.6358632467268397  0.6665424171237156
  0.0035196092840642  0.6311787007013399  0.6672399675386778
  0.6670787787466154  0.2991139875910368  0.6671516557618020
  0.3350130455896915  0.2989489835180085  0.6663526582618980
  0.0001155857999110  0.2987971449681597  0.6660247951617760
  0.5562381062368366  0.1862307852386007  0.5840403911925431
  0.2226641168793402  0.1908175098230595  0.5837873765448248
  0.8879648733940237  0.1866607972018068  0.5826692815753495
  0.5570218747199654  0.8526859172124542  0.5834393459995468
  0.2212535004448774  0.8575418772736307  0.5838803789714601
  0.8896283309667583  0.8582040942732280  0.5835508892825728
  0.5558261587986443  0.5219524553615645  0.5825782207007414
  0.2234377043747046  0.5197110853824981  0.5838357294385503
  0.8860665376418305  0.5234886451805074  0.5826914860745703
  0.7768064775239806  0.0788264978695316  0.4992679899415156
  0.4463891723431878  0.0757912252594854  0.4993424517415301
  0.1124457988976965  0.0800929605706391  0.5000891515825463
  0.7766687831269502  0.7469527897398471  0.4998863583989085
  0.4432847371304794  0.7420013939165030  0.5006576262519896
  0.1106470785046821  0.7467267999428214  0.5005497329064728
  0.7746034703247048  0.4128515889651049  0.4994065411058904
  0.3360247747014015  0.9645449355434003  0.6667065947449848
  0.4414901139849796  0.4121275096047463  0.4996648181310341
  0.6659679337038025  0.9652258804533035  0.6659029556463398
  0.4469535041865074  0.4112654569185981  0.7500093143037034
 -0.0038863459939898  0.9692366154770258  0.9169418096879928
  0.6676265985531634  0.6341176189445826  0.9163992056043349
  0.3295349642335892  0.6357738849620238  0.9169270252586418
  0.0008914052985175  0.6354988626478293  0.9160765639762082
  0.6693861356713562  0.2993152417335284  0.9163779067954219
  0.3320596472544474  0.3024757102160605  0.9170716313531144
 -0.0002942845029167  0.3007331746518341  0.9166501915182829
  0.5565977814309138  0.1917912931219296  0.8326689392331458
  0.2206030764061017  0.1896364012688687  0.8335602486236422
  0.8910622348929276  0.1894279739730171  0.8340122452602590
  0.5580348026119020  0.8553914248978232  0.8329580696930330
  0.2225940173298390  0.8563445124985141  0.8331165835640886
  0.8903650322725087  0.8530712851391286  0.8340737800369319
  0.5541600734674720  0.5217839323975219  0.8327077506302357
  0.2217839230922418  0.5197511221206381  0.8332214485471120
  0.8882402448668366  0.5229968530345894  0.8330353427447227
  0.7780399053969401  0.0800235233004526  0.7503372763283856
  0.4431901578394377  0.0784626191724960  0.7502971877431590
  0.1105688614345227  0.0754572396432333  0.7501076778144105
  0.7769167381574255  0.7464089577923491  0.7504061833502470
  0.4450005522268765  0.7422925178205687  0.7492558464122643
  0.1105022725505964  0.7462631237051485  0.7505299628505658
  0.7740411740607733  0.4137730002556014  0.7501338928949209
  0.1139693113760699  0.4093763862764039  0.7501112402441134
  0.1088039950259928  0.4122281016469513  0.4997378279249903
  0.6665402118462055  0.6682745351016044  0.4173307808415200
  0.3364824412870980  0.6642594311035221  0.4174621567508213
  0.6666488659627259  0.3312250045449834  0.1661103768849807
  0.3322093189352097  0.3354294984887593  0.1665899981111275
 -0.0034451518317383  0.3351651939461999  0.1665215970326533
  0.6645943171452606  0.0013678328105757  0.1674183760855259
  0.3322463661803347  0.0019636712622875  0.1660633391462567
  0.0033071702018690 -0.0020360602933128  0.1660609123685831
  0.5542512243532002  0.8899773144843831  0.0836457606646867
  0.2231349952683561  0.8870810007579031  0.0832806997737332
  0.8887264624580873  0.8873471264075024  0.0828658315530843
  0.5540742637773933  0.5553957979593629  0.0826271299548991
  0.2234593759143597  0.5531287253778159  0.0826075997066561
  0.8908373625825472  0.5551312899915731  0.0839007799945844
  0.5540187460444930  0.2210319576735660  0.0831810454655862
  0.2198344589858784  0.2239760342150022  0.0838360630660912
  0.8873333363042607  0.2226491523040497  0.0835985574151481
  0.7766397857115482  0.7752761247024894  0.0005655726343241
  0.4422057172412261  0.7788365790939807  0.0007735946659901
  0.1116862389447730  0.7790727190078214  0.0002377567122807
  0.7790008795225395  0.4421609562249000  0.0003919323996839
  0.4420262170072249  0.4442190476586415 -0.0002473898456492
  0.1077385113784715  0.4465202493413544 -0.0006516685861426
  0.7774516395137544  0.1132929223152755 -0.0006484780406066
  0.4444932246337093  0.1088993264625238  0.0006394822786736
 -0.0020108453107769  0.6667230571248050  0.1663058625012632
  0.3312550315152809  0.6663107603674809  0.1674397110523331
  0.6674551414225182  0.6668457668656939  0.1666474598555749
  0.1129666521352911  0.1114411570425666  0.2499676141295035
  0.0011078481307238  0.6643386377724403  0.4165976734361329
  0.6688344913767903  0.3326209844424709  0.4163788721988725
  0.3323596673015672  0.3306134002832534  0.4173723980628590
 -0.0033012323786875  0.3358223643626833  0.4159335723577137
  0.6677168946372579 -0.0019086574095939  0.4164489770938791
  0.3341513476216666 -0.0017848027883502  0.4169010222305715
 -0.0001061717776157  0.0027399827068759  0.4166247015599249
  0.5537848987920914  0.8917062157001988  0.3334250323844422
  0.2214827493929262  0.8881864172929917  0.3336943335518517
  0.8901791054859749  0.8874369991513079  0.3337630392124344
  0.5536486599648232  0.5566701388989984  0.3339865144901423
  0.3371438760230392  0.9637313858797937  0.9162498154330779
  0.2215100513375016  0.5533195418850875  0.3327270973464885
  0.5582933309310737  0.2195556421527298  0.3332850277437251
  0.2229445342531968  0.2194392886992206  0.3337936664932785
  0.8920330302724805  0.2196938574831895  0.3335998039184719
  0.7772131935411087  0.7786563448221793  0.2500925793194219
  0.4451301839449589  0.7795480507320636  0.2505333425590810
  0.1121689284766682  0.7792895126604158  0.2504946865706846
  0.7789282275271016  0.4414904523194741  0.2503640218239982
  0.4418456395749370  0.4460264665098351  0.2504188058484365
  0.1110391033502545  0.4461871004983238  0.2496717175216421
  0.7792988573210318  0.1105481922837196  0.2507560480308697
  0.4437087091505243  0.1131985138610119  0.2499193919737670
  0.8928639391941249  0.5526349216384078  0.3326088121427346
  0.6681625301074022  0.9655240104742198  0.9167319656179658
