Cu
 1.0000000000000000
     7.6685730419681093    0.0000000000000000    0.0000000000000000
     3.8342865209840546    6.6411790651208911    0.0000000000000000
     0.0000000000000000    0.0000000000000000   25.0450909090909093
 Cu 
 108
Direct
  0.1112977102059939  0.1100756299883147 -0.0001259506547284
 -0.0014103268575891  0.0008741996284469  0.6669535661099484
  0.6693621355012302  0.6648326582050934  0.6672871084902902
  0.3321686707889687  0.6676426161594143  0.6671559347441116
 -0.0001552218554083  0.6670871538453537  0.6664244397105498
  0.6633285295505190  0.3358598677075875  0.6673885306910274
  0.3356510549253631  0.3303857349522920  0.6671755093667980
  0.0005166565021659  0.3361269870466700  0.6673813396662402
  0.5586951395126989  0.2197996105449716  0.5835041846795022
  0.2220730805405733  0.2212036301565017  0.5835360336382219
  0.8879038155828267  0.2196600587718646  0.5831717140069453
  0.5553873396203325  0.8917309786675963  0.5838382298763827
  0.2253946965807674  0.8871562830902436  0.5837802589485116
  0.8861021233044267  0.8905368533982969  0.5833664086345526
  0.5560855880441171  0.5537574886749730  0.5838720392951012
  0.2234154434501116  0.5581171585203520  0.5832885862086024
  0.8873564398360331  0.5555910085022360  0.5839700784667309
  0.7774227428859114  0.1103534005245526  0.5002000846786492
  0.4423346744825170  0.1138001297030592  0.4992220124866673
  0.1103944787333619  0.1139694825495341  0.5001530576890403
  0.7772892274306079  0.7761368961563692  0.5005015277404459
  0.4439137301933235  0.7753632360122548  0.4997670110391968
  0.1097531684516480  0.7792075068045714  0.5007186334892835
  0.7805111033724308  0.4438650148888594  0.4997540070874085
  0.3326754908255966 -0.0018676869542602  0.6666453470483600
  0.4430778346862999  0.4457494901741792  0.4994805595295378
  0.6659263687431293 -0.0008119151248611  0.6663731746965607
  0.4463857781675473  0.4455142572259857  0.7499821402521647
 -0.0035744830293062  0.0025444347005049  0.9174422976375193
  0.6684688353814150  0.6643766547844618  0.9164976496569445
  0.3312909931507317  0.6682877053795987  0.9164285989144159
  0.0011234524790664  0.6657092049762826  0.9161193525265521
  0.6642907584513198  0.3360722823656010  0.9167698804261534
  0.3334804727649296  0.3352897241273107  0.9162480340751583
 -0.0012590206201258  0.3354061419943462  0.9165789749533699
  0.5549883184338298  0.2204007879413069  0.8339357443811373
  0.2258226888841542  0.2193333105407237  0.8331085036792831
  0.8910011136334353  0.2231135797279153  0.8339260885744607
  0.5558593306802915  0.8877243241207224  0.8331709724730333
  0.2226226301513513  0.8864453668694053  0.8328516668480911
  0.8891781128218321  0.8863206511014431  0.8338650544328992
  0.5572568635597857  0.5563849322627966  0.8338582282040989
  0.2246590838501925  0.5547639391082271  0.8336696629540821
  0.8908016167076328  0.5560259746959826  0.8329472720711770
  0.7770940365556942  0.1137366626838415  0.7506105577752666
  0.4435921493167980  0.1110236074503295  0.7502609534558258
  0.1105182312501096  0.1109241118029842  0.7500713189299020
  0.7809564000081112  0.7749779586214796  0.7506610125962870
  0.4423195652091743  0.7786505838465891  0.7502511328614025
  0.1108639708106773  0.7786387073252504  0.7505716554906458
  0.7776342875325948  0.4457147742372128  0.7494886543081902
  0.1114908136268391  0.4430585395249673  0.7493981206548767
  0.1087968028353773  0.4452116402671369  0.4992700485621933
  0.6684634919256550  0.6654168966780371  0.4160181510328751
  0.3308997861429965  0.6673695117866111  0.4172079550109550
  0.6674821252588820  0.3326744210093239  0.1659111289168868
  0.3301224472706760  0.3351587738888332  0.1661407297184933
 -0.0024243862279218  0.3355456697664863  0.1665257668461822
  0.6657039038559208 -0.0013544677641622  0.1663207607832373
  0.3338153819253959  0.0001794970300115  0.1671309412777971
  0.0012139856536581 -0.0026007479598270  0.1672908045589462
  0.5539730070189642  0.8894801194275919  0.0825981559825218
  0.2208233451404911  0.8866593339963033  0.0828232570654899
  0.8902385693714671  0.8872966827226191  0.0839034437485815
  0.5585138263072433  0.5535695833258255  0.0835584605838142
  0.2224989043601491  0.5540250911428626  0.0839172923742738
  0.8874015847161125  0.5549338001544663  0.0838125896941289
  0.5558772587533258  0.2244412663054422  0.0832642332264943
  0.2225624291620957  0.2195501635887795  0.0834314747433940
  0.8863309842207805  0.2235707593618788  0.0825411826181165
  0.7758367246742811  0.7769052559068267  0.0006124543872028
  0.4443774977432902  0.7754620463765360 -0.0003002555028737
  0.1134009054943997  0.7777941144259043 -0.0000597297701450
  0.7816308408587073  0.4416222118874955  0.0004001159366282
  0.4435195656015092  0.4415921645491602 -0.0006208371782613
  0.1113702455639494  0.4432354948518880  0.0005251495555100
  0.7772131244300878  0.1134383327031266  0.0004459223858822
  0.4435143808363577  0.1097814895465162 -0.0005213442172007
 -0.0009928405591181  0.6667376205973577  0.1671097703755782
  0.3324208936274604  0.6645310955912597  0.1670262579269490
  0.6688828629116079  0.6665710319362926  0.1662193522239573
  0.1106017659632535  0.1139600480251393  0.2497811431353220
 -0.0024727588804831  0.6680920726884616  0.4172601553328360
  0.6675247604626479  0.3326865750110686  0.4158946276258837
  0.3324281149873461  0.3313182333567558  0.4166387089845618
 -0.0031732919773823  0.3356565323997246  0.4162681208865996
  0.6678608698238251 -0.0008456986126515  0.4166038911320379
  0.3317709039907149  0.0017148288654186  0.4170149523897636
 -0.0007511204614908  0.0024860179895078  0.4166130730229013
  0.5550122082530375  0.8865280396411240  0.3331579102701647
  0.2208581713594129  0.8878299533270784  0.3328905034961878
  0.8903777786509105  0.8866185040611558  0.3338548620306483
  0.5567614989175621  0.5549291402567448  0.3335018039208354
  0.3337385948768750  0.0029645569736011  0.9165851113210325
  0.2242476674043000  0.5547847428586481  0.3332528003481777
  0.5579776661335190  0.2198151933113910  0.3337316276750470
  0.2230616214824067  0.2205257031871916  0.3328622511038991
  0.8926779887445166  0.2194432737352045  0.3328930455286213
  0.7783238538823032  0.7792868725508936  0.2507938232783856
  0.4428893933310914  0.7769096237662096  0.2493450924526335
  0.1106354072454475  0.7759283752712589  0.2499985797493539
  0.7771650574404569  0.4471320728903796  0.2503828520227024
  0.4461720424853344  0.4446674095841021  0.2499664416677113
  0.1121210966250515  0.4426491995230259  0.2497620573092713
  0.7782946881779651  0.1122355520027273  0.2496359961075373
  0.4442235872914009  0.1139432535958717  0.2507268391882668
  0.8893725689561698  0.5580356352427071  0.3339385462582302
  0.6677882671061530 -0.0019642144391860  0.9163630089304945
