Cu
 1.0000000000000000
     7.6685730419681093    0.0000000000000000    0.0000000000000000
     3.8342865209840546    6.6411790651208911    0.0000000000000000
     0.0000000000000000    0.0000000000000000   25.0450909090909093
 Cu 
 108
Direct
  0.1127486568587988  0.1086399605415783  0.0002932413174072
 -0.0013890235568493  0.7006688588553579  0.6660433122040643
  0.6667709241282398  0.3655116317245724  0.6672787689416038
  0.3325015256869072  0.3668599516380552  0.6661198920502083
 -0.0012449916645165  0.3679435236929219  0.6663551033749106
  0.6686040331217729  0.0322042366112572  0.6670354642462681
  0.3335754067112265  0.0331646768410149  0.6671246367806328
  0.0025132718752204  0.0322388449190045  0.6672756479530144
  0.5548671738414918  0.9215285339501561  0.5837775405034713
  0.2236270515769773  0.9194740364376364  0.5838382549665591
  0.8895663965156015  0.9205568331332844  0.5833573117734731
  0.5546806381105590  0.5896365948878305  0.5835315973981013
  0.2212336547346845  0.5892170802287068  0.5840860000511835
  0.8902180644344887  0.5896277298055326  0.5835443509013578
  0.5581866810101183  0.2541327613193741  0.5840265397500783
  0.2213354423623351  0.2570959918233239  0.5836908864763682
  0.8875412528768085  0.2580710185037191  0.5833860847364892
  0.7778337012941425  0.8107991730255906  0.5007222936452863
  0.4438128191734578  0.8113933432466579  0.5005867316130675
  0.1127120494411472  0.8127637497085686  0.5000858332206038
  0.7759026342128031  0.4773427551171482  0.4995528980791423
  0.4434200547231356  0.4755505951376558  0.4997157439020856
  0.1087955680921155  0.4778848549318315  0.5003295057907028
  0.7791397321704304  0.1431861889623206  0.5003266403755168
  0.3359918021248955  0.6983229948944193  0.6667438579511341
  0.4416684924003769  0.1462181571314115  0.5003740212428804
  0.6681467117221672  0.6970085912032270  0.6659219535158729
  0.4432989262638947  0.1449386536242942  0.7499826127676831
 -0.0033016988143251  0.7019999915645765  0.9168393075961941
  0.6666179908517479  0.3644160656490908  0.9166693362188918
  0.3318532111294764  0.3692994371974618  0.9159224416759604
  0.0027149442260613  0.3658112035213926  0.9158879306481008
  0.6642453647143871  0.0355647221341242  0.9173233083134322
  0.3312158396985490  0.0354162558487651  0.9166792388627485
 -0.0034205009981017  0.0361169728672260  0.9166881467072971
  0.5525840906785905  0.9245098465573018  0.8336154671129027
  0.2209435392869123  0.9251824319865900  0.8326590745999332
  0.8907498942978934  0.9209776586638252  0.8341108141785167
  0.5539721242013073  0.5873839076626447  0.8339566436316366
  0.2253749969923933  0.5868928507434561  0.8336123397108182
  0.8912209708809875  0.5859816185605998  0.8335911389609987
  0.5529293237206805  0.2575416118506900  0.8325633278239153
  0.2191517126830049  0.2574451488601119  0.8332890112505915
  0.8862947018077850  0.2558403743505072  0.8332860746535491
  0.7759864241582988  0.8101081945423562  0.7501420324787441
  0.4456031920460065  0.8129037192094899  0.7493201610668647
  0.1125284994556500  0.8132834806172379  0.7504393696538706
  0.7786816517836763  0.4758124950712424  0.7503293628035053
  0.4432309700845096  0.4804817334854944  0.7505603052535852
  0.1129065892228861  0.4773452481354164  0.7498260074873671
  0.7786741670746373  0.1473026447665709  0.7500560932228347
  0.1089500738236556  0.1437471304035096  0.7501107286904677
  0.1090218373543694  0.1452324948861798  0.4996751876521651
  0.6695955325327173  0.6648592437663071  0.4162881028664320
  0.3342942585456309  0.6646007121594096  0.4170345160172372
  0.6654831253611266  0.3313378122655963  0.1667928911564070
  0.3336567961597243  0.3309493250851352  0.1666623147525016
  0.0011107820714441  0.3327121281627327  0.1665164915788144
  0.6653753165813531  0.0026364578277238  0.1668496327011536
  0.3335588275719714  0.0007399085345769  0.1660713817504928
 -0.0005059156310423 -0.0006307417195149  0.1660003882055871
  0.5527108682390041  0.8904458537464430  0.0829333983442304
  0.2216117390569589  0.8877226211520418  0.0825472744890982
  0.8905232991117515  0.8864674342410217  0.0838875031177697
  0.5542162401998344  0.5552511145706422  0.0839987710740221
  0.2211208287574296  0.5536610729995177  0.0836562325573573
  0.8867667426654574  0.5548881281956956  0.0838295271632544
  0.5543090298930695  0.2223327524494925  0.0837309723046127
  0.2238050500168718  0.2239931605000144  0.0836040405331585
  0.8899653906654968  0.2240157160318620  0.0833452608636458
  0.7788684706831678  0.7797602070181716  0.0004439925844573
  0.4433178183463978  0.7752903539216689 -0.0003599524150255
  0.1122913200937967  0.7783107886648523 -0.0004396620810529
  0.7782866637782249  0.4460329279611438 -0.0004838961222942
  0.4453179704708328  0.4467485966215415 -0.0004239002951237
  0.1145143634572568  0.4425246722244195 -0.0001148951365801
  0.7763448078978771  0.1119936599929902  0.0004429967373074
  0.4433246760644912  0.1100534001838031 -0.0002223825030082
  0.0005873951812589  0.6688519534010126  0.1668244714716452
  0.3314370443335099  0.6695093231657040  0.1667946451569188
  0.6674916936060722  0.6693283973378669  0.1670955026125930
  0.1125974999517414  0.1085674218173554  0.2496012530483276
 -0.0025335914447314  0.6695756995002878  0.4170357182495907
  0.6678376622295985  0.3314396559889037  0.4163894428195125
  0.3341670189781445  0.3317581403863006  0.4169217138012279
  0.0007705758000552  0.3329727356556073  0.4169172695303659
  0.6650779450768546 -0.0005348087933583  0.4168681199822158
  0.3301461403845638  0.0015506767265472  0.4165424929890184
  0.0005785095696914 -0.0003308777040092  0.4165712901087548
  0.5570686751791555  0.8868540063098285  0.3333840456922523
  0.2197250191298296  0.8903674467507501  0.3328762822223856
  0.8866742177489311  0.8917056779425316  0.3338078765096733
  0.5556480992032090  0.5559926583171725  0.3327531810072181
  0.3320050912392270  0.7020161576125171  0.9173331815891458
  0.2200572192981037  0.5570405058126225  0.3326014028685711
  0.5557955766704166  0.2199993191763015  0.3333063866829836
  0.2215698590874381  0.2210654876485938  0.3335818889217078
  0.8857837748097271  0.2236719598815702  0.3334834052433133
  0.7792331566667859  0.7786194448215289  0.2493212272265128
  0.4444383454078039  0.7762793800659679  0.2498754988191978
  0.1114393996631311  0.7783463544814032  0.2494772580633269
  0.7808102817009609  0.4424006245805389  0.2504814680276919
  0.4445800901936268  0.4455281049164183  0.2503791021172204
  0.1094534227300595  0.4425907320827149  0.2493957347919074
  0.7783578057807012  0.1084928205433125  0.2504505434737488
  0.4442814570699277  0.1122519742469383  0.2502551824141182
  0.8879052607252981  0.5578213903588339  0.3340069161198166
  0.6651401012792486  0.7005732878354628  0.9160673287843755
