Cu
 1.0000000000000000
     7.6685730419681093    0.0000000000000000    0.0000000000000000
     3.8342865209840546    6.6411790651208911    0.0000000000000000
     0.0000000000000000    0.0000000000000000   25.0450909090909093
 Cu 
 108
Direct
  0.1082612563026522  0.1125076087534236  0.0000591447529369
 -0.0020331676858916  0.7838835254842006  0.6667897172149243
  0.6651480325269786  0.4503635392246498  0.6662762508939672
  0.3330787444810853  0.4480321871194438  0.6671443064755735
 -0.0013124275322009  0.4505251928261059  0.6663683715883600
  0.6631010701876402  0.1190614384540019  0.6674244080614328
  0.3310279348932142  0.1180118625836509  0.6671466154886859
  0.0007895265937772  0.1157533886751329  0.6668324246262662
  0.5553710550175847  0.0074476867718563  0.5837185716428346
  0.2217363526527622  0.0051411485918654  0.5829549646707233
  0.8859308380551125  0.0067463787353306  0.5832075515297361
  0.5558672118145637  0.6722431277056647  0.5830787892519981
  0.2208255582687755  0.6699129932644506  0.5828083613587497
  0.8875700349467801  0.6741082143419066  0.5831481927055648
  0.5535869317439460  0.3409365745643743  0.5841071854916474
  0.2252379465514983  0.3373547885400625  0.5829221127248115
  0.8899736287099991  0.3373439234827551  0.5840635341779090
  0.7779290569701721  0.8944985028946856  0.5000748565157010
  0.4442849703907422  0.8929436258707071  0.5003569984205019
  0.1112812004627873  0.8915234595597323  0.4994544821110428
  0.7766244338758315  0.5615152894539887  0.4994999044156380
  0.4461890923929244  0.5606329608725535  0.5000104793081349
  0.1113035270425621  0.5620081633197460  0.4997228345691598
  0.7779395314490003  0.2300983394285680  0.4998176567889643
  0.3306198881758575  0.7861814007183332  0.6664619916994962
  0.4412573942186364  0.2292785259885269  0.4999511708906909
  0.6677185291581628  0.7817805833563473  0.6672597311685061
  0.4467513777017970  0.2266480391109696  0.7498030210267670
 -0.0013947272282102  0.7853754780626570  0.9163811925490345
  0.6653583484691609  0.4498604130901104  0.9164534220806206
  0.3330491326652430  0.4484379033079377  0.9164020289903068
  0.0020830231463996  0.4474959329164568  0.9172518810131872
  0.6663690554036313  0.1177769445130184  0.9161149299489143
  0.3344364722826065  0.1168841232505595  0.9164288256663308
 -0.0000574079541478  0.1149836155643304  0.9168461125463742
  0.5538482989502752  0.0044514765726784  0.8337952614895868
  0.2233132429818221  0.0048306165658008  0.8339720674186514
  0.8897844473976489  0.0054686861567217  0.8331897896878747
  0.5551650551776366  0.6736522127068159  0.8338762894693910
  0.2188545596731667  0.6741785813333788  0.8340320111676927
  0.8897799404518493  0.6750037213243497  0.8337646063825347
  0.5569537211486091  0.3405885700760088  0.8334235382794539
  0.2238508731707700  0.3371383942641805  0.8331066050157586
  0.8897619234954243  0.3394412852717569  0.8335006032704224
  0.7770241123907219  0.8963549042870924  0.7492128921274940
  0.4443358771775226  0.8944887816469166  0.7499067335946650
  0.1121427722417901  0.8937300738261168  0.7503134117966701
  0.7758951003270443  0.5639152630396260  0.7495975603731877
  0.4467981864122959  0.5606314467830256  0.7498104393098225
  0.1090151883754429  0.5618248446238887  0.7502488404868800
  0.7745285927010508  0.2293647013362014  0.7506938786283851
  0.1104657973074030  0.2260628581946897  0.7498901597707061
  0.1105047125783779  0.2305778431274725  0.4993288116019381
  0.6659048348512666  0.6682229402503257  0.4173308879393112
  0.3352891207212040  0.6665783278653952  0.4161697819579318
  0.6647451821059747  0.3329581138107499  0.1659680973065456
  0.3318208632980989  0.3360218092883737  0.1659687044445885
  0.0000063161456452  0.3322862597737075  0.1663533938176933
  0.6665517667803158  0.0015194130493623  0.1670146317534042
  0.3317232403798843  0.0024093987177422  0.1662428963893945
 -0.0011715770020016  0.0024101474422302  0.1669502986376499
  0.5574798100573033  0.8898677674530535  0.0835512308542880
  0.2232420076904121  0.8864375556230308  0.0833084180121114
  0.8896711537560839  0.8916575479453259  0.0828494094913067
  0.5550433060837379  0.5537809704397051  0.0832903337382928
  0.2234151381033431  0.5582255788455510  0.0833117785695676
  0.8893079643303401  0.5583076332057573  0.0837774079305929
  0.5545686744349689  0.2227065274481631  0.0838749189408932
  0.2199242408888352  0.2217906014322561  0.0841262541082805
  0.8879806307176692  0.2248981504534453  0.0836298918161786
  0.7806115207813890  0.7771820506953465 -0.0007462510738152
  0.4434033895840407  0.7776536121478301 -0.0007075236874440
  0.1124277085207139  0.7780188358575447 -0.0007639305763998
  0.7794101721401242  0.4432417409103425  0.0002099205218255
  0.4447106764515464  0.4461574775316620 -0.0001092640677303
  0.1119805446659207  0.4448635749821206 -0.0006432186972818
  0.7751863187408995  0.1121393578067884  0.0000064686818702
  0.4447067923414381  0.1082897331155036  0.0005844057358122
  0.0000400450797416  0.6670889993466894  0.1674675237689202
  0.3330045356216686  0.6690742219202015  0.1673089613468392
  0.6639980442532702  0.6670572375185804  0.1660664091719580
  0.1132392412474658  0.1118647879640442  0.2495202979881633
 -0.0008983635617442  0.6681982352095881  0.4161779612254111
  0.6685588061311429  0.3313277516628867  0.4168744148927193
  0.3338533498666733  0.3360077659544374  0.4170365762756359
  0.0010346507292157  0.3359233434327774  0.4165355631279749
  0.6670137349957312 -0.0014152213044863  0.4174225252967523
  0.3313944826187625  0.0016585465130572  0.4170727950337251
 -0.0014266170227191  0.0015059736805924  0.4163752040883393
  0.5542218702653138  0.8872704250520220  0.3338766797625785
  0.2208756782720640  0.8878073474146119  0.3331600719821655
  0.8900414974481209  0.8880469739977704  0.3327576128764414
  0.5557062062736177  0.5561679084805465  0.3336517387654369
  0.3333636147647417  0.7856636966081965  0.9159901264726363
  0.2198896652124994  0.5565393695433739  0.3339385868204834
  0.5561623220810608  0.2207592255429139  0.3325601354227585
  0.2221513408994669  0.2221139428471167  0.3330368328406907
  0.8910440349778707  0.2209379099329821  0.3340309167465287
  0.7753015402435601  0.7787997708168067  0.2501845313413935
  0.4440832098326223  0.7802377355466852  0.2507117658468715
  0.1132977772763747  0.7777095722699261  0.2507728305303555
  0.7760995524104990  0.4431779991576615  0.2502244839999758
  0.4429325551913776  0.4448909703848868  0.2498541219467756
  0.1103327094869157  0.4419119685057799  0.2501673225047106
  0.7764414656207618  0.1098833673478845  0.2505380323096718
  0.4463196806439287  0.1086459059091726  0.2494993107863291
  0.8871754505601316  0.5579619447538966  0.3335873069503496
  0.6658006237125822  0.7843140083502440  0.9160632751446686
