Cu
 1.0000000000000000
     7.6685730419681093    0.0000000000000000    0.0000000000000000
     3.8342865209840546    6.6411790651208911    0.0000000000000000
     0.0000000000000000    0.0000000000000000   25.0450909090909093
 Cu 
 108
Direct
  0.1123444928965754  0.1108261633318567  0.0004037140516135
  0.3356139301036776  0.6640719132936800  0.6669990386461506
 -0.0014369026668157  0.3329604865296271  0.6661396725512042
  0.6638850560171465  0.3361931814275875  0.6667870744006430
  0.3321648855422686  0.3305913955993843  0.6666504108261796
 -0.0016357152429962  0.0001192643278991  0.6663206915690637
  0.6660708418409867  0.0005458041006513  0.6670255797755995
  0.3320292582472472  0.0008619508210003  0.6667278405699696
  0.8876857035126627  0.8902511337671356  0.5839098209609866
  0.5561135828708476  0.8892158051940069  0.5838315663610070
  0.2184360139454083  0.8914492493733117  0.5835088499591664
  0.8880425088451200  0.5553211327613190  0.5832706532182214
  0.5570266238413034  0.5527172775049750  0.5839728859550117
  0.2214756869230627  0.5548594278152779  0.5837992671543543
  0.8883420449362370  0.2219397681756431  0.5826450295983396
  0.5538242815305273  0.2222434359638551  0.5834995803679939
  0.2220089806694341  0.2250877037605333  0.5828633138206283
  0.1119066979885659  0.7771602009144682  0.4994954975922188
  0.7768676168073190  0.7763756890586678  0.4993369292025793
  0.4422748273766373  0.7803189972484879  0.5002591653632790
  0.1109535754685287  0.4465441559377072  0.4994389226116854
  0.7756764476830023  0.4440017116885846  0.5007340233074048
  0.4417239431605465  0.4457855020225912  0.5000361322537386
  0.1110877482403150  0.1091298309842565  0.5003576106092692
  0.6673241625760935  0.6679677215429756  0.6663335781742015
  0.7785681854668274  0.1110164104805363  0.5003457448963509
  0.0009726992375888  0.6684277353345549  0.6671813756705889
  0.7781355194951096  0.1115686330278735  0.7501059411310302
  0.3355766348273729  0.6638417523841410  0.9173656414312873
 -0.0003956792107487  0.3312275300476628  0.9172080822134553
  0.6678353902018966  0.3313824740631672  0.9161372128984925
  0.3329628930834705  0.3327787474811864  0.9158985742753125
  0.0004652044868306  0.0011506087742930  0.9162084721905420
  0.6671895512557686  0.0027950438746138  0.9161737657190240
  0.3347024844204756 -0.0027999726061750  0.9171736949330255
  0.8862484779931047  0.8892892921059723  0.8327551622824404
  0.5535793412001073  0.8909598672101346  0.8335699341766162
  0.2221955441467601  0.8880880842771843  0.8333124058756382
  0.8914261972209585  0.5529016456840693  0.8340839728769264
  0.5553479645155445  0.5568894745413168  0.8327238844942706
  0.2208152932126089  0.5565645679251466  0.8326645871996994
  0.8895236581078803  0.2240551764267837  0.8338994066538812
  0.5551513223757377  0.2218323293725793  0.8335511387844630
  0.2210544499197002  0.2224330573996870  0.8340441139682189
  0.1114975804734105  0.7770748778322006  0.7504117638205455
  0.7790206643550043  0.7798465171331190  0.7504133319750151
  0.4454801145217396  0.7784664254797915  0.7505758953331726
  0.1096223704369716  0.4423936988239695  0.7497112064214874
  0.7798764204795823  0.4416677746422161  0.7500742852443958
  0.4440483588845480  0.4457689166112143  0.7497729160696912
  0.1097497820207060  0.1098384889845959  0.7506065535849036
  0.4467191397393825  0.1092323151488526  0.7495060289774749
  0.4449610272459054  0.1119227133275403  0.5005528931753530
  0.6679872737129513  0.6672087021442391  0.4172910664059625
  0.3309342388493108  0.6662514680721525  0.4171402322728929
  0.6662774392778221  0.3331783316786480  0.1658835781574827
  0.3333326574810430  0.3353351700991032  0.1673035479199546
 -0.0024884141517744  0.3349021368839395  0.1673798474585272
  0.6696892803168720 -0.0023485340569399  0.1670093292452594
  0.3321637929958823 -0.0020289118647886  0.1668188816719277
  0.0018264825023544 -0.0003532441953277  0.1666525762916719
  0.5574456500095112  0.8898162928717148  0.0827002505066920
  0.2233239319136215  0.8913130791648254  0.0839470028520340
  0.8853118237870660  0.8908936319255040  0.0833144840900306
  0.5543442884475821  0.5565251132094420  0.0838407830818474
  0.2208993122581440  0.5585605315508424  0.0826477377864065
  0.8894828223644989  0.5541581388334976  0.0827631617926003
  0.5578549441365147  0.2219069297692020  0.0834278657876832
  0.2253475156458108  0.2196693883664514  0.0839818158132641
  0.8900530166473450  0.2206213760779532  0.0837717149856377
  0.7802059197449140  0.7777802450630132  0.0001509907768875
  0.4443339287385227  0.7803045191019645  0.0001285103940370
  0.1113943019804831  0.7775833622679267  0.0000273673552598
  0.7768327945619726  0.4444134918373396  0.0006668582053570
  0.4474158325854116  0.4417282501755843 -0.0006224316866401
  0.1134759545933587  0.4443312366492920 -0.0001155756531874
  0.7786047806410735  0.1124313903105875  0.0000443528353218
  0.4452338932442496  0.1121933820867582 -0.0001182040875880
  0.0007716341087580  0.6659346740206432  0.1663959140770860
  0.3327184347943338  0.6671538673143552  0.1669700943286463
  0.6671239805221798  0.6692809761759934  0.1669777389401138
  0.1139629290406818  0.1093315451553661  0.2499767586650667
 -0.0010438838192151  0.6643608069373281  0.4170487605952103
  0.6669823703898180  0.3310138451030800  0.4171885699345349
  0.3321859021347223  0.3317663989715392  0.4164956143526928
  0.0016008919744313  0.3304317977702041  0.4161164258465735
  0.6650443318412302  0.0020809137015642  0.4161293116654699
  0.3368894916197335 -0.0026882493929450  0.4166485966296098
  0.0025383173874244 -0.0008273228188827  0.4164746125596739
  0.5536112596357571  0.8912814798463221  0.3341021762864186
  0.2224807128933157  0.8883664647747787  0.3333654950601908
  0.8900380128527559  0.8900190802606757  0.3327082091548589
  0.5558947366631276  0.5544734594142594  0.3333318272497919
  0.6664511525203776  0.6649365352843712  0.9173842854111440
  0.2215482076116746  0.5551600120654242  0.3331553921833655
  0.5568189832693781  0.2212436085536983  0.3334541934034195
  0.2234629341985057  0.2234196042285325  0.3339020856891651
  0.8862208851152771  0.2241903090123439  0.3330771824792097
  0.7770904740559381  0.7773039080584521  0.2500746288173241
  0.4441928865769267  0.7777820999777171  0.2500513350327601
  0.1105874641196782  0.7758764191520002  0.2496847810121529
  0.7772548292724655  0.4418831758381762  0.2506477056012330
  0.4424902117967545  0.4460717419619668  0.2494525215609848
  0.1098271876617775  0.4427485388679726  0.2504916625805567
  0.7746739647342894  0.1140298669999380  0.2500477075501052
  0.4470285196182174  0.1084988402728953  0.2500513576905722
  0.8881678495380958  0.5548672766952166  0.3334773833644662
  0.0007426957293302  0.6641598959033860  0.9163897045287780
