Cu
 1.0000000000000000
     7.6685730419681093    0.0000000000000000    0.0000000000000000
     3.8342865209840546    6.6411790651208911    0.0000000000000000
     0.0000000000000000    0.0000000000000000   25.0450909090909093
 Cu 
 108
Direct
  0.1120901482282656  0.1118537870259556  0.0005299192455090
  0.3350029582892068  0.8014497390272824  0.6666464126971825
 -0.0022817170348706  0.4686986474927241  0.6670681728929795
  0.6680130679525383  0.4673423476302766  0.6672790725835106
  0.3342698810877972  0.4692117091047469  0.6662024132511611
  0.0033360875796610  0.1318546639773080  0.6661528688792440
  0.6643838674011944  0.1347699870438931  0.6659652231089899
  0.3333324988544389  0.1347700917030350  0.6666558274278642
  0.8892480355744158  0.0204483943673370  0.5840466889303024
  0.5530959832129532  0.0248990260977201  0.5840616200515564
  0.2194766196835582  0.0239026190398001  0.5833061020653507
  0.8916641522011711  0.6858918543312998  0.5835189472091598
  0.5566419999778958  0.6889518308604125  0.5838719063520034
  0.2214897702771907  0.6872189781013828  0.5837969664608594
  0.8863371371980120  0.3574818139493503  0.5840418887473701
  0.5559790644002530  0.3533387698784122  0.5836212934680262
  0.2211505898312731  0.3549641002293407  0.5834100262973372
  0.1092874894315813  0.9097188940862497  0.5000393789419568
  0.7784904458878703  0.9127627909457707  0.5005569248212872
  0.4475188215108456  0.9081436099641993  0.4999406974861173
  0.1104140112863133  0.5765920635804359  0.5007137481190262
  0.7771707441205097  0.5776196570698922  0.5007241819423995
  0.4435810405256467  0.5775669913389923  0.5004122336678537
  0.1105692541351023  0.2438238724506762  0.5003500592936948
  0.6651532326151425  0.8023032796553317  0.6666485942217669
  0.7769621975291786  0.2452012680512375  0.4998619943391177
 -0.0019400411899399  0.8006781091984516  0.6667355055083451
  0.7772432866235423  0.2468672483835290  0.7503417515404461
  0.3323194836589610  0.7996544071331702  0.9160689887173952
 -0.0025758242633231  0.4670506157419204  0.9167566071344374
  0.6683489879939455  0.4664306989652649  0.9170715409614075
  0.3355452977729677  0.4636916890391936  0.9162343495761284
 -0.0001512519831750  0.1360714955334029  0.9171330941123607
  0.6645361899992537  0.1340602493918518  0.9173839335652177
  0.3348034150318682  0.1333672055616751  0.9171098636041247
  0.8867354839046303  0.0227567727242985  0.8334353188289122
  0.5539389486953330  0.0241535495733235  0.8338023295659366
  0.2220160489083667  0.0246975454977809  0.8329552703662584
  0.8882770604272859  0.6887864384126384  0.8340153284061185
  0.5536943031683031  0.6900182031178070  0.8333476054632000
  0.2218038019329005  0.6881934841343965  0.8336575278124962
  0.8874217621417378  0.3578320293810139  0.8338322464674075
  0.5547508939230771  0.3585393451352911  0.8329750018740725
  0.2214159186965704  0.3566448819586941  0.8341160602680988
  0.1137791519336697  0.9082137301819940  0.7503470388420576
  0.7808679332079002  0.9087421382325183  0.7500469415317298
  0.4453240425691699  0.9107110334498317  0.7493894130590927
  0.1120748174164847  0.5781845185983799  0.7498891702516657
  0.7742859162091514  0.5798698568261572  0.7496319527485023
  0.4424193117494489  0.5779216925152032  0.7503145982506969
  0.1133169556652419  0.2447984205970634  0.7494300439741740
  0.4440133810265988  0.2465835680767993  0.7503703163653439
  0.4458026526914904  0.2460433493875195  0.5000885848109318
  0.6696262090376227  0.6647366185945507  0.4174105862685888
  0.3329528647277676  0.6676785714451327  0.4166008454136219
  0.6660084133847898  0.3324314443141376  0.1671160518562695
  0.3343866239031840  0.3357742651089787  0.1671633175536132
  0.0009166674525252  0.3339206771563069  0.1659608516040723
  0.6663593236006199 -0.0015652561532475  0.1662420015995757
  0.3316198725794073  0.0013067762961959  0.1674119179707561
 -0.0004424857966077 -0.0012408669033885  0.1669839837700125
  0.5562984610346616  0.8865300784434262  0.0833591798412956
  0.2248000126929916  0.8870558140851631  0.0838852651938708
  0.8902052030882810  0.8883575839197990  0.0830282507142419
  0.5525692101821827  0.5563362749425328  0.0831075458793525
  0.2195035083818286  0.5585635109426939  0.0832503477553803
  0.8918494907050623  0.5542586154172749  0.0838835452078617
  0.5524859850173132  0.2243501132354677  0.0828726820070642
  0.2199260818475163  0.2219839882861638  0.0833638169179607
  0.8883409462762755  0.2220985619314055  0.0827754267903616
  0.7755801284337678  0.7804743205964924 -0.0001067266215642
  0.4431010867904263  0.7769289713581183  0.0000573967707610
  0.1116096622987186  0.7800961999214525  0.0004312056218462
  0.7777652895686292  0.4437461401455722  0.0003038409860397
  0.4446306185327278  0.4445355277220897  0.0001199060746812
  0.1114680023924125  0.4415390728690969  0.0007060898538673
  0.7790187789202516  0.1123939237899736  0.0001173186115141
  0.4433659747975757  0.1088790178804214 -0.0000848016180976
  0.0018654416456589  0.6666536067108980  0.1665678884135209
  0.3302230485826613  0.6685625935821948  0.1659813143929126
  0.6661547396532240  0.6646751119610683  0.1673980007834495
  0.1111347185321933  0.1111416462316860  0.2494454652385408
 -0.0031597095904304  0.6688264248544259  0.4164766476410590
  0.6673193652893616  0.3337607873612384  0.4169641144489482
  0.3320305625789631  0.3321832937877439  0.4171684994639610
 -0.0003884124281748  0.3336784092350041  0.4168301370317417
  0.6672745712328267 -0.0014914239784834  0.4171547594016211
  0.3306964388682068  0.0002003068903387  0.4173895407792197
 -0.0034582823434252  0.0029423275048160  0.4172984666319942
  0.5557555362193888  0.8896015692687423  0.3328042120843926
  0.2193444199547217  0.8908490383209670  0.3328714681951373
  0.8848776161478079  0.8917981259302956  0.3329586317453456
  0.5562957567100152  0.5579479913233442  0.3337270982545357
  0.6661517327748974  0.8019782338430490  0.9160530165799955
  0.2219367344553900  0.5582422355879570  0.3332357804911888
  0.5591347167880952  0.2201067594361124  0.3336342625701375
  0.2209350673146438  0.2251431864324449  0.3331963087670214
  0.8887400788862291  0.2213732509150841  0.3336633814945623
  0.7812660330030433  0.7753304251189307  0.2501400477926468
  0.4426440862025824  0.7788410676807318  0.2492923611490172
  0.1120980157857980  0.7780119322607472  0.2498255220227995
  0.7779276192857384  0.4457442775934183  0.2501720294573025
  0.4442492581593913  0.4452953347229256  0.2502797025069998
  0.1115467901585568  0.4436757374254860  0.2497895891441925
  0.7791031433731694  0.1099948463490590  0.2503777570999792
  0.4422892379024435  0.1112908076427997  0.2495015566904297
  0.8857744585341082  0.5583705707218514  0.3334820209894676
 -0.0029161695723156  0.8025073716482687  0.9172622130274201
