Cu
 1.0000000000000000
     7.6685730419681093    0.0000000000000000    0.0000000000000000
     3.8342865209840546    6.6411790651208911    0.0000000000000000
     0.0000000000000000    0.0000000000000000   25.0450909090909093
 Cu 
 108
Direct
  0.1092011116863020  0.1108434718547456  0.0007523175451258
  0.0649287817376528  0.7331739984121382  0.6674723095052951
  0.7327083893789933  0.4027389121483679  0.6671663154781409
  0.3998935749948843  0.3995058751214184  0.6667168646355592
  0.0668111033017389  0.4019867937859117  0.6668536966779787
  0.7341382498917283  0.0667851810465027  0.6664166364260055
  0.3986243977275445  0.0644442862116208  0.6673114427989947
  0.0652831030564668  0.0644055843309807  0.6661005329585558
  0.6253237083323098  0.9542717304686588  0.5840504113500335
  0.2883499066949429  0.9549956056548553  0.5828223637446520
  0.9543911518950771  0.9556306233857034  0.5834837569422200
  0.6233255629520508  0.6249705995006873  0.5827904432383085
  0.2894031356622350  0.6229782937859062  0.5839542282823227
  0.9569316536709590  0.6200107820030876  0.5830916028875981
  0.6235793314981274  0.2904705848696767  0.5838172432080916
  0.2863994539122339  0.2894897267289286  0.5832166805882857
  0.9560291555751051  0.2870070883302991  0.5834935404015813
  0.8427481453929869  0.8437042978218493  0.5006869200039801
  0.5086926736956691  0.8473667646174444  0.5007645294939214
  0.1739499704235536  0.8471577743737515  0.4993453598594226
  0.8450460460516740  0.5102636095842596  0.5000065134554142
  0.5119204167616451  0.5113939585870940  0.4993464780417013
  0.1756647896449906  0.5138482284249597  0.4996507742685881
  0.8473063451579481  0.1767503733982626  0.4995363778447384
  0.4006295767631086  0.7339727323405451  0.6667323075753361
  0.5116667063272150  0.1804168193247304  0.5006259367536874
  0.7329808375669944  0.7313582417081304  0.6670957898562542
  0.5117015592342209  0.1788518644945155  0.7493345185589645
  0.0691788247360188  0.7329336762935896  0.9169457430262717
  0.7322437591682718  0.3980541260283564  0.9160547400899204
  0.4014306599567554  0.4010528639332037  0.9173959887084788
  0.0659891075089175  0.4005788761122222  0.9173803935186503
  0.7342194326942324  0.0671666805289040  0.9166628005067693
  0.4022947031374995  0.0642280684551688  0.9162534427670995
  0.0667656177208645  0.0642960199045615  0.9159264178830934
  0.6239524560292281  0.9534218064726953  0.8325928575494937
  0.2899188566778563  0.9541299661575604  0.8326729930149213
  0.9563141135560997  0.9582048477669937  0.8338367893104539
  0.6229358831746842  0.6214211449003422  0.8336746709017890
  0.2884750923349231  0.6208447523591203  0.8335266514539711
  0.9555315416122625  0.6226876454982920  0.8329304394068688
  0.6195129527014468  0.2913195081240509  0.8336027059885642
  0.2868393600970484  0.2898490892199272  0.8329946089263661
  0.9520277251598869  0.2912876809927786  0.8335218283128271
  0.8424680032030781  0.8471961537935399  0.7507806803748355
  0.5098861280192535  0.8442069155677069  0.7495406631225824
  0.1770279597416536  0.8456324116129892  0.7507180079567899
  0.8428908187147387  0.5092138335218979  0.7506871694062071
  0.5101134075275181  0.5087880514998051  0.7493136262603859
  0.1754729677463370  0.5120740043091269  0.7499846193518031
  0.8466710294498060  0.1781616857078087  0.7494061749070368
  0.1765287781667288  0.1803877457303056  0.7503019623938454
  0.1796435785128259  0.1791713869242032  0.5005063533744640
  0.6645719047513086  0.6660759866131724  0.4165394442073347
  0.3341425398959497  0.6659926884053355  0.4164296632695990
  0.6650562011193176  0.3358693890852135  0.1666878330984307
  0.3338775893599642  0.3324279968144869  0.1667904430931675
  0.0000904049753543  0.3346543577319609  0.1669467945875328
  0.6678173738549019  0.0018948759079563  0.1667195046526534
  0.3342639947276312 -0.0003133953578667  0.1659039733721016
 -0.0001475502972637  0.0006548239424955  0.1658876744449048
  0.5523915189166577  0.8912639279712333  0.0832232900648490
  0.2207454220282365  0.8884940120374302  0.0838483898773870
  0.8900662013670707  0.8864073675022323  0.0826257781039652
  0.5577971046795150  0.5561817020194182  0.0833120452290610
  0.2208004582820701  0.5537810315361037  0.0829112062345437
  0.8885942379108553  0.5543889999434378  0.0827741543544688
  0.5534206323659873  0.2224389210655995  0.0840981893871500
  0.2220671616339154  0.2235485713082079  0.0830720937028758
  0.8867103327994810  0.2247107999530328  0.0835899112671164
  0.7765617549726935  0.7784884421964579 -0.0001753864857098
  0.4448361105796116  0.7780909631128471 -0.0001954526239843
  0.1090851443516058  0.7783324367853539  0.0003088308115090
  0.7808963182559403  0.4423544148936512 -0.0006342259907550
  0.4464739759711375  0.4437576447660376 -0.0005595666528570
  0.1105424166725147  0.4448821924523777 -0.0006653291346960
  0.7758326940214096  0.1111929917539614  0.0004648546606398
  0.4448970200019525  0.1101055586034276  0.0000711009099496
 -0.0013176758406386  0.6651544123857919  0.1660650400445828
  0.3322132614874087  0.6692111624851534  0.1671417717300364
  0.6640533123616528  0.6683570235707855  0.1670881811066956
  0.1092951597197358  0.1140808555397482  0.2496807859595410
  0.0015078474975533  0.6673610691440293  0.4161838862833011
  0.6654395626424812  0.3356433892403294  0.4172841185257699
  0.3311192812397544  0.3338345089934228  0.4164162800857659
 -0.0001726289258134  0.3355007381965069  0.4172017812845049
  0.6659616276401047  0.0002666636955956  0.4173773078403480
  0.3321548920194963 -0.0004648299832277  0.4166978774280729
 -0.0015180771809787  0.0011329421762314  0.4160848235144387
  0.5526982355450372  0.8903060570028482  0.3331078620159934
  0.2213814123356290  0.8916884465101997  0.3330001680300627
  0.8898361696531604  0.8891488553795361  0.3329943400123875
  0.5588538940730708  0.5538448040007315  0.3325580981049301
  0.3976050590374728  0.7340517162753727  0.9170855753927957
  0.2243298247660340  0.5532723742960703  0.3325580779388693
  0.5579313039561882  0.2226462350027664  0.3338892912506084
  0.2238558741871544  0.2211183905282608  0.3332128819414782
  0.8902732479310004  0.2234074211013027  0.3330762702406401
  0.7764293425941418  0.7799977322661635  0.2499242548138732
  0.4413772866485805  0.7797453459453302  0.2493456078515436
  0.1109991880652362  0.7768388383398968  0.2504704966898675
  0.7763570428669232  0.4467954973048500  0.2492773260354462
  0.4460635508368466  0.4457393922562284  0.2492372145412838
  0.1101151356891875  0.4463673140040992  0.2497308616659935
  0.7810004061419422  0.1085533974506357  0.2493491119570177
  0.4434279556920827  0.1137425030674723  0.2503174577435249
  0.8887664637139363  0.5535604946374045  0.3335603368444828
  0.7317960090747415  0.7322510896923680  0.9160831912212005
