Cu
 1.0000000000000000
     7.6685730419681093    0.0000000000000000    0.0000000000000000
     3.8342865209840546    6.6411790651208911    0.0000000000000000
     0.0000000000000000    0.0000000000000000   25.0450909090909093
 Cu 
 108
Direct
  0.1107063914025398  0.1134469413856341 -0.0005304689353810
  0.2664297698812342  0.9326888363425870  0.6667658394461924
  0.9314104210683921  0.5986915557419190  0.6662116827707507
  0.6007301398030367  0.5999966852796251  0.6665955020233734
  0.2642519019189889  0.6004358960121154  0.6673540498136095
  0.9315536348856719  0.2664783695553129  0.6672908827369738
  0.5991557185992641  0.2658141967358068  0.6664032337407283
  0.2660197472323734  0.2680696176832492  0.6665378704003486
  0.8233530668445538  0.1532223266139682  0.5826133143547756
  0.4902828394441265  0.1536476262718235  0.5827407496464487
  0.1580210222954238  0.1547671774430600  0.5835625107112812
  0.8240592192191556  0.8219074541650033  0.5825777287835509
  0.4876402834144669  0.8226626956577363  0.5830825381929948
  0.1579099879778150  0.8211487567421487  0.5829875304176952
  0.8228986815339396  0.4885157305064781  0.5826313509991996
  0.4877117903913922  0.4898197680649733  0.5832326091158063
  0.1557814858403395  0.4906873126239629  0.5838569407992857
  0.0449765675100891  0.0445126605877274  0.5003361510666217
  0.7115904946660240  0.0435346153767246  0.5004862032641652
  0.3763594904352337  0.0457661684390475  0.5004833842851844
  0.0464877466540845  0.7114638322947534  0.4996108749062718
  0.7098443946487534  0.7094268290074087  0.5002998025951667
  0.3790434959024675  0.7106362710477855  0.5002220339815209
  0.0446243781893276  0.3760933619713183  0.4995269381914865
  0.5965775527199878  0.9361729990942703  0.6660223924774696
  0.7137177005595653  0.3770612742756966  0.4998244688845671
  0.9358575031221776  0.9327603951119124  0.6671741609834858
  0.7073427924513169  0.3805148503354999  0.7507890011596944
  0.2639569485054266  0.9363254057575673  0.9169780187409767
  0.9318164071774395  0.5990936552466031  0.9164827185940438
  0.5990520337376378  0.6004634957526449  0.9163871750190974
  0.2691440341154808  0.5972222061824289  0.9168487380601782
  0.9337278767753661  0.2676524110557886  0.9173561757137977
  0.6015058760541057  0.2644900126380124  0.9172663984987719
  0.2676670390314079  0.2696312156449875  0.9171236294860163
  0.8242429187629396  0.1535335609935611  0.8325931187053929
  0.4893175904173910  0.1532062177456954  0.8330894337690053
  0.1543449955931658  0.1577598999120997  0.8331425218275728
  0.8216844479192466  0.8215850531652799  0.8328564879289729
  0.4861614245694055  0.8251771650365324  0.8335210905690744
  0.1554376095314922  0.8196312652913135  0.8340343053512733
  0.8238101881389835  0.4866853201926473  0.8336030924605692
  0.4885595714997814  0.4897747489928674  0.8327174902058074
  0.1569582071478569  0.4899496481979852  0.8336267912559111
  0.0438795444583217  0.0416834796566042  0.7497445758501340
  0.7108741489734410  0.0432390859029956  0.7503905214948055
  0.3785735556399906  0.0417908550132834  0.7506977489019315
  0.0433339364150688  0.7082880345180725  0.7505600949514770
  0.7137731314132327  0.7102267766089346  0.7494646183323317
  0.3799009502616416  0.7116136225271321  0.7506001386832727
  0.0463297250320550  0.3751332780576620  0.7506309042766249
  0.3754480621694081  0.3785963172310473  0.7502016487207205
  0.3794892572353502  0.3781751777691936  0.5003228934661706
  0.6683538831584339  0.6669917477349080  0.4164333503582224
  0.3364931553828834  0.6648200411899566  0.4166881806422213
  0.6671400360340543  0.3345315073190187  0.1669444178317655
  0.3351879359379645  0.3312105500312704  0.1667966836472857
  0.0020372171771043  0.3314792943753663  0.1661382618759455
  0.6644448258580633  0.0019821138805403  0.1663482547155916
  0.3346355199428195 -0.0022028960612506  0.1669610929840155
 -0.0027906312506487  0.0018050065159405  0.1668375449135082
  0.5565667544111992  0.8917175725552953  0.0827319392458815
  0.2217896633761082  0.8912279717830364  0.0830831853674546
  0.8917382845210675  0.8876572428468642  0.0830890550766177
  0.5563111353416657  0.5570066066389198  0.0840015707096877
  0.2249076683306225  0.5526840592975039  0.0840000675428851
  0.8871359506019642  0.5539204763215435  0.0835947619871905
  0.5563365008058266  0.2237059638370532  0.0836797144290446
  0.2252241433877929  0.2195299158315596  0.0827845871073628
  0.8893653729199323  0.2210251210842687  0.0832500535783650
  0.7774603204171301  0.7780259028956130 -0.0003992225774090
  0.4421218491437761  0.7780421526110400  0.0006142857261789
  0.1125814618466982  0.7776347205525241  0.0005258914608359
  0.7779944178428512  0.4437089259728634 -0.0006965976814780
  0.4458394797521862  0.4453998532393231  0.0002361387982840
  0.1111421069637201  0.4423686545641662  0.0001316997769667
  0.7780260019416128  0.1132425821441884  0.0007268092453750
  0.4439233921657063  0.1109275605044067  0.0002469806409894
 -0.0015077579934582  0.6682765277326043  0.1662929572275398
  0.3336535217228638  0.6660683908096643  0.1667673924995281
  0.6645401759518837  0.6691394751262923  0.1669385894554070
  0.1111759937880976  0.1107224394704930  0.2507258790987037
 -0.0010996047722853  0.6646151974922344  0.4174223921801447
  0.6641294594301905  0.3343367667062118  0.4173132085047441
  0.3308709562028094  0.3336593643945661  0.4166119343803559
 -0.0033427244546675  0.3360743074847738  0.4168608519631674
  0.6655000352525676 -0.0006282461900473  0.4168731421125583
  0.3340570659149857 -0.0017199137767145  0.4174025583696124
  0.0006818553689770  0.0001770239125934  0.4171785565301937
  0.5565258115455700  0.8884243396891880  0.3327123529875785
  0.2216077792786252  0.8904201215215071  0.3336529875664571
  0.8890890966770001  0.8911523768860040  0.3333422007689996
  0.5535361993395924  0.5574589560386173  0.3340708892603497
  0.5990277740762134  0.9340913701260647  0.9170027259041075
  0.2202642953391283  0.5585269027333271  0.3329331141874340
  0.5571237683971272  0.2232348300117679  0.3333055648523151
  0.2228625695081383  0.2243733027745622  0.3328334665357176
  0.8867410800095197  0.2241134380864895  0.3340344408968287
  0.7747986991414595  0.7790000554115766  0.2507269365956893
  0.4429523425765680  0.7761733856750043  0.2501010937867718
  0.1131921050549376  0.7780037023150185  0.2494761525770964
  0.7788649342213179  0.4430967136024559  0.2503231971842162
  0.4438864645083719  0.4446305384110729  0.2507758181902645
  0.1140625107075059  0.4422713929228025  0.2496312918697329
  0.7795066033492291  0.1088395586345005  0.2495630454476694
  0.4453426637113926  0.1124209485922809  0.2494308301363882
  0.8915577240165250  0.5535992218211515  0.3325961875131611
  0.9333000449581441  0.9305543833174705  0.9174085240537186
