Cu
 1.0000000000000000
     7.6685730419681093    0.0000000000000000    0.0000000000000000
     3.8342865209840546    6.6411790651208911    0.0000000000000000
     0.0000000000000000    0.0000000000000000   25.0450909090909093
 Cu 
 108
Direct
  0.1116052032109694  0.1093266358978054 -0.0000397678648849
  0.0009665652581895  0.7322872918099180  0.6672894975940633
  0.6681270590011781  0.3975540984793316  0.6667014577901296
  0.3333980038190993  0.4020310399935206  0.6670036241437510
  0.0009493418550175  0.3984909802273868  0.6672509143482930
  0.6689236724030970  0.0667133463589839  0.6664723799208175
  0.3321201262729007  0.0654883916377330  0.6670399084510208
  0.0001916291113986  0.0659577155632200  0.6671681153193904
  0.5523445473537306  0.9568563212682736  0.5840024709661520
  0.2202621723567950  0.9550781043743287  0.5836598101707098
  0.8875587897099970  0.9547719439240981  0.5833647142784502
  0.5556285844571351  0.6242564976968280  0.5832390766862490
  0.2218133634678489  0.6219513706812383  0.5837572728845530
  0.8883600368591280  0.6221296794898309  0.5832148597182799
  0.5545216094424742  0.2866906867409438  0.5830206559673444
  0.2227717728457529  0.2871631059696664  0.5827939723610357
  0.8886787370134872  0.2899338192071102  0.5839233526473163
  0.7806199150125037  0.8417580592053037  0.5002960596300645
  0.4433985366091847  0.8464642744800848  0.4992583490639982
  0.1109058618410154  0.8470831801894936  0.5005948156170807
  0.7795067467586790  0.5119549369110938  0.5001285914217952
  0.4432921986479058  0.5088714278713597  0.5004860441216240
  0.1122739641004721  0.5114825454257380  0.4997827467744163
  0.7783726237433679  0.1756191992383070  0.4995815541401920
  0.3332540404007953  0.7317122337335547  0.6668884335080449
  0.4446273367250066  0.1778262097041040  0.5006591838223013
  0.6656578985604418  0.7361956685565999  0.6670457340631119
  0.4459928748857318  0.1751877578633604  0.7499131409027269
  0.0024150576229416  0.7305534859391987  0.9171145794368682
  0.6686725860024061  0.3981201726227273  0.9172450212573847
  0.3344826393793649  0.3996022336050579  0.9167932431936795
 -0.0000723746756191  0.4020270943583408  0.9169433802458070
  0.6687361107917397  0.0659948584969830  0.9166824218678483
  0.3335239463018212  0.0674878081197617  0.9164401282452052
  0.0011888020533865  0.0689152057570324  0.9166753504479734
  0.5541562257090635  0.9532636553408274  0.8332324258099425
  0.2206474409407795  0.9570739494713173  0.8337330623904701
  0.8898660177822973  0.9577419816633025  0.8326724868793777
  0.5580832389553076  0.6221538230313903  0.8338092635727059
  0.2197547804511646  0.6245525055265083  0.8338482546592305
  0.8876079731922979  0.6231047980153308  0.8334747303181519
  0.5566388170349732  0.2879866351848938  0.8331281012231170
  0.2240906400004972  0.2900997240685380  0.8336835918084976
  0.8866870883240467  0.2915012657543847  0.8331908221976159
  0.7790338647547503  0.8421621673312391  0.7501752897031359
  0.4428341655523341  0.8448158026328176  0.7503822075306124
  0.1129616278791102  0.8432364937120675  0.7494341441543427
  0.7746616613911155  0.5126045090899430  0.7508019925316134
  0.4451501112521044  0.5134598429952317  0.7493878077667575
  0.1099335961101357  0.5102916435710827  0.7506914935495990
  0.7787561639897617  0.1763754204649739  0.7501132477969145
  0.1125283595031964  0.1773206784570000  0.7501529869165626
  0.1129762429430163  0.1773420527120046  0.4999257279935396
  0.6655739482358998  0.6695347666980168  0.4165605598819420
  0.3315349932473425  0.6667631905233440  0.4174126520277679
  0.6668625368147753  0.3310213119567453  0.1666878931066109
  0.3366307668497163  0.3306888174774198  0.1670464647129837
 -0.0029794839583800  0.3352104203797753  0.1673094804256870
  0.6654314111562233 -0.0001583066181317  0.1658827265368629
  0.3332587039425579  0.0009152878124700  0.1671605304313390
  0.0007139688314231  0.0018631311431629  0.1666668912081891
  0.5530967944294327  0.8912308952899998  0.0840971653557267
  0.2221298794471893  0.8895021721319769  0.0826267200317797
  0.8865233053165275  0.8917327242217736  0.0838437371968667
  0.5555068621763088  0.5569507755984933  0.0838153670406949
  0.2222078490409087  0.5553640697329294  0.0834013684577149
  0.8897489071355054  0.5572480782207135  0.0837768185141465
  0.5543952467650270  0.2198893464496123  0.0834553200150038
  0.2222308488891741  0.2192530698868086  0.0840643883272805
  0.8883628817488476  0.2201467926306737  0.0836734420823019
  0.7771381019484549  0.7799807720290580 -0.0007053859243312
  0.4452379451725222  0.7798750000340490 -0.0003922550148612
  0.1127239448437172  0.7781206650921008 -0.0001560094903788
  0.7765080996728463  0.4442822567085756  0.0003709509006868
  0.4423178821764788  0.4445301595865804 -0.0005386044486829
  0.1101545283861166  0.4473898706630424 -0.0000773948243717
  0.7795257489833052  0.1128154408747480 -0.0004470257866164
  0.4470599006710338  0.1107014184392272 -0.0002597123725990
  0.0023779091772573  0.6667912330926460  0.1672893412380849
  0.3353082919832694  0.6669472683242205  0.1666154012436672
  0.6654465970955428  0.6683521332083127  0.1660220110025964
  0.1073761439029033  0.1137954435863823  0.2506619816601727
 -0.0007073709195858  0.6692407765871623  0.4167220975470450
  0.6678334918027039  0.3340116221194299  0.4161097361947997
  0.3303499515209442  0.3356674234199583  0.4166954941390382
  0.0006078936032985  0.3322785893976035  0.4169978707414568
  0.6686370231586590  0.0007957169599338  0.4162758700088133
  0.3320910488836634  0.0014815374242949  0.4173855592639834
 -0.0009003198048746 -0.0005524347125463  0.4168196628850425
  0.5548872281482624  0.8869364823558589  0.3341322424899836
  0.2227383849962080  0.8895903021993831  0.3339113351183270
  0.8925601327886120  0.8867260775288576  0.3334910365610160
  0.5533032488446556  0.5566576154362091  0.3325759947664369
  0.3317271675099673  0.7329382681140308  0.9159049522269571
  0.2237314556658157  0.5556289848591756  0.3335009201786325
  0.5546292560999224  0.2226025594858977  0.3335313160658917
  0.2212510382822247  0.2245801577414222  0.3339230750666837
  0.8903687800270927  0.2213131581676495  0.3330470912762054
  0.7754228481659924  0.7799862089877296  0.2497392212690884
  0.4468009065661069  0.7781628541639773  0.2492604243039301
  0.1110613299641455  0.7787355055236268  0.2498700691870352
  0.7760924942012655  0.4428686111528106  0.2496842944816815
  0.4474602828475464  0.4416388947361972  0.2494818552321731
  0.1121867887404595  0.4457303240749074  0.2502771409068572
  0.7752190730156496  0.1112660680504365  0.2499602090027796
  0.4451733558097244  0.1126538667775339  0.2499019163188037
  0.8877715525824126  0.5579495982956857  0.3335156803710515
  0.6636814058517825  0.7354713533850433  0.9167730897964708
