Generated generic
1.0
    7.66857304    0.00000000    0.00000000
    3.83428652    6.64117907    0.00000000
    0.00000000    0.00000000  204.53787987
 Cu
 882
Selective dynamics
Direct
    0.27794735    0.16874940    0.00000000 F F F
    0.61128068    0.16874940    0.00000000 F F F
    0.94461402    0.16874940    0.00000000 F F F
    0.27794735    0.50208273    0.00000000 F F F
    0.61128068    0.50208273    0.00000000 F F F
    0.94461402    0.50208273    0.00000000 F F F
    0.27794735    0.83541607    0.00000000 F F F
    0.61128068    0.83541607    0.00000000 F F F
    0.94461402    0.83541607    0.00000000 F F F
    0.05572513    0.27986051    0.01020408 T T T
    0.38905846    0.27986051    0.01020408 T T T
    0.72239179    0.27986051    0.01020408 T T T
    0.05572513    0.61319385    0.01020408 T T T
    0.38905846    0.61319385    0.01020408 T T T
    0.72239179    0.61319385    0.01020408 T T T
    0.05572513    0.94652718    0.01020408 T T T
    0.38905846    0.94652718    0.01020408 T T T
    0.72239179    0.94652718    0.01020408 T T T
    0.16683624    0.05763829    0.02040816 T T T
    0.50016957    0.05763829    0.02040816 T T T
    0.83350291    0.05763829    0.02040816 T T T
    0.16683624    0.39097162    0.02040816 T T T
    0.50016957    0.39097162    0.02040816 T T T
    0.83350291    0.39097162    0.02040816 T T T
    0.16683624    0.72430496    0.02040816 T T T
    0.50016957    0.72430496    0.02040816 T T T
    0.83350291    0.72430496    0.02040816 T T T
    0.27794735    0.16874940    0.03061224 T T T
    0.61128068    0.16874940    0.03061224 T T T
    0.94461402    0.16874940    0.03061224 T T T
    0.27794735    0.50208273    0.03061224 T T T
    0.61128068    0.50208273    0.03061224 T T T
    0.94461402    0.50208273    0.03061224 T T T
    0.27794735    0.83541607    0.03061224 T T T
    0.61128068    0.83541607    0.03061224 T T T
    0.94461402    0.83541607    0.03061224 T T T
    0.05572513    0.27986051    0.04081633 T T T
    0.38905846    0.27986051    0.04081633 T T T
    0.72239179    0.27986051    0.04081633 T T T
    0.05572513    0.61319385    0.04081633 T T T
    0.38905846    0.61319385    0.04081633 T T T
    0.72239179    0.61319385    0.04081633 T T T
    0.05572513    0.94652718    0.04081633 T T T
    0.38905846    0.94652718    0.04081633 T T T
    0.72239179    0.94652718    0.04081633 T T T
    0.16683624    0.05763829    0.05102041 T T T
    0.50016957    0.05763829    0.05102041 T T T
    0.83350291    0.05763829    0.05102041 T T T
    0.16683624    0.39097162    0.05102041 T T T
    0.50016957    0.39097162    0.05102041 T T T
    0.83350291    0.39097162    0.05102041 T T T
    0.16683624    0.72430496    0.05102041 T T T
    0.50016957    0.72430496    0.05102041 T T T
    0.83350291    0.72430496    0.05102041 T T T
    0.27794735    0.16874940    0.06122449 T T T
    0.61128068    0.16874940    0.06122449 T T T
    0.94461402    0.16874940    0.06122449 T T T
    0.27794735    0.50208273    0.06122449 T T T
    0.61128068    0.50208273    0.06122449 T T T
    0.94461402    0.50208273    0.06122449 T T T
    0.27794735    0.83541607    0.06122449 T T T
    0.61128068    0.83541607    0.06122449 T T T
    0.94461402    0.83541607    0.06122449 T T T
    0.05572513    0.27986051    0.07142857 T T T
    0.38905846    0.27986051    0.07142857 T T T
    0.72239179    0.27986051    0.07142857 T T T
    0.05572513    0.61319385    0.07142857 T T T
    0.38905846    0.61319385    0.07142857 T T T
    0.72239179    0.61319385    0.07142857 T T T
    0.05572513    0.94652718    0.07142857 T T T
    0.38905846    0.94652718    0.07142857 T T T
    0.72239179    0.94652718    0.07142857 T T T
    0.16683624    0.05763829    0.08163265 T T T
    0.50016957    0.05763829    0.08163265 T T T
    0.83350291    0.05763829    0.08163265 T T T
    0.16683624    0.39097162    0.08163265 T T T
    0.50016957    0.39097162    0.08163265 T T T
    0.83350291    0.39097162    0.08163265 T T T
    0.16683624    0.72430496    0.08163265 T T T
    0.50016957    0.72430496    0.08163265 T T T
    0.83350291    0.72430496    0.08163265 T T T
    0.27794735    0.16874940    0.09183673 T T T
    0.61128068    0.16874940    0.09183673 T T T
    0.94461402    0.16874940    0.09183673 T T T
    0.27794735    0.50208273    0.09183673 T T T
    0.61128068    0.50208273    0.09183673 T T T
    0.94461402    0.50208273    0.09183673 T T T
    0.27794735    0.83541607    0.09183673 T T T
    0.61128068    0.83541607    0.09183673 T T T
    0.94461402    0.83541607    0.09183673 T T T
    0.05572513    0.27986051    0.10204082 T T T
    0.38905846    0.27986051    0.10204082 T T T
    0.72239179    0.27986051    0.10204082 T T T
    0.05572513    0.61319385    0.10204082 T T T
    0.38905846    0.61319385    0.10204082 T T T
    0.72239179    0.61319385    0.10204082 T T T
    0.05572513    0.94652718    0.10204082 T T T
    0.38905846    0.94652718    0.10204082 T T T
    0.72239179    0.94652718    0.10204082 T T T
    0.16683624    0.05763829    0.11224490 T T T
    0.50016957    0.05763829    0.11224490 T T T
    0.83350291    0.05763829    0.11224490 T T T
    0.16683624    0.39097162    0.11224490 T T T
    0.50016957    0.39097162    0.11224490 T T T
    0.83350291    0.39097162    0.11224490 T T T
    0.16683624    0.72430496    0.11224490 T T T
    0.50016957    0.72430496    0.11224490 T T T
    0.83350291    0.72430496    0.11224490 T T T
    0.27794735    0.16874940    0.12244898 T T T
    0.61128068    0.16874940    0.12244898 T T T
    0.94461402    0.16874940    0.12244898 T T T
    0.27794735    0.50208273    0.12244898 T T T
    0.61128068    0.50208273    0.12244898 T T T
    0.94461402    0.50208273    0.12244898 T T T
    0.27794735    0.83541607    0.12244898 T T T
    0.61128068    0.83541607    0.12244898 T T T
    0.94461402    0.83541607    0.12244898 T T T
    0.05572513    0.27986051    0.13265306 T T T
    0.38905846    0.27986051    0.13265306 T T T
    0.72239179    0.27986051    0.13265306 T T T
    0.05572513    0.61319385    0.13265306 T T T
    0.38905846    0.61319385    0.13265306 T T T
    0.72239179    0.61319385    0.13265306 T T T
    0.05572513    0.94652718    0.13265306 T T T
    0.38905846    0.94652718    0.13265306 T T T
    0.72239179    0.94652718    0.13265306 T T T
    0.16683624    0.05763829    0.14285714 T T T
    0.50016957    0.05763829    0.14285714 T T T
    0.83350291    0.05763829    0.14285714 T T T
    0.16683624    0.39097162    0.14285714 T T T
    0.50016957    0.39097162    0.14285714 T T T
    0.83350291    0.39097162    0.14285714 T T T
    0.16683624    0.72430496    0.14285714 T T T
    0.50016957    0.72430496    0.14285714 T T T
    0.83350291    0.72430496    0.14285714 T T T
    0.27794735    0.16874940    0.15306122 T T T
    0.61128068    0.16874940    0.15306122 T T T
    0.94461402    0.16874940    0.15306122 T T T
    0.27794735    0.50208273    0.15306122 T T T
    0.61128068    0.50208273    0.15306122 T T T
    0.94461402    0.50208273    0.15306122 T T T
    0.27794735    0.83541607    0.15306122 T T T
    0.61128068    0.83541607    0.15306122 T T T
    0.94461402    0.83541607    0.15306122 T T T
    0.05572513    0.27986051    0.16326531 T T T
    0.38905846    0.27986051    0.16326531 T T T
    0.72239179    0.27986051    0.16326531 T T T
    0.05572513    0.61319385    0.16326531 T T T
    0.38905846    0.61319385    0.16326531 T T T
    0.72239179    0.61319385    0.16326531 T T T
    0.05572513    0.94652718    0.16326531 T T T
    0.38905846    0.94652718    0.16326531 T T T
    0.72239179    0.94652718    0.16326531 T T T
    0.16683624    0.05763829    0.17346939 T T T
    0.50016957    0.05763829    0.17346939 T T T
    0.83350291    0.05763829    0.17346939 T T T
    0.16683624    0.39097162    0.17346939 T T T
    0.50016957    0.39097162    0.17346939 T T T
    0.83350291    0.39097162    0.17346939 T T T
    0.16683624    0.72430496    0.17346939 T T T
    0.50016957    0.72430496    0.17346939 T T T
    0.83350291    0.72430496    0.17346939 T T T
    0.27794735    0.16874940    0.18367347 T T T
    0.61128068    0.16874940    0.18367347 T T T
    0.94461402    0.16874940    0.18367347 T T T
    0.27794735    0.50208273    0.18367347 T T T
    0.61128068    0.50208273    0.18367347 T T T
    0.94461402    0.50208273    0.18367347 T T T
    0.27794735    0.83541607    0.18367347 T T T
    0.61128068    0.83541607    0.18367347 T T T
    0.94461402    0.83541607    0.18367347 T T T
    0.05572513    0.27986051    0.19387755 T T T
    0.38905846    0.27986051    0.19387755 T T T
    0.72239179    0.27986051    0.19387755 T T T
    0.05572513    0.61319385    0.19387755 T T T
    0.38905846    0.61319385    0.19387755 T T T
    0.72239179    0.61319385    0.19387755 T T T
    0.05572513    0.94652718    0.19387755 T T T
    0.38905846    0.94652718    0.19387755 T T T
    0.72239179    0.94652718    0.19387755 T T T
    0.16683624    0.05763829    0.20408163 T T T
    0.50016957    0.05763829    0.20408163 T T T
    0.83350291    0.05763829    0.20408163 T T T
    0.16683624    0.39097162    0.20408163 T T T
    0.50016957    0.39097162    0.20408163 T T T
    0.83350291    0.39097162    0.20408163 T T T
    0.16683624    0.72430496    0.20408163 T T T
    0.50016957    0.72430496    0.20408163 T T T
    0.83350291    0.72430496    0.20408163 T T T
    0.27794735    0.16874940    0.21428571 T T T
    0.61128068    0.16874940    0.21428571 T T T
    0.94461402    0.16874940    0.21428571 T T T
    0.27794735    0.50208273    0.21428571 T T T
    0.61128068    0.50208273    0.21428571 T T T
    0.94461402    0.50208273    0.21428571 T T T
    0.27794735    0.83541607    0.21428571 T T T
    0.61128068    0.83541607    0.21428571 T T T
    0.94461402    0.83541607    0.21428571 T T T
    0.05572513    0.27986051    0.22448980 T T T
    0.38905846    0.27986051    0.22448980 T T T
    0.72239179    0.27986051    0.22448980 T T T
    0.05572513    0.61319385    0.22448980 T T T
    0.38905846    0.61319385    0.22448980 T T T
    0.72239179    0.61319385    0.22448980 T T T
    0.05572513    0.94652718    0.22448980 T T T
    0.38905846    0.94652718    0.22448980 T T T
    0.72239179    0.94652718    0.22448980 T T T
    0.16683624    0.05763829    0.23469388 T T T
    0.50016957    0.05763829    0.23469388 T T T
    0.83350291    0.05763829    0.23469388 T T T
    0.16683624    0.39097162    0.23469388 T T T
    0.50016957    0.39097162    0.23469388 T T T
    0.83350291    0.39097162    0.23469388 T T T
    0.16683624    0.72430496    0.23469388 T T T
    0.50016957    0.72430496    0.23469388 T T T
    0.83350291    0.72430496    0.23469388 T T T
    0.27794735    0.16874940    0.24489796 T T T
    0.61128068    0.16874940    0.24489796 T T T
    0.94461402    0.16874940    0.24489796 T T T
    0.27794735    0.50208273    0.24489796 T T T
    0.61128068    0.50208273    0.24489796 T T T
    0.94461402    0.50208273    0.24489796 T T T
    0.27794735    0.83541607    0.24489796 T T T
    0.61128068    0.83541607    0.24489796 T T T
    0.94461402    0.83541607    0.24489796 T T T
    0.05572513    0.27986051    0.25510204 T T T
    0.38905846    0.27986051    0.25510204 T T T
    0.72239179    0.27986051    0.25510204 T T T
    0.05572513    0.61319385    0.25510204 T T T
    0.38905846    0.61319385    0.25510204 T T T
    0.72239179    0.61319385    0.25510204 T T T
    0.05572513    0.94652718    0.25510204 T T T
    0.38905846    0.94652718    0.25510204 T T T
    0.72239179    0.94652718    0.25510204 T T T
    0.16683624    0.05763829    0.26530612 T T T
    0.50016957    0.05763829    0.26530612 T T T
    0.83350291    0.05763829    0.26530612 T T T
    0.16683624    0.39097162    0.26530612 T T T
    0.50016957    0.39097162    0.26530612 T T T
    0.83350291    0.39097162    0.26530612 T T T
    0.16683624    0.72430496    0.26530612 T T T
    0.50016957    0.72430496    0.26530612 T T T
    0.83350291    0.72430496    0.26530612 T T T
    0.27794735    0.16874940    0.27551020 T T T
    0.61128068    0.16874940    0.27551020 T T T
    0.94461402    0.16874940    0.27551020 T T T
    0.27794735    0.50208273    0.27551020 T T T
    0.61128068    0.50208273    0.27551020 T T T
    0.94461402    0.50208273    0.27551020 T T T
    0.27794735    0.83541607    0.27551020 T T T
    0.61128068    0.83541607    0.27551020 T T T
    0.94461402    0.83541607    0.27551020 T T T
    0.05572513    0.27986051    0.28571429 T T T
    0.38905846    0.27986051    0.28571429 T T T
    0.72239179    0.27986051    0.28571429 T T T
    0.05572513    0.61319385    0.28571429 T T T
    0.38905846    0.61319385    0.28571429 T T T
    0.72239179    0.61319385    0.28571429 T T T
    0.05572513    0.94652718    0.28571429 T T T
    0.38905846    0.94652718    0.28571429 T T T
    0.72239179    0.94652718    0.28571429 T T T
    0.16683624    0.05763829    0.29591837 T T T
    0.50016957    0.05763829    0.29591837 T T T
    0.83350291    0.05763829    0.29591837 T T T
    0.16683624    0.39097162    0.29591837 T T T
    0.50016957    0.39097162    0.29591837 T T T
    0.83350291    0.39097162    0.29591837 T T T
    0.16683624    0.72430496    0.29591837 T T T
    0.50016957    0.72430496    0.29591837 T T T
    0.83350291    0.72430496    0.29591837 T T T
    0.27794735    0.16874940    0.30612245 T T T
    0.61128068    0.16874940    0.30612245 T T T
    0.94461402    0.16874940    0.30612245 T T T
    0.27794735    0.50208273    0.30612245 T T T
    0.61128068    0.50208273    0.30612245 T T T
    0.94461402    0.50208273    0.30612245 T T T
    0.27794735    0.83541607    0.30612245 T T T
    0.61128068    0.83541607    0.30612245 T T T
    0.94461402    0.83541607    0.30612245 T T T
    0.05572513    0.27986051    0.31632653 T T T
    0.38905846    0.27986051    0.31632653 T T T
    0.72239179    0.27986051    0.31632653 T T T
    0.05572513    0.61319385    0.31632653 T T T
    0.38905846    0.61319385    0.31632653 T T T
    0.72239179    0.61319385    0.31632653 T T T
    0.05572513    0.94652718    0.31632653 T T T
    0.38905846    0.94652718    0.31632653 T T T
    0.72239179    0.94652718    0.31632653 T T T
    0.16683624    0.05763829    0.32653061 T T T
    0.50016957    0.05763829    0.32653061 T T T
    0.83350291    0.05763829    0.32653061 T T T
    0.16683624    0.39097162    0.32653061 T T T
    0.50016957    0.39097162    0.32653061 T T T
    0.83350291    0.39097162    0.32653061 T T T
    0.16683624    0.72430496    0.32653061 T T T
    0.50016957    0.72430496    0.32653061 T T T
    0.83350291    0.72430496    0.32653061 T T T
    0.27794735    0.16874940    0.33673469 T T T
    0.61128068    0.16874940    0.33673469 T T T
    0.94461402    0.16874940    0.33673469 T T T
    0.27794735    0.50208273    0.33673469 T T T
    0.61128068    0.50208273    0.33673469 T T T
    0.94461402    0.50208273    0.33673469 T T T
    0.27794735    0.83541607    0.33673469 T T T
    0.61128068    0.83541607    0.33673469 T T T
    0.94461402    0.83541607    0.33673469 T T T
    0.05572513    0.27986051    0.34693878 T T T
    0.38905846    0.27986051    0.34693878 T T T
    0.72239179    0.27986051    0.34693878 T T T
    0.05572513    0.61319385    0.34693878 T T T
    0.38905846    0.61319385    0.34693878 T T T
    0.72239179    0.61319385    0.34693878 T T T
    0.05572513    0.94652718    0.34693878 T T T
    0.38905846    0.94652718    0.34693878 T T T
    0.72239179    0.94652718    0.34693878 T T T
    0.16683624    0.05763829    0.35714286 T T T
    0.50016957    0.05763829    0.35714286 T T T
    0.83350291    0.05763829    0.35714286 T T T
    0.16683624    0.39097162    0.35714286 T T T
    0.50016957    0.39097162    0.35714286 T T T
    0.83350291    0.39097162    0.35714286 T T T
    0.16683624    0.72430496    0.35714286 T T T
    0.50016957    0.72430496    0.35714286 T T T
    0.83350291    0.72430496    0.35714286 T T T
    0.27794735    0.16874940    0.36734694 T T T
    0.61128068    0.16874940    0.36734694 T T T
    0.94461402    0.16874940    0.36734694 T T T
    0.27794735    0.50208273    0.36734694 T T T
    0.61128068    0.50208273    0.36734694 T T T
    0.94461402    0.50208273    0.36734694 T T T
    0.27794735    0.83541607    0.36734694 T T T
    0.61128068    0.83541607    0.36734694 T T T
    0.94461402    0.83541607    0.36734694 T T T
    0.05572513    0.27986051    0.37755102 T T T
    0.38905846    0.27986051    0.37755102 T T T
    0.72239179    0.27986051    0.37755102 T T T
    0.05572513    0.61319385    0.37755102 T T T
    0.38905846    0.61319385    0.37755102 T T T
    0.72239179    0.61319385    0.37755102 T T T
    0.05572513    0.94652718    0.37755102 T T T
    0.38905846    0.94652718    0.37755102 T T T
    0.72239179    0.94652718    0.37755102 T T T
    0.16683624    0.05763829    0.38775510 T T T
    0.50016957    0.05763829    0.38775510 T T T
    0.83350291    0.05763829    0.38775510 T T T
    0.16683624    0.39097162    0.38775510 T T T
    0.50016957    0.39097162    0.38775510 T T T
    0.83350291    0.39097162    0.38775510 T T T
    0.16683624    0.72430496    0.38775510 T T T
    0.50016957    0.72430496    0.38775510 T T T
    0.83350291    0.72430496    0.38775510 T T T
    0.27794735    0.16874940    0.39795918 T T T
    0.61128068    0.16874940    0.39795918 T T T
    0.94461402    0.16874940    0.39795918 T T T
    0.27794735    0.50208273    0.39795918 T T T
    0.61128068    0.50208273    0.39795918 T T T
    0.94461402    0.50208273    0.39795918 T T T
    0.27794735    0.83541607    0.39795918 T T T
    0.61128068    0.83541607    0.39795918 T T T
    0.94461402    0.83541607    0.39795918 T T T
    0.05572513    0.27986051    0.40816327 T T T
    0.38905846    0.27986051    0.40816327 T T T
    0.72239179    0.27986051    0.40816327 T T T
    0.05572513    0.61319385    0.40816327 T T T
    0.38905846    0.61319385    0.40816327 T T T
    0.72239179    0.61319385    0.40816327 T T T
    0.05572513    0.94652718    0.40816327 T T T
    0.38905846    0.94652718    0.40816327 T T T
    0.72239179    0.94652718    0.40816327 T T T
    0.16683624    0.05763829    0.41836735 T T T
    0.50016957    0.05763829    0.41836735 T T T
    0.83350291    0.05763829    0.41836735 T T T
    0.16683624    0.39097162    0.41836735 T T T
    0.50016957    0.39097162    0.41836735 T T T
    0.83350291    0.39097162    0.41836735 T T T
    0.16683624    0.72430496    0.41836735 T T T
    0.50016957    0.72430496    0.41836735 T T T
    0.83350291    0.72430496    0.41836735 T T T
    0.27794735    0.16874940    0.42857143 T T T
    0.61128068    0.16874940    0.42857143 T T T
    0.94461402    0.16874940    0.42857143 T T T
    0.27794735    0.50208273    0.42857143 T T T
    0.61128068    0.50208273    0.42857143 T T T
    0.94461402    0.50208273    0.42857143 T T T
    0.27794735    0.83541607    0.42857143 T T T
    0.61128068    0.83541607    0.42857143 T T T
    0.94461402    0.83541607    0.42857143 T T T
    0.05572513    0.27986051    0.43877551 T T T
    0.38905846    0.27986051    0.43877551 T T T
    0.72239179    0.27986051    0.43877551 T T T
    0.05572513    0.61319385    0.43877551 T T T
    0.38905846    0.61319385    0.43877551 T T T
    0.72239179    0.61319385    0.43877551 T T T
    0.05572513    0.94652718    0.43877551 T T T
    0.38905846    0.94652718    0.43877551 T T T
    0.72239179    0.94652718    0.43877551 T T T
    0.16683624    0.05763829    0.44897959 T T T
    0.50016957    0.05763829    0.44897959 T T T
    0.83350291    0.05763829    0.44897959 T T T
    0.16683624    0.39097162    0.44897959 T T T
    0.50016957    0.39097162    0.44897959 T T T
    0.83350291    0.39097162    0.44897959 T T T
    0.16683624    0.72430496    0.44897959 T T T
    0.50016957    0.72430496    0.44897959 T T T
    0.83350291    0.72430496    0.44897959 T T T
    0.27794735    0.16874940    0.45918367 T T T
    0.61128068    0.16874940    0.45918367 T T T
    0.94461402    0.16874940    0.45918367 T T T
    0.27794735    0.50208273    0.45918367 T T T
    0.61128068    0.50208273    0.45918367 T T T
    0.94461402    0.50208273    0.45918367 T T T
    0.27794735    0.83541607    0.45918367 T T T
    0.61128068    0.83541607    0.45918367 T T T
    0.94461402    0.83541607    0.45918367 T T T
    0.05572513    0.27986051    0.46938776 T T T
    0.38905846    0.27986051    0.46938776 T T T
    0.72239179    0.27986051    0.46938776 T T T
    0.05572513    0.61319385    0.46938776 T T T
    0.38905846    0.61319385    0.46938776 T T T
    0.72239179    0.61319385    0.46938776 T T T
    0.05572513    0.94652718    0.46938776 T T T
    0.38905846    0.94652718    0.46938776 T T T
    0.72239179    0.94652718    0.46938776 T T T
    0.16683624    0.05763829    0.47959184 T T T
    0.50016957    0.05763829    0.47959184 T T T
    0.83350291    0.05763829    0.47959184 T T T
    0.16683624    0.39097162    0.47959184 T T T
    0.50016957    0.39097162    0.47959184 T T T
    0.83350291    0.39097162    0.47959184 T T T
    0.16683624    0.72430496    0.47959184 T T T
    0.50016957    0.72430496    0.47959184 T T T
    0.83350291    0.72430496    0.47959184 T T T
    0.16618649    0.16267006    0.48979592 T T T
    0.83285316    0.16267006    0.48979592 T T T
    0.49951982    0.16267006    0.48979592 T T T
    0.16618649    0.82933673    0.48979592 T T T
    0.83285316    0.82933673    0.48979592 T T T
    0.49951982    0.82933673    0.48979592 T T T
    0.16618649    0.49600340    0.48979592 T T T
    0.83285316    0.49600340    0.48979592 T T T
    0.49951982    0.49600340    0.48979592 T T T
    0.94453148    0.94678201    0.50000000 T T T
    0.61119814    0.94678201    0.50000000 T T T
    0.27786481    0.94678201    0.50000000 T T T
    0.94453148    0.61344867    0.50000000 T T T
    0.61119814    0.61344867    0.50000000 T T T
    0.27786481    0.61344867    0.50000000 T T T
    0.94453148    0.28011534    0.50000000 T T T
    0.61119814    0.28011534    0.50000000 T T T
    0.27786481    0.28011534    0.50000000 T T T
    0.16675370    0.83567090    0.51020408 T T T
    0.83342037    0.83567090    0.51020408 T T T
    0.50008703    0.83567090    0.51020408 T T T
    0.16675370    0.50233756    0.51020408 T T T
    0.83342037    0.50233756    0.51020408 T T T
    0.50008703    0.50233756    0.51020408 T T T
    0.16675370    0.16900423    0.51020408 T T T
    0.83342037    0.16900423    0.51020408 T T T
    0.50008703    0.16900423    0.51020408 T T T
    0.05564259    0.05789312    0.52040816 T T T
    0.72230926    0.05789312    0.52040816 T T T
    0.38897592    0.05789312    0.52040816 T T T
    0.05564259    0.72455978    0.52040816 T T T
    0.72230926    0.72455978    0.52040816 T T T
    0.38897592    0.72455978    0.52040816 T T T
    0.05564259    0.39122645    0.52040816 T T T
    0.72230926    0.39122645    0.52040816 T T T
    0.38897592    0.39122645    0.52040816 T T T
    0.94453148    0.94678201    0.53061224 T T T
    0.61119814    0.94678201    0.53061224 T T T
    0.27786481    0.94678201    0.53061224 T T T
    0.94453148    0.61344867    0.53061224 T T T
    0.61119814    0.61344867    0.53061224 T T T
    0.27786481    0.61344867    0.53061224 T T T
    0.94453148    0.28011534    0.53061224 T T T
    0.61119814    0.28011534    0.53061224 T T T
    0.27786481    0.28011534    0.53061224 T T T
    0.16675370    0.83567090    0.54081633 T T T
    0.83342037    0.83567090    0.54081633 T T T
    0.50008703    0.83567090    0.54081633 T T T
    0.16675370    0.50233756    0.54081633 T T T
    0.83342037    0.50233756    0.54081633 T T T
    0.50008703    0.50233756    0.54081633 T T T
    0.16675370    0.16900423    0.54081633 T T T
    0.83342037    0.16900423    0.54081633 T T T
    0.50008703    0.16900423    0.54081633 T T T
    0.05564259    0.05789312    0.55102041 T T T
    0.72230926    0.05789312    0.55102041 T T T
    0.38897592    0.05789312    0.55102041 T T T
    0.05564259    0.72455978    0.55102041 T T T
    0.72230926    0.72455978    0.55102041 T T T
    0.38897592    0.72455978    0.55102041 T T T
    0.05564259    0.39122645    0.55102041 T T T
    0.72230926    0.39122645    0.55102041 T T T
    0.38897592    0.39122645    0.55102041 T T T
    0.94453148    0.94678201    0.56122449 T T T
    0.61119814    0.94678201    0.56122449 T T T
    0.27786481    0.94678201    0.56122449 T T T
    0.94453148    0.61344867    0.56122449 T T T
    0.61119814    0.61344867    0.56122449 T T T
    0.27786481    0.61344867    0.56122449 T T T
    0.94453148    0.28011534    0.56122449 T T T
    0.61119814    0.28011534    0.56122449 T T T
    0.27786481    0.28011534    0.56122449 T T T
    0.16675370    0.83567090    0.57142857 T T T
    0.83342037    0.83567090    0.57142857 T T T
    0.50008703    0.83567090    0.57142857 T T T
    0.16675370    0.50233756    0.57142857 T T T
    0.83342037    0.50233756    0.57142857 T T T
    0.50008703    0.50233756    0.57142857 T T T
    0.16675370    0.16900423    0.57142857 T T T
    0.83342037    0.16900423    0.57142857 T T T
    0.50008703    0.16900423    0.57142857 T T T
    0.05564259    0.05789312    0.58163265 T T T
    0.72230926    0.05789312    0.58163265 T T T
    0.38897592    0.05789312    0.58163265 T T T
    0.05564259    0.72455978    0.58163265 T T T
    0.72230926    0.72455978    0.58163265 T T T
    0.38897592    0.72455978    0.58163265 T T T
    0.05564259    0.39122645    0.58163265 T T T
    0.72230926    0.39122645    0.58163265 T T T
    0.38897592    0.39122645    0.58163265 T T T
    0.94453148    0.94678201    0.59183673 T T T
    0.61119814    0.94678201    0.59183673 T T T
    0.27786481    0.94678201    0.59183673 T T T
    0.94453148    0.61344867    0.59183673 T T T
    0.61119814    0.61344867    0.59183673 T T T
    0.27786481    0.61344867    0.59183673 T T T
    0.94453148    0.28011534    0.59183673 T T T
    0.61119814    0.28011534    0.59183673 T T T
    0.27786481    0.28011534    0.59183673 T T T
    0.16675370    0.83567090    0.60204082 T T T
    0.83342037    0.83567090    0.60204082 T T T
    0.50008703    0.83567090    0.60204082 T T T
    0.16675370    0.50233756    0.60204082 T T T
    0.83342037    0.50233756    0.60204082 T T T
    0.50008703    0.50233756    0.60204082 T T T
    0.16675370    0.16900423    0.60204082 T T T
    0.83342037    0.16900423    0.60204082 T T T
    0.50008703    0.16900423    0.60204082 T T T
    0.05564259    0.05789312    0.61224490 T T T
    0.72230926    0.05789312    0.61224490 T T T
    0.38897592    0.05789312    0.61224490 T T T
    0.05564259    0.72455978    0.61224490 T T T
    0.72230926    0.72455978    0.61224490 T T T
    0.38897592    0.72455978    0.61224490 T T T
    0.05564259    0.39122645    0.61224490 T T T
    0.72230926    0.39122645    0.61224490 T T T
    0.38897592    0.39122645    0.61224490 T T T
    0.94453148    0.94678201    0.62244898 T T T
    0.61119814    0.94678201    0.62244898 T T T
    0.27786481    0.94678201    0.62244898 T T T
    0.94453148    0.61344867    0.62244898 T T T
    0.61119814    0.61344867    0.62244898 T T T
    0.27786481    0.61344867    0.62244898 T T T
    0.94453148    0.28011534    0.62244898 T T T
    0.61119814    0.28011534    0.62244898 T T T
    0.27786481    0.28011534    0.62244898 T T T
    0.16675370    0.83567090    0.63265306 T T T
    0.83342037    0.83567090    0.63265306 T T T
    0.50008703    0.83567090    0.63265306 T T T
    0.16675370    0.50233756    0.63265306 T T T
    0.83342037    0.50233756    0.63265306 T T T
    0.50008703    0.50233756    0.63265306 T T T
    0.16675370    0.16900423    0.63265306 T T T
    0.83342037    0.16900423    0.63265306 T T T
    0.50008703    0.16900423    0.63265306 T T T
    0.05564259    0.05789312    0.64285714 T T T
    0.72230926    0.05789312    0.64285714 T T T
    0.38897592    0.05789312    0.64285714 T T T
    0.05564259    0.72455978    0.64285714 T T T
    0.72230926    0.72455978    0.64285714 T T T
    0.38897592    0.72455978    0.64285714 T T T
    0.05564259    0.39122645    0.64285714 T T T
    0.72230926    0.39122645    0.64285714 T T T
    0.38897592    0.39122645    0.64285714 T T T
    0.94453148    0.94678201    0.65306122 T T T
    0.61119814    0.94678201    0.65306122 T T T
    0.27786481    0.94678201    0.65306122 T T T
    0.94453148    0.61344867    0.65306122 T T T
    0.61119814    0.61344867    0.65306122 T T T
    0.27786481    0.61344867    0.65306122 T T T
    0.94453148    0.28011534    0.65306122 T T T
    0.61119814    0.28011534    0.65306122 T T T
    0.27786481    0.28011534    0.65306122 T T T
    0.16675370    0.83567090    0.66326531 T T T
    0.83342037    0.83567090    0.66326531 T T T
    0.50008703    0.83567090    0.66326531 T T T
    0.16675370    0.50233756    0.66326531 T T T
    0.83342037    0.50233756    0.66326531 T T T
    0.50008703    0.50233756    0.66326531 T T T
    0.16675370    0.16900423    0.66326531 T T T
    0.83342037    0.16900423    0.66326531 T T T
    0.50008703    0.16900423    0.66326531 T T T
    0.05564259    0.05789312    0.67346939 T T T
    0.72230926    0.05789312    0.67346939 T T T
    0.38897592    0.05789312    0.67346939 T T T
    0.05564259    0.72455978    0.67346939 T T T
    0.72230926    0.72455978    0.67346939 T T T
    0.38897592    0.72455978    0.67346939 T T T
    0.05564259    0.39122645    0.67346939 T T T
    0.72230926    0.39122645    0.67346939 T T T
    0.38897592    0.39122645    0.67346939 T T T
    0.94453148    0.94678201    0.68367347 T T T
    0.61119814    0.94678201    0.68367347 T T T
    0.27786481    0.94678201    0.68367347 T T T
    0.94453148    0.61344867    0.68367347 T T T
    0.61119814    0.61344867    0.68367347 T T T
    0.27786481    0.61344867    0.68367347 T T T
    0.94453148    0.28011534    0.68367347 T T T
    0.61119814    0.28011534    0.68367347 T T T
    0.27786481    0.28011534    0.68367347 T T T
    0.16675370    0.83567090    0.69387755 T T T
    0.83342037    0.83567090    0.69387755 T T T
    0.50008703    0.83567090    0.69387755 T T T
    0.16675370    0.50233756    0.69387755 T T T
    0.83342037    0.50233756    0.69387755 T T T
    0.50008703    0.50233756    0.69387755 T T T
    0.16675370    0.16900423    0.69387755 T T T
    0.83342037    0.16900423    0.69387755 T T T
    0.50008703    0.16900423    0.69387755 T T T
    0.05564259    0.05789312    0.70408163 T T T
    0.72230926    0.05789312    0.70408163 T T T
    0.38897592    0.05789312    0.70408163 T T T
    0.05564259    0.72455978    0.70408163 T T T
    0.72230926    0.72455978    0.70408163 T T T
    0.38897592    0.72455978    0.70408163 T T T
    0.05564259    0.39122645    0.70408163 T T T
    0.72230926    0.39122645    0.70408163 T T T
    0.38897592    0.39122645    0.70408163 T T T
    0.94453148    0.94678201    0.71428571 T T T
    0.61119814    0.94678201    0.71428571 T T T
    0.27786481    0.94678201    0.71428571 T T T
    0.94453148    0.61344867    0.71428571 T T T
    0.61119814    0.61344867    0.71428571 T T T
    0.27786481    0.61344867    0.71428571 T T T
    0.94453148    0.28011534    0.71428571 T T T
    0.61119814    0.28011534    0.71428571 T T T
    0.27786481    0.28011534    0.71428571 T T T
    0.16675370    0.83567090    0.72448980 T T T
    0.83342037    0.83567090    0.72448980 T T T
    0.50008703    0.83567090    0.72448980 T T T
    0.16675370    0.50233756    0.72448980 T T T
    0.83342037    0.50233756    0.72448980 T T T
    0.50008703    0.50233756    0.72448980 T T T
    0.16675370    0.16900423    0.72448980 T T T
    0.83342037    0.16900423    0.72448980 T T T
    0.50008703    0.16900423    0.72448980 T T T
    0.05564259    0.05789312    0.73469388 T T T
    0.72230926    0.05789312    0.73469388 T T T
    0.38897592    0.05789312    0.73469388 T T T
    0.05564259    0.72455978    0.73469388 T T T
    0.72230926    0.72455978    0.73469388 T T T
    0.38897592    0.72455978    0.73469388 T T T
    0.05564259    0.39122645    0.73469388 T T T
    0.72230926    0.39122645    0.73469388 T T T
    0.38897592    0.39122645    0.73469388 T T T
    0.94453148    0.94678201    0.74489796 T T T
    0.61119814    0.94678201    0.74489796 T T T
    0.27786481    0.94678201    0.74489796 T T T
    0.94453148    0.61344867    0.74489796 T T T
    0.61119814    0.61344867    0.74489796 T T T
    0.27786481    0.61344867    0.74489796 T T T
    0.94453148    0.28011534    0.74489796 T T T
    0.61119814    0.28011534    0.74489796 T T T
    0.27786481    0.28011534    0.74489796 T T T
    0.16675370    0.83567090    0.75510204 T T T
    0.83342037    0.83567090    0.75510204 T T T
    0.50008703    0.83567090    0.75510204 T T T
    0.16675370    0.50233756    0.75510204 T T T
    0.83342037    0.50233756    0.75510204 T T T
    0.50008703    0.50233756    0.75510204 T T T
    0.16675370    0.16900423    0.75510204 T T T
    0.83342037    0.16900423    0.75510204 T T T
    0.50008703    0.16900423    0.75510204 T T T
    0.05564259    0.05789312    0.76530612 T T T
    0.72230926    0.05789312    0.76530612 T T T
    0.38897592    0.05789312    0.76530612 T T T
    0.05564259    0.72455978    0.76530612 T T T
    0.72230926    0.72455978    0.76530612 T T T
    0.38897592    0.72455978    0.76530612 T T T
    0.05564259    0.39122645    0.76530612 T T T
    0.72230926    0.39122645    0.76530612 T T T
    0.38897592    0.39122645    0.76530612 T T T
    0.94453148    0.94678201    0.77551020 T T T
    0.61119814    0.94678201    0.77551020 T T T
    0.27786481    0.94678201    0.77551020 T T T
    0.94453148    0.61344867    0.77551020 T T T
    0.61119814    0.61344867    0.77551020 T T T
    0.27786481    0.61344867    0.77551020 T T T
    0.94453148    0.28011534    0.77551020 T T T
    0.61119814    0.28011534    0.77551020 T T T
    0.27786481    0.28011534    0.77551020 T T T
    0.16675370    0.83567090    0.78571429 T T T
    0.83342037    0.83567090    0.78571429 T T T
    0.50008703    0.83567090    0.78571429 T T T
    0.16675370    0.50233756    0.78571429 T T T
    0.83342037    0.50233756    0.78571429 T T T
    0.50008703    0.50233756    0.78571429 T T T
    0.16675370    0.16900423    0.78571429 T T T
    0.83342037    0.16900423    0.78571429 T T T
    0.50008703    0.16900423    0.78571429 T T T
    0.05564259    0.05789312    0.79591837 T T T
    0.72230926    0.05789312    0.79591837 T T T
    0.38897592    0.05789312    0.79591837 T T T
    0.05564259    0.72455978    0.79591837 T T T
    0.72230926    0.72455978    0.79591837 T T T
    0.38897592    0.72455978    0.79591837 T T T
    0.05564259    0.39122645    0.79591837 T T T
    0.72230926    0.39122645    0.79591837 T T T
    0.38897592    0.39122645    0.79591837 T T T
    0.94453148    0.94678201    0.80612245 T T T
    0.61119814    0.94678201    0.80612245 T T T
    0.27786481    0.94678201    0.80612245 T T T
    0.94453148    0.61344867    0.80612245 T T T
    0.61119814    0.61344867    0.80612245 T T T
    0.27786481    0.61344867    0.80612245 T T T
    0.94453148    0.28011534    0.80612245 T T T
    0.61119814    0.28011534    0.80612245 T T T
    0.27786481    0.28011534    0.80612245 T T T
    0.16675370    0.83567090    0.81632653 T T T
    0.83342037    0.83567090    0.81632653 T T T
    0.50008703    0.83567090    0.81632653 T T T
    0.16675370    0.50233756    0.81632653 T T T
    0.83342037    0.50233756    0.81632653 T T T
    0.50008703    0.50233756    0.81632653 T T T
    0.16675370    0.16900423    0.81632653 T T T
    0.83342037    0.16900423    0.81632653 T T T
    0.50008703    0.16900423    0.81632653 T T T
    0.05564259    0.05789312    0.82653061 T T T
    0.72230926    0.05789312    0.82653061 T T T
    0.38897592    0.05789312    0.82653061 T T T
    0.05564259    0.72455978    0.82653061 T T T
    0.72230926    0.72455978    0.82653061 T T T
    0.38897592    0.72455978    0.82653061 T T T
    0.05564259    0.39122645    0.82653061 T T T
    0.72230926    0.39122645    0.82653061 T T T
    0.38897592    0.39122645    0.82653061 T T T
    0.94453148    0.94678201    0.83673469 T T T
    0.61119814    0.94678201    0.83673469 T T T
    0.27786481    0.94678201    0.83673469 T T T
    0.94453148    0.61344867    0.83673469 T T T
    0.61119814    0.61344867    0.83673469 T T T
    0.27786481    0.61344867    0.83673469 T T T
    0.94453148    0.28011534    0.83673469 T T T
    0.61119814    0.28011534    0.83673469 T T T
    0.27786481    0.28011534    0.83673469 T T T
    0.16675370    0.83567090    0.84693878 T T T
    0.83342037    0.83567090    0.84693878 T T T
    0.50008703    0.83567090    0.84693878 T T T
    0.16675370    0.50233756    0.84693878 T T T
    0.83342037    0.50233756    0.84693878 T T T
    0.50008703    0.50233756    0.84693878 T T T
    0.16675370    0.16900423    0.84693878 T T T
    0.83342037    0.16900423    0.84693878 T T T
    0.50008703    0.16900423    0.84693878 T T T
    0.05564259    0.05789312    0.85714286 T T T
    0.72230926    0.05789312    0.85714286 T T T
    0.38897592    0.05789312    0.85714286 T T T
    0.05564259    0.72455978    0.85714286 T T T
    0.72230926    0.72455978    0.85714286 T T T
    0.38897592    0.72455978    0.85714286 T T T
    0.05564259    0.39122645    0.85714286 T T T
    0.72230926    0.39122645    0.85714286 T T T
    0.38897592    0.39122645    0.85714286 T T T
    0.94453148    0.94678201    0.86734694 T T T
    0.61119814    0.94678201    0.86734694 T T T
    0.27786481    0.94678201    0.86734694 T T T
    0.94453148    0.61344867    0.86734694 T T T
    0.61119814    0.61344867    0.86734694 T T T
    0.27786481    0.61344867    0.86734694 T T T
    0.94453148    0.28011534    0.86734694 T T T
    0.61119814    0.28011534    0.86734694 T T T
    0.27786481    0.28011534    0.86734694 T T T
    0.16675370    0.83567090    0.87755102 T T T
    0.83342037    0.83567090    0.87755102 T T T
    0.50008703    0.83567090    0.87755102 T T T
    0.16675370    0.50233756    0.87755102 T T T
    0.83342037    0.50233756    0.87755102 T T T
    0.50008703    0.50233756    0.87755102 T T T
    0.16675370    0.16900423    0.87755102 T T T
    0.83342037    0.16900423    0.87755102 T T T
    0.50008703    0.16900423    0.87755102 T T T
    0.05564259    0.05789312    0.88775510 T T T
    0.72230926    0.05789312    0.88775510 T T T
    0.38897592    0.05789312    0.88775510 T T T
    0.05564259    0.72455978    0.88775510 T T T
    0.72230926    0.72455978    0.88775510 T T T
    0.38897592    0.72455978    0.88775510 T T T
    0.05564259    0.39122645    0.88775510 T T T
    0.72230926    0.39122645    0.88775510 T T T
    0.38897592    0.39122645    0.88775510 T T T
    0.94453148    0.94678201    0.89795918 T T T
    0.61119814    0.94678201    0.89795918 T T T
    0.27786481    0.94678201    0.89795918 T T T
    0.94453148    0.61344867    0.89795918 T T T
    0.61119814    0.61344867    0.89795918 T T T
    0.27786481    0.61344867    0.89795918 T T T
    0.94453148    0.28011534    0.89795918 T T T
    0.61119814    0.28011534    0.89795918 T T T
    0.27786481    0.28011534    0.89795918 T T T
    0.16675370    0.83567090    0.90816327 T T T
    0.83342037    0.83567090    0.90816327 T T T
    0.50008703    0.83567090    0.90816327 T T T
    0.16675370    0.50233756    0.90816327 T T T
    0.83342037    0.50233756    0.90816327 T T T
    0.50008703    0.50233756    0.90816327 T T T
    0.16675370    0.16900423    0.90816327 T T T
    0.83342037    0.16900423    0.90816327 T T T
    0.50008703    0.16900423    0.90816327 T T T
    0.05564259    0.05789312    0.91836735 T T T
    0.72230926    0.05789312    0.91836735 T T T
    0.38897592    0.05789312    0.91836735 T T T
    0.05564259    0.72455978    0.91836735 T T T
    0.72230926    0.72455978    0.91836735 T T T
    0.38897592    0.72455978    0.91836735 T T T
    0.05564259    0.39122645    0.91836735 T T T
    0.72230926    0.39122645    0.91836735 T T T
    0.38897592    0.39122645    0.91836735 T T T
    0.94453148    0.94678201    0.92857143 T T T
    0.61119814    0.94678201    0.92857143 T T T
    0.27786481    0.94678201    0.92857143 T T T
    0.94453148    0.61344867    0.92857143 T T T
    0.61119814    0.61344867    0.92857143 T T T
    0.27786481    0.61344867    0.92857143 T T T
    0.94453148    0.28011534    0.92857143 T T T
    0.61119814    0.28011534    0.92857143 T T T
    0.27786481    0.28011534    0.92857143 T T T
    0.16675370    0.83567090    0.93877551 T T T
    0.83342037    0.83567090    0.93877551 T T T
    0.50008703    0.83567090    0.93877551 T T T
    0.16675370    0.50233756    0.93877551 T T T
    0.83342037    0.50233756    0.93877551 T T T
    0.50008703    0.50233756    0.93877551 T T T
    0.16675370    0.16900423    0.93877551 T T T
    0.83342037    0.16900423    0.93877551 T T T
    0.50008703    0.16900423    0.93877551 T T T
    0.05564259    0.05789312    0.94897959 T T T
    0.72230926    0.05789312    0.94897959 T T T
    0.38897592    0.05789312    0.94897959 T T T
    0.05564259    0.72455978    0.94897959 T T T
    0.72230926    0.72455978    0.94897959 T T T
    0.38897592    0.72455978    0.94897959 T T T
    0.05564259    0.39122645    0.94897959 T T T
    0.72230926    0.39122645    0.94897959 T T T
    0.38897592    0.39122645    0.94897959 T T T
    0.94453148    0.94678201    0.95918367 T T T
    0.61119814    0.94678201    0.95918367 T T T
    0.27786481    0.94678201    0.95918367 T T T
    0.94453148    0.61344867    0.95918367 T T T
    0.61119814    0.61344867    0.95918367 T T T
    0.27786481    0.61344867    0.95918367 T T T
    0.94453148    0.28011534    0.95918367 T T T
    0.61119814    0.28011534    0.95918367 T T T
    0.27786481    0.28011534    0.95918367 T T T
    0.16675370    0.83567090    0.96938776 T T T
    0.83342037    0.83567090    0.96938776 T T T
    0.50008703    0.83567090    0.96938776 T T T
    0.16675370    0.50233756    0.96938776 T T T
    0.83342037    0.50233756    0.96938776 T T T
    0.50008703    0.50233756    0.96938776 T T T
    0.16675370    0.16900423    0.96938776 T T T
    0.83342037    0.16900423    0.96938776 T T T
    0.50008703    0.16900423    0.96938776 T T T
    0.05564259    0.05789312    0.97959184 T T T
    0.72230926    0.05789312    0.97959184 T T T
    0.38897592    0.05789312    0.97959184 T T T
    0.05564259    0.72455978    0.97959184 T T T
    0.72230926    0.72455978    0.97959184 T T T
    0.38897592    0.72455978    0.97959184 T T T
    0.05564259    0.39122645    0.97959184 T T T
    0.72230926    0.39122645    0.97959184 T T T
    0.38897592    0.39122645    0.97959184 T T T
    0.16485546    0.17294382    0.98979592 F F F
    0.49818879    0.17294382    0.98979592 F F F
    0.83152212    0.17294382    0.98979592 F F F
    0.16485546    0.50627715    0.98979592 F F F
    0.49818879    0.50627715    0.98979592 F F F
    0.83152212    0.50627715    0.98979592 F F F
    0.16485546    0.83961049    0.98979592 F F F
    0.49818879    0.83961049    0.98979592 F F F
    0.83152212    0.83961049    0.98979592 F F F
