Generated generic
1.0
    7.66857304    0.00000000    0.00000000
    3.83428652    6.64117907    0.00000000
    0.00000000    0.00000000   73.04924281
 Cu
 315
Selective dynamics
Direct
    0.00000000    0.00000000    0.00000000 F F T
    0.33333333    0.00000000    0.00000000 F F T
    0.66666667    0.00000000    0.00000000 F F T
    0.00000000    0.33333333    0.00000000 F F T
    0.33333333    0.33333333    0.00000000 F F T
    0.66666667    0.33333333    0.00000000 F F T
    0.00000000    0.66666667    0.00000000 F F T
    0.33333333    0.66666667    0.00000000 F F T
    0.66666667    0.66666667    0.00000000 F F T
    0.11111111    0.11111111    0.02857143 F F T
    0.44444444    0.11111111    0.02857143 F F T
    0.77777778    0.11111111    0.02857143 F F T
    0.11111111    0.44444444    0.02857143 F F T
    0.44444444    0.44444444    0.02857143 F F T
    0.77777778    0.44444444    0.02857143 F F T
    0.11111111    0.77777778    0.02857143 F F T
    0.44444444    0.77777778    0.02857143 F F T
    0.77777778    0.77777778    0.02857143 F F T
    0.22222222    0.22222222    0.05714286 F F T
    0.55555556    0.22222222    0.05714286 F F T
    0.88888889    0.22222222    0.05714286 F F T
    0.22222222    0.55555556    0.05714286 F F T
    0.55555556    0.55555556    0.05714286 F F T
    0.88888889    0.55555556    0.05714286 F F T
    0.22222222    0.88888889    0.05714286 F F T
    0.55555556    0.88888889    0.05714286 F F T
    0.88888889    0.88888889    0.05714286 F F T
    0.00000000    0.00000000    0.08571429 F F T
    0.33333333    0.00000000    0.08571429 F F T
    0.66666667    0.00000000    0.08571429 F F T
    0.00000000    0.33333333    0.08571429 F F T
    0.33333333    0.33333333    0.08571429 F F T
    0.66666667    0.33333333    0.08571429 F F T
    0.00000000    0.66666667    0.08571429 F F T
    0.33333333    0.66666667    0.08571429 F F T
    0.66666667    0.66666667    0.08571429 F F T
    0.11111111    0.11111111    0.11428571 F F T
    0.44444444    0.11111111    0.11428571 F F T
    0.77777778    0.11111111    0.11428571 F F T
    0.11111111    0.44444444    0.11428571 F F T
    0.44444444    0.44444444    0.11428571 F F T
    0.77777778    0.44444444    0.11428571 F F T
    0.11111111    0.77777778    0.11428571 F F T
    0.44444444    0.77777778    0.11428571 F F T
    0.77777778    0.77777778    0.11428571 F F T
    0.22222222    0.22222222    0.14285714 F F T
    0.55555556    0.22222222    0.14285714 F F T
    0.88888889    0.22222222    0.14285714 F F T
    0.22222222    0.55555556    0.14285714 F F T
    0.55555556    0.55555556    0.14285714 F F T
    0.88888889    0.55555556    0.14285714 F F T
    0.22222222    0.88888889    0.14285714 F F T
    0.55555556    0.88888889    0.14285714 F F T
    0.88888889    0.88888889    0.14285714 F F T
    0.00000000    0.00000000    0.17142857 F F T
    0.33333333    0.00000000    0.17142857 F F T
    0.66666667    0.00000000    0.17142857 F F T
    0.00000000    0.33333333    0.17142857 F F T
    0.33333333    0.33333333    0.17142857 F F T
    0.66666667    0.33333333    0.17142857 F F T
    0.00000000    0.66666667    0.17142857 F F T
    0.33333333    0.66666667    0.17142857 F F T
    0.66666667    0.66666667    0.17142857 F F T
    0.11111111    0.11111111    0.20000000 F F T
    0.44444444    0.11111111    0.20000000 F F T
    0.77777778    0.11111111    0.20000000 F F T
    0.11111111    0.44444444    0.20000000 F F T
    0.44444444    0.44444444    0.20000000 F F T
    0.77777778    0.44444444    0.20000000 F F T
    0.11111111    0.77777778    0.20000000 F F T
    0.44444444    0.77777778    0.20000000 F F T
    0.77777778    0.77777778    0.20000000 F F T
    0.22222222    0.22222222    0.22857143 F F T
    0.55555556    0.22222222    0.22857143 F F T
    0.88888889    0.22222222    0.22857143 F F T
    0.22222222    0.55555556    0.22857143 F F T
    0.55555556    0.55555556    0.22857143 F F T
    0.88888889    0.55555556    0.22857143 F F T
    0.22222222    0.88888889    0.22857143 F F T
    0.55555556    0.88888889    0.22857143 F F T
    0.88888889    0.88888889    0.22857143 F F T
    0.00000000    0.00000000    0.25714286 F F T
    0.33333333    0.00000000    0.25714286 F F T
    0.66666667    0.00000000    0.25714286 F F T
    0.00000000    0.33333333    0.25714286 F F T
    0.33333333    0.33333333    0.25714286 F F T
    0.66666667    0.33333333    0.25714286 F F T
    0.00000000    0.66666667    0.25714286 F F T
    0.33333333    0.66666667    0.25714286 F F T
    0.66666667    0.66666667    0.25714286 F F T
    0.22222222    0.22222222    0.28571429 F F T
    0.55555556    0.22222222    0.28571429 F F T
    0.88888889    0.22222222    0.28571429 F F T
    0.22222222    0.55555556    0.28571429 F F T
    0.55555556    0.55555556    0.28571429 F F T
    0.88888889    0.55555556    0.28571429 F F T
    0.22222222    0.88888889    0.28571429 F F T
    0.55555556    0.88888889    0.28571429 F F T
    0.88888889    0.88888889    0.28571429 F F T
    0.11111111    0.11111111    0.31428571 F F T
    0.44444444    0.11111111    0.31428571 F F T
    0.77777778    0.11111111    0.31428571 F F T
    0.11111111    0.44444444    0.31428571 F F T
    0.44444444    0.44444444    0.31428571 F F T
    0.77777778    0.44444444    0.31428571 F F T
    0.11111111    0.77777778    0.31428571 F F T
    0.44444444    0.77777778    0.31428571 F F T
    0.77777778    0.77777778    0.31428571 F F T
    0.00000000    0.00000000    0.34285714 F F T
    0.33333333    0.00000000    0.34285714 F F T
    0.66666667    0.00000000    0.34285714 F F T
    0.00000000    0.33333333    0.34285714 F F T
    0.33333333    0.33333333    0.34285714 F F T
    0.66666667    0.33333333    0.34285714 F F T
    0.00000000    0.66666667    0.34285714 F F T
    0.33333333    0.66666667    0.34285714 F F T
    0.66666667    0.66666667    0.34285714 F F T
    0.22222222    0.22222222    0.37142857 F F T
    0.55555556    0.22222222    0.37142857 F F T
    0.88888889    0.22222222    0.37142857 F F T
    0.22222222    0.55555556    0.37142857 F F T
    0.55555556    0.55555556    0.37142857 F F T
    0.88888889    0.55555556    0.37142857 F F T
    0.22222222    0.88888889    0.37142857 F F T
    0.55555556    0.88888889    0.37142857 F F T
    0.88888889    0.88888889    0.37142857 F F T
    0.11111111    0.11111111    0.40000000 F F T
    0.44444444    0.11111111    0.40000000 F F T
    0.77777778    0.11111111    0.40000000 F F T
    0.11111111    0.44444444    0.40000000 F F T
    0.44444444    0.44444444    0.40000000 F F T
    0.77777778    0.44444444    0.40000000 F F T
    0.11111111    0.77777778    0.40000000 F F T
    0.44444444    0.77777778    0.40000000 F F T
    0.77777778    0.77777778    0.40000000 F F T
    0.00000000    0.00000000    0.42857143 F F T
    0.33333333    0.00000000    0.42857143 F F T
    0.66666667    0.00000000    0.42857143 F F T
    0.00000000    0.33333333    0.42857143 F F T
    0.33333333    0.33333333    0.42857143 F F T
    0.66666667    0.33333333    0.42857143 F F T
    0.00000000    0.66666667    0.42857143 F F T
    0.33333333    0.66666667    0.42857143 F F T
    0.66666667    0.66666667    0.42857143 F F T
    0.22222222    0.22222222    0.45714286 F F T
    0.55555556    0.22222222    0.45714286 F F T
    0.88888889    0.22222222    0.45714286 F F T
    0.22222222    0.55555556    0.45714286 F F T
    0.55555556    0.55555556    0.45714286 F F T
    0.88888889    0.55555556    0.45714286 F F T
    0.22222222    0.88888889    0.45714286 F F T
    0.55555556    0.88888889    0.45714286 F F T
    0.88888889    0.88888889    0.45714286 F F T
    0.11111111    0.11111111    0.48571429 F F T
    0.44444444    0.11111111    0.48571429 F F T
    0.77777778    0.11111111    0.48571429 F F T
    0.11111111    0.44444444    0.48571429 F F T
    0.44444444    0.44444444    0.48571429 F F T
    0.77777778    0.44444444    0.48571429 F F T
    0.11111111    0.77777778    0.48571429 F F T
    0.44444444    0.77777778    0.48571429 F F T
    0.77777778    0.77777778    0.48571429 F F T
    0.00000000    0.00000000    0.51428571 F F T
    0.33333333    0.00000000    0.51428571 F F T
    0.66666667    0.00000000    0.51428571 F F T
    0.00000000    0.33333333    0.51428571 F F T
    0.33333333    0.33333333    0.51428571 F F T
    0.66666667    0.33333333    0.51428571 F F T
    0.00000000    0.66666667    0.51428571 F F T
    0.33333333    0.66666667    0.51428571 F F T
    0.66666667    0.66666667    0.51428571 F F T
    0.22222222    0.22222222    0.54285714 F F T
    0.55555556    0.22222222    0.54285714 F F T
    0.88888889    0.22222222    0.54285714 F F T
    0.22222222    0.55555556    0.54285714 F F T
    0.55555556    0.55555556    0.54285714 F F T
    0.88888889    0.55555556    0.54285714 F F T
    0.22222222    0.88888889    0.54285714 F F T
    0.55555556    0.88888889    0.54285714 F F T
    0.88888889    0.88888889    0.54285714 F F T
    0.11111111    0.11111111    0.57142857 F F T
    0.44444444    0.11111111    0.57142857 F F T
    0.77777778    0.11111111    0.57142857 F F T
    0.11111111    0.44444444    0.57142857 F F T
    0.44444444    0.44444444    0.57142857 F F T
    0.77777778    0.44444444    0.57142857 F F T
    0.11111111    0.77777778    0.57142857 F F T
    0.44444444    0.77777778    0.57142857 F F T
    0.77777778    0.77777778    0.57142857 F F T
    0.00000000    0.00000000    0.60000000 F F T
    0.33333333    0.00000000    0.60000000 F F T
    0.66666667    0.00000000    0.60000000 F F T
    0.00000000    0.33333333    0.60000000 F F T
    0.33333333    0.33333333    0.60000000 F F T
    0.66666667    0.33333333    0.60000000 F F T
    0.00000000    0.66666667    0.60000000 F F T
    0.33333333    0.66666667    0.60000000 F F T
    0.66666667    0.66666667    0.60000000 F F T
    0.22222222    0.22222222    0.62857143 F F T
    0.55555556    0.22222222    0.62857143 F F T
    0.88888889    0.22222222    0.62857143 F F T
    0.22222222    0.55555556    0.62857143 F F T
    0.55555556    0.55555556    0.62857143 F F T
    0.88888889    0.55555556    0.62857143 F F T
    0.22222222    0.88888889    0.62857143 F F T
    0.55555556    0.88888889    0.62857143 F F T
    0.88888889    0.88888889    0.62857143 F F T
    0.11111111    0.11111111    0.65714286 F F T
    0.44444444    0.11111111    0.65714286 F F T
    0.77777778    0.11111111    0.65714286 F F T
    0.11111111    0.44444444    0.65714286 F F T
    0.44444444    0.44444444    0.65714286 F F T
    0.77777778    0.44444444    0.65714286 F F T
    0.11111111    0.77777778    0.65714286 F F T
    0.44444444    0.77777778    0.65714286 F F T
    0.77777778    0.77777778    0.65714286 F F T
    0.00000000    0.00000000    0.68571429 F F T
    0.33333333    0.00000000    0.68571429 F F T
    0.66666667    0.00000000    0.68571429 F F T
    0.00000000    0.33333333    0.68571429 F F T
    0.33333333    0.33333333    0.68571429 F F T
    0.66666667    0.33333333    0.68571429 F F T
    0.00000000    0.66666667    0.68571429 F F T
    0.33333333    0.66666667    0.68571429 F F T
    0.66666667    0.66666667    0.68571429 F F T
    0.11111111    0.11111111    0.71428571 F F T
    0.44444444    0.11111111    0.71428571 F F T
    0.77777778    0.11111111    0.71428571 F F T
    0.11111111    0.44444444    0.71428571 F F T
    0.44444444    0.44444444    0.71428571 F F T
    0.77777778    0.44444444    0.71428571 F F T
    0.11111111    0.77777778    0.71428571 F F T
    0.44444444    0.77777778    0.71428571 F F T
    0.77777778    0.77777778    0.71428571 F F T
    0.22222222    0.22222222    0.74285714 F F T
    0.55555556    0.22222222    0.74285714 F F T
    0.88888889    0.22222222    0.74285714 F F T
    0.22222222    0.55555556    0.74285714 F F T
    0.55555556    0.55555556    0.74285714 F F T
    0.88888889    0.55555556    0.74285714 F F T
    0.22222222    0.88888889    0.74285714 F F T
    0.55555556    0.88888889    0.74285714 F F T
    0.88888889    0.88888889    0.74285714 F F T
    0.00000000    0.00000000    0.77142857 F F T
    0.33333333    0.00000000    0.77142857 F F T
    0.66666667    0.00000000    0.77142857 F F T
    0.00000000    0.33333333    0.77142857 F F T
    0.33333333    0.33333333    0.77142857 F F T
    0.66666667    0.33333333    0.77142857 F F T
    0.00000000    0.66666667    0.77142857 F F T
    0.33333333    0.66666667    0.77142857 F F T
    0.66666667    0.66666667    0.77142857 F F T
    0.11111111    0.11111111    0.80000000 F F T
    0.44444444    0.11111111    0.80000000 F F T
    0.77777778    0.11111111    0.80000000 F F T
    0.11111111    0.44444444    0.80000000 F F T
    0.44444444    0.44444444    0.80000000 F F T
    0.77777778    0.44444444    0.80000000 F F T
    0.11111111    0.77777778    0.80000000 F F T
    0.44444444    0.77777778    0.80000000 F F T
    0.77777778    0.77777778    0.80000000 F F T
    0.22222222    0.22222222    0.82857143 F F T
    0.55555556    0.22222222    0.82857143 F F T
    0.88888889    0.22222222    0.82857143 F F T
    0.22222222    0.55555556    0.82857143 F F T
    0.55555556    0.55555556    0.82857143 F F T
    0.88888889    0.55555556    0.82857143 F F T
    0.22222222    0.88888889    0.82857143 F F T
    0.55555556    0.88888889    0.82857143 F F T
    0.88888889    0.88888889    0.82857143 F F T
    0.00000000    0.00000000    0.85714286 F F T
    0.33333333    0.00000000    0.85714286 F F T
    0.66666667    0.00000000    0.85714286 F F T
    0.00000000    0.33333333    0.85714286 F F T
    0.33333333    0.33333333    0.85714286 F F T
    0.66666667    0.33333333    0.85714286 F F T
    0.00000000    0.66666667    0.85714286 F F T
    0.33333333    0.66666667    0.85714286 F F T
    0.66666667    0.66666667    0.85714286 F F T
    0.11111111    0.11111111    0.88571429 F F T
    0.44444444    0.11111111    0.88571429 F F T
    0.77777778    0.11111111    0.88571429 F F T
    0.11111111    0.44444444    0.88571429 F F T
    0.44444444    0.44444444    0.88571429 F F T
    0.77777778    0.44444444    0.88571429 F F T
    0.11111111    0.77777778    0.88571429 F F T
    0.44444444    0.77777778    0.88571429 F F T
    0.77777778    0.77777778    0.88571429 F F T
    0.22222222    0.22222222    0.91428571 F F T
    0.55555556    0.22222222    0.91428571 F F T
    0.88888889    0.22222222    0.91428571 F F T
    0.22222222    0.55555556    0.91428571 F F T
    0.55555556    0.55555556    0.91428571 F F T
    0.88888889    0.55555556    0.91428571 F F T
    0.22222222    0.88888889    0.91428571 F F T
    0.55555556    0.88888889    0.91428571 F F T
    0.88888889    0.88888889    0.91428571 F F T
    0.00000000    0.00000000    0.94285714 F F T
    0.33333333    0.00000000    0.94285714 F F T
    0.66666667    0.00000000    0.94285714 F F T
    0.00000000    0.33333333    0.94285714 F F T
    0.33333333    0.33333333    0.94285714 F F T
    0.66666667    0.33333333    0.94285714 F F T
    0.00000000    0.66666667    0.94285714 F F T
    0.33333333    0.66666667    0.94285714 F F T
    0.66666667    0.66666667    0.94285714 F F T
    0.11111111    0.11111111    0.97142857 F F T
    0.44444444    0.11111111    0.97142857 F F T
    0.77777778    0.11111111    0.97142857 F F T
    0.11111111    0.44444444    0.97142857 F F T
    0.44444444    0.44444444    0.97142857 F F T
    0.77777778    0.44444444    0.97142857 F F T
    0.11111111    0.77777778    0.97142857 F F T
    0.44444444    0.77777778    0.97142857 F F T
    0.77777778    0.77777778    0.97142857 F F T
