Generated generic
1.0
    7.66857304    0.00000000    0.00000000
    3.83428652    6.64117907    0.00000000
    0.00000000    0.00000000   93.92045504
 Cu
 405
Selective dynamics
Direct
    0.00000000    0.00000000    0.00000000 F F T
    0.33333333    0.00000000    0.00000000 F F T
    0.66666667    0.00000000    0.00000000 F F T
    0.00000000    0.33333333    0.00000000 F F T
    0.33333333    0.33333333    0.00000000 F F T
    0.66666667    0.33333333    0.00000000 F F T
    0.00000000    0.66666667    0.00000000 F F T
    0.33333333    0.66666667    0.00000000 F F T
    0.66666667    0.66666667    0.00000000 F F T
    0.11111111    0.11111111    0.02222222 F F T
    0.44444444    0.11111111    0.02222222 F F T
    0.77777778    0.11111111    0.02222222 F F T
    0.11111111    0.44444444    0.02222222 F F T
    0.44444444    0.44444444    0.02222222 F F T
    0.77777778    0.44444444    0.02222222 F F T
    0.11111111    0.77777778    0.02222222 F F T
    0.44444444    0.77777778    0.02222222 F F T
    0.77777778    0.77777778    0.02222222 F F T
    0.22222222    0.22222222    0.04444444 F F T
    0.55555556    0.22222222    0.04444444 F F T
    0.88888889    0.22222222    0.04444444 F F T
    0.22222222    0.55555556    0.04444444 F F T
    0.55555556    0.55555556    0.04444444 F F T
    0.88888889    0.55555556    0.04444444 F F T
    0.22222222    0.88888889    0.04444444 F F T
    0.55555556    0.88888889    0.04444444 F F T
    0.88888889    0.88888889    0.04444444 F F T
    0.00000000    0.00000000    0.06666667 F F T
    0.33333333    0.00000000    0.06666667 F F T
    0.66666667    0.00000000    0.06666667 F F T
    0.00000000    0.33333333    0.06666667 F F T
    0.33333333    0.33333333    0.06666667 F F T
    0.66666667    0.33333333    0.06666667 F F T
    0.00000000    0.66666667    0.06666667 F F T
    0.33333333    0.66666667    0.06666667 F F T
    0.66666667    0.66666667    0.06666667 F F T
    0.11111111    0.11111111    0.08888889 F F T
    0.44444444    0.11111111    0.08888889 F F T
    0.77777778    0.11111111    0.08888889 F F T
    0.11111111    0.44444444    0.08888889 F F T
    0.44444444    0.44444444    0.08888889 F F T
    0.77777778    0.44444444    0.08888889 F F T
    0.11111111    0.77777778    0.08888889 F F T
    0.44444444    0.77777778    0.08888889 F F T
    0.77777778    0.77777778    0.08888889 F F T
    0.22222222    0.22222222    0.11111111 F F T
    0.55555556    0.22222222    0.11111111 F F T
    0.88888889    0.22222222    0.11111111 F F T
    0.22222222    0.55555556    0.11111111 F F T
    0.55555556    0.55555556    0.11111111 F F T
    0.88888889    0.55555556    0.11111111 F F T
    0.22222222    0.88888889    0.11111111 F F T
    0.55555556    0.88888889    0.11111111 F F T
    0.88888889    0.88888889    0.11111111 F F T
    0.00000000    0.00000000    0.13333333 F F T
    0.33333333    0.00000000    0.13333333 F F T
    0.66666667    0.00000000    0.13333333 F F T
    0.00000000    0.33333333    0.13333333 F F T
    0.33333333    0.33333333    0.13333333 F F T
    0.66666667    0.33333333    0.13333333 F F T
    0.00000000    0.66666667    0.13333333 F F T
    0.33333333    0.66666667    0.13333333 F F T
    0.66666667    0.66666667    0.13333333 F F T
    0.11111111    0.11111111    0.15555556 F F T
    0.44444444    0.11111111    0.15555556 F F T
    0.77777778    0.11111111    0.15555556 F F T
    0.11111111    0.44444444    0.15555556 F F T
    0.44444444    0.44444444    0.15555556 F F T
    0.77777778    0.44444444    0.15555556 F F T
    0.11111111    0.77777778    0.15555556 F F T
    0.44444444    0.77777778    0.15555556 F F T
    0.77777778    0.77777778    0.15555556 F F T
    0.22222222    0.22222222    0.17777778 F F T
    0.55555556    0.22222222    0.17777778 F F T
    0.88888889    0.22222222    0.17777778 F F T
    0.22222222    0.55555556    0.17777778 F F T
    0.55555556    0.55555556    0.17777778 F F T
    0.88888889    0.55555556    0.17777778 F F T
    0.22222222    0.88888889    0.17777778 F F T
    0.55555556    0.88888889    0.17777778 F F T
    0.88888889    0.88888889    0.17777778 F F T
    0.00000000    0.00000000    0.20000000 F F T
    0.33333333    0.00000000    0.20000000 F F T
    0.66666667    0.00000000    0.20000000 F F T
    0.00000000    0.33333333    0.20000000 F F T
    0.33333333    0.33333333    0.20000000 F F T
    0.66666667    0.33333333    0.20000000 F F T
    0.00000000    0.66666667    0.20000000 F F T
    0.33333333    0.66666667    0.20000000 F F T
    0.66666667    0.66666667    0.20000000 F F T
    0.11111111    0.11111111    0.22222222 F F T
    0.44444444    0.11111111    0.22222222 F F T
    0.77777778    0.11111111    0.22222222 F F T
    0.11111111    0.44444444    0.22222222 F F T
    0.44444444    0.44444444    0.22222222 F F T
    0.77777778    0.44444444    0.22222222 F F T
    0.11111111    0.77777778    0.22222222 F F T
    0.44444444    0.77777778    0.22222222 F F T
    0.77777778    0.77777778    0.22222222 F F T
    0.22222222    0.22222222    0.24444444 F F T
    0.55555556    0.22222222    0.24444444 F F T
    0.88888889    0.22222222    0.24444444 F F T
    0.22222222    0.55555556    0.24444444 F F T
    0.55555556    0.55555556    0.24444444 F F T
    0.88888889    0.55555556    0.24444444 F F T
    0.22222222    0.88888889    0.24444444 F F T
    0.55555556    0.88888889    0.24444444 F F T
    0.88888889    0.88888889    0.24444444 F F T
    0.00000000    0.00000000    0.26666667 F F T
    0.33333333    0.00000000    0.26666667 F F T
    0.66666667    0.00000000    0.26666667 F F T
    0.00000000    0.33333333    0.26666667 F F T
    0.33333333    0.33333333    0.26666667 F F T
    0.66666667    0.33333333    0.26666667 F F T
    0.00000000    0.66666667    0.26666667 F F T
    0.33333333    0.66666667    0.26666667 F F T
    0.66666667    0.66666667    0.26666667 F F T
    0.11111111    0.11111111    0.28888889 F F T
    0.44444444    0.11111111    0.28888889 F F T
    0.77777778    0.11111111    0.28888889 F F T
    0.11111111    0.44444444    0.28888889 F F T
    0.44444444    0.44444444    0.28888889 F F T
    0.77777778    0.44444444    0.28888889 F F T
    0.11111111    0.77777778    0.28888889 F F T
    0.44444444    0.77777778    0.28888889 F F T
    0.77777778    0.77777778    0.28888889 F F T
    0.22222222    0.22222222    0.31111111 F F T
    0.55555556    0.22222222    0.31111111 F F T
    0.88888889    0.22222222    0.31111111 F F T
    0.22222222    0.55555556    0.31111111 F F T
    0.55555556    0.55555556    0.31111111 F F T
    0.88888889    0.55555556    0.31111111 F F T
    0.22222222    0.88888889    0.31111111 F F T
    0.55555556    0.88888889    0.31111111 F F T
    0.88888889    0.88888889    0.31111111 F F T
    0.11111111    0.11111111    0.33333333 F F T
    0.44444444    0.11111111    0.33333333 F F T
    0.77777778    0.11111111    0.33333333 F F T
    0.11111111    0.44444444    0.33333333 F F T
    0.44444444    0.44444444    0.33333333 F F T
    0.77777778    0.44444444    0.33333333 F F T
    0.11111111    0.77777778    0.33333333 F F T
    0.44444444    0.77777778    0.33333333 F F T
    0.77777778    0.77777778    0.33333333 F F T
    0.00000000    0.00000000    0.35555556 F F T
    0.33333333    0.00000000    0.35555556 F F T
    0.66666667    0.00000000    0.35555556 F F T
    0.00000000    0.33333333    0.35555556 F F T
    0.33333333    0.33333333    0.35555556 F F T
    0.66666667    0.33333333    0.35555556 F F T
    0.00000000    0.66666667    0.35555556 F F T
    0.33333333    0.66666667    0.35555556 F F T
    0.66666667    0.66666667    0.35555556 F F T
    0.22222222    0.22222222    0.37777778 F F T
    0.55555556    0.22222222    0.37777778 F F T
    0.88888889    0.22222222    0.37777778 F F T
    0.22222222    0.55555556    0.37777778 F F T
    0.55555556    0.55555556    0.37777778 F F T
    0.88888889    0.55555556    0.37777778 F F T
    0.22222222    0.88888889    0.37777778 F F T
    0.55555556    0.88888889    0.37777778 F F T
    0.88888889    0.88888889    0.37777778 F F T
    0.11111111    0.11111111    0.40000000 F F T
    0.44444444    0.11111111    0.40000000 F F T
    0.77777778    0.11111111    0.40000000 F F T
    0.11111111    0.44444444    0.40000000 F F T
    0.44444444    0.44444444    0.40000000 F F T
    0.77777778    0.44444444    0.40000000 F F T
    0.11111111    0.77777778    0.40000000 F F T
    0.44444444    0.77777778    0.40000000 F F T
    0.77777778    0.77777778    0.40000000 F F T
    0.00000000    0.00000000    0.42222222 F F T
    0.33333333    0.00000000    0.42222222 F F T
    0.66666667    0.00000000    0.42222222 F F T
    0.00000000    0.33333333    0.42222222 F F T
    0.33333333    0.33333333    0.42222222 F F T
    0.66666667    0.33333333    0.42222222 F F T
    0.00000000    0.66666667    0.42222222 F F T
    0.33333333    0.66666667    0.42222222 F F T
    0.66666667    0.66666667    0.42222222 F F T
    0.22222222    0.22222222    0.44444444 F F T
    0.55555556    0.22222222    0.44444444 F F T
    0.88888889    0.22222222    0.44444444 F F T
    0.22222222    0.55555556    0.44444444 F F T
    0.55555556    0.55555556    0.44444444 F F T
    0.88888889    0.55555556    0.44444444 F F T
    0.22222222    0.88888889    0.44444444 F F T
    0.55555556    0.88888889    0.44444444 F F T
    0.88888889    0.88888889    0.44444444 F F T
    0.11111111    0.11111111    0.46666667 F F T
    0.44444444    0.11111111    0.46666667 F F T
    0.77777778    0.11111111    0.46666667 F F T
    0.11111111    0.44444444    0.46666667 F F T
    0.44444444    0.44444444    0.46666667 F F T
    0.77777778    0.44444444    0.46666667 F F T
    0.11111111    0.77777778    0.46666667 F F T
    0.44444444    0.77777778    0.46666667 F F T
    0.77777778    0.77777778    0.46666667 F F T
    0.00000000    0.00000000    0.48888889 F F T
    0.33333333    0.00000000    0.48888889 F F T
    0.66666667    0.00000000    0.48888889 F F T
    0.00000000    0.33333333    0.48888889 F F T
    0.33333333    0.33333333    0.48888889 F F T
    0.66666667    0.33333333    0.48888889 F F T
    0.00000000    0.66666667    0.48888889 F F T
    0.33333333    0.66666667    0.48888889 F F T
    0.66666667    0.66666667    0.48888889 F F T
    0.22222222    0.22222222    0.51111111 F F T
    0.55555556    0.22222222    0.51111111 F F T
    0.88888889    0.22222222    0.51111111 F F T
    0.22222222    0.55555556    0.51111111 F F T
    0.55555556    0.55555556    0.51111111 F F T
    0.88888889    0.55555556    0.51111111 F F T
    0.22222222    0.88888889    0.51111111 F F T
    0.55555556    0.88888889    0.51111111 F F T
    0.88888889    0.88888889    0.51111111 F F T
    0.11111111    0.11111111    0.53333333 F F T
    0.44444444    0.11111111    0.53333333 F F T
    0.77777778    0.11111111    0.53333333 F F T
    0.11111111    0.44444444    0.53333333 F F T
    0.44444444    0.44444444    0.53333333 F F T
    0.77777778    0.44444444    0.53333333 F F T
    0.11111111    0.77777778    0.53333333 F F T
    0.44444444    0.77777778    0.53333333 F F T
    0.77777778    0.77777778    0.53333333 F F T
    0.00000000    0.00000000    0.55555556 F F T
    0.33333333    0.00000000    0.55555556 F F T
    0.66666667    0.00000000    0.55555556 F F T
    0.00000000    0.33333333    0.55555556 F F T
    0.33333333    0.33333333    0.55555556 F F T
    0.66666667    0.33333333    0.55555556 F F T
    0.00000000    0.66666667    0.55555556 F F T
    0.33333333    0.66666667    0.55555556 F F T
    0.66666667    0.66666667    0.55555556 F F T
    0.22222222    0.22222222    0.57777778 F F T
    0.55555556    0.22222222    0.57777778 F F T
    0.88888889    0.22222222    0.57777778 F F T
    0.22222222    0.55555556    0.57777778 F F T
    0.55555556    0.55555556    0.57777778 F F T
    0.88888889    0.55555556    0.57777778 F F T
    0.22222222    0.88888889    0.57777778 F F T
    0.55555556    0.88888889    0.57777778 F F T
    0.88888889    0.88888889    0.57777778 F F T
    0.11111111    0.11111111    0.60000000 F F T
    0.44444444    0.11111111    0.60000000 F F T
    0.77777778    0.11111111    0.60000000 F F T
    0.11111111    0.44444444    0.60000000 F F T
    0.44444444    0.44444444    0.60000000 F F T
    0.77777778    0.44444444    0.60000000 F F T
    0.11111111    0.77777778    0.60000000 F F T
    0.44444444    0.77777778    0.60000000 F F T
    0.77777778    0.77777778    0.60000000 F F T
    0.00000000    0.00000000    0.62222222 F F T
    0.33333333    0.00000000    0.62222222 F F T
    0.66666667    0.00000000    0.62222222 F F T
    0.00000000    0.33333333    0.62222222 F F T
    0.33333333    0.33333333    0.62222222 F F T
    0.66666667    0.33333333    0.62222222 F F T
    0.00000000    0.66666667    0.62222222 F F T
    0.33333333    0.66666667    0.62222222 F F T
    0.66666667    0.66666667    0.62222222 F F T
    0.22222222    0.22222222    0.64444444 F F T
    0.55555556    0.22222222    0.64444444 F F T
    0.88888889    0.22222222    0.64444444 F F T
    0.22222222    0.55555556    0.64444444 F F T
    0.55555556    0.55555556    0.64444444 F F T
    0.88888889    0.55555556    0.64444444 F F T
    0.22222222    0.88888889    0.64444444 F F T
    0.55555556    0.88888889    0.64444444 F F T
    0.88888889    0.88888889    0.64444444 F F T
    0.00000000    0.00000000    0.66666667 F F T
    0.33333333    0.00000000    0.66666667 F F T
    0.66666667    0.00000000    0.66666667 F F T
    0.00000000    0.33333333    0.66666667 F F T
    0.33333333    0.33333333    0.66666667 F F T
    0.66666667    0.33333333    0.66666667 F F T
    0.00000000    0.66666667    0.66666667 F F T
    0.33333333    0.66666667    0.66666667 F F T
    0.66666667    0.66666667    0.66666667 F F T
    0.11111111    0.11111111    0.68888889 F F T
    0.44444444    0.11111111    0.68888889 F F T
    0.77777778    0.11111111    0.68888889 F F T
    0.11111111    0.44444444    0.68888889 F F T
    0.44444444    0.44444444    0.68888889 F F T
    0.77777778    0.44444444    0.68888889 F F T
    0.11111111    0.77777778    0.68888889 F F T
    0.44444444    0.77777778    0.68888889 F F T
    0.77777778    0.77777778    0.68888889 F F T
    0.22222222    0.22222222    0.71111111 F F T
    0.55555556    0.22222222    0.71111111 F F T
    0.88888889    0.22222222    0.71111111 F F T
    0.22222222    0.55555556    0.71111111 F F T
    0.55555556    0.55555556    0.71111111 F F T
    0.88888889    0.55555556    0.71111111 F F T
    0.22222222    0.88888889    0.71111111 F F T
    0.55555556    0.88888889    0.71111111 F F T
    0.88888889    0.88888889    0.71111111 F F T
    0.00000000    0.00000000    0.73333333 F F T
    0.33333333    0.00000000    0.73333333 F F T
    0.66666667    0.00000000    0.73333333 F F T
    0.00000000    0.33333333    0.73333333 F F T
    0.33333333    0.33333333    0.73333333 F F T
    0.66666667    0.33333333    0.73333333 F F T
    0.00000000    0.66666667    0.73333333 F F T
    0.33333333    0.66666667    0.73333333 F F T
    0.66666667    0.66666667    0.73333333 F F T
    0.11111111    0.11111111    0.75555556 F F T
    0.44444444    0.11111111    0.75555556 F F T
    0.77777778    0.11111111    0.75555556 F F T
    0.11111111    0.44444444    0.75555556 F F T
    0.44444444    0.44444444    0.75555556 F F T
    0.77777778    0.44444444    0.75555556 F F T
    0.11111111    0.77777778    0.75555556 F F T
    0.44444444    0.77777778    0.75555556 F F T
    0.77777778    0.77777778    0.75555556 F F T
    0.22222222    0.22222222    0.77777778 F F T
    0.55555556    0.22222222    0.77777778 F F T
    0.88888889    0.22222222    0.77777778 F F T
    0.22222222    0.55555556    0.77777778 F F T
    0.55555556    0.55555556    0.77777778 F F T
    0.88888889    0.55555556    0.77777778 F F T
    0.22222222    0.88888889    0.77777778 F F T
    0.55555556    0.88888889    0.77777778 F F T
    0.88888889    0.88888889    0.77777778 F F T
    0.00000000    0.00000000    0.80000000 F F T
    0.33333333    0.00000000    0.80000000 F F T
    0.66666667    0.00000000    0.80000000 F F T
    0.00000000    0.33333333    0.80000000 F F T
    0.33333333    0.33333333    0.80000000 F F T
    0.66666667    0.33333333    0.80000000 F F T
    0.00000000    0.66666667    0.80000000 F F T
    0.33333333    0.66666667    0.80000000 F F T
    0.66666667    0.66666667    0.80000000 F F T
    0.11111111    0.11111111    0.82222222 F F T
    0.44444444    0.11111111    0.82222222 F F T
    0.77777778    0.11111111    0.82222222 F F T
    0.11111111    0.44444444    0.82222222 F F T
    0.44444444    0.44444444    0.82222222 F F T
    0.77777778    0.44444444    0.82222222 F F T
    0.11111111    0.77777778    0.82222222 F F T
    0.44444444    0.77777778    0.82222222 F F T
    0.77777778    0.77777778    0.82222222 F F T
    0.22222222    0.22222222    0.84444444 F F T
    0.55555556    0.22222222    0.84444444 F F T
    0.88888889    0.22222222    0.84444444 F F T
    0.22222222    0.55555556    0.84444444 F F T
    0.55555556    0.55555556    0.84444444 F F T
    0.88888889    0.55555556    0.84444444 F F T
    0.22222222    0.88888889    0.84444444 F F T
    0.55555556    0.88888889    0.84444444 F F T
    0.88888889    0.88888889    0.84444444 F F T
    0.00000000    0.00000000    0.86666667 F F T
    0.33333333    0.00000000    0.86666667 F F T
    0.66666667    0.00000000    0.86666667 F F T
    0.00000000    0.33333333    0.86666667 F F T
    0.33333333    0.33333333    0.86666667 F F T
    0.66666667    0.33333333    0.86666667 F F T
    0.00000000    0.66666667    0.86666667 F F T
    0.33333333    0.66666667    0.86666667 F F T
    0.66666667    0.66666667    0.86666667 F F T
    0.11111111    0.11111111    0.88888889 F F T
    0.44444444    0.11111111    0.88888889 F F T
    0.77777778    0.11111111    0.88888889 F F T
    0.11111111    0.44444444    0.88888889 F F T
    0.44444444    0.44444444    0.88888889 F F T
    0.77777778    0.44444444    0.88888889 F F T
    0.11111111    0.77777778    0.88888889 F F T
    0.44444444    0.77777778    0.88888889 F F T
    0.77777778    0.77777778    0.88888889 F F T
    0.22222222    0.22222222    0.91111111 F F T
    0.55555556    0.22222222    0.91111111 F F T
    0.88888889    0.22222222    0.91111111 F F T
    0.22222222    0.55555556    0.91111111 F F T
    0.55555556    0.55555556    0.91111111 F F T
    0.88888889    0.55555556    0.91111111 F F T
    0.22222222    0.88888889    0.91111111 F F T
    0.55555556    0.88888889    0.91111111 F F T
    0.88888889    0.88888889    0.91111111 F F T
    0.00000000    0.00000000    0.93333333 F F T
    0.33333333    0.00000000    0.93333333 F F T
    0.66666667    0.00000000    0.93333333 F F T
    0.00000000    0.33333333    0.93333333 F F T
    0.33333333    0.33333333    0.93333333 F F T
    0.66666667    0.33333333    0.93333333 F F T
    0.00000000    0.66666667    0.93333333 F F T
    0.33333333    0.66666667    0.93333333 F F T
    0.66666667    0.66666667    0.93333333 F F T
    0.11111111    0.11111111    0.95555556 F F T
    0.44444444    0.11111111    0.95555556 F F T
    0.77777778    0.11111111    0.95555556 F F T
    0.11111111    0.44444444    0.95555556 F F T
    0.44444444    0.44444444    0.95555556 F F T
    0.77777778    0.44444444    0.95555556 F F T
    0.11111111    0.77777778    0.95555556 F F T
    0.44444444    0.77777778    0.95555556 F F T
    0.77777778    0.77777778    0.95555556 F F T
    0.22222222    0.22222222    0.97777778 F F T
    0.55555556    0.22222222    0.97777778 F F T
    0.88888889    0.22222222    0.97777778 F F T
    0.22222222    0.55555556    0.97777778 F F T
    0.55555556    0.55555556    0.97777778 F F T
    0.88888889    0.55555556    0.97777778 F F T
    0.22222222    0.88888889    0.97777778 F F T
    0.55555556    0.88888889    0.97777778 F F T
    0.88888889    0.88888889    0.97777778 F F T
