Generated generic
1.0
    7.66857304    0.00000000    0.00000000
    3.83428652    6.64117907    0.00000000
    0.00000000    0.00000000   68.87500036
 Cu
 297
Selective dynamics
Direct
    0.00000000    0.00000000    0.00000000 F F T
    0.33333333    0.00000000    0.00000000 F F T
    0.66666667    0.00000000    0.00000000 F F T
    0.00000000    0.33333333    0.00000000 F F T
    0.33333333    0.33333333    0.00000000 F F T
    0.66666667    0.33333333    0.00000000 F F T
    0.00000000    0.66666667    0.00000000 F F T
    0.33333333    0.66666667    0.00000000 F F T
    0.66666667    0.66666667    0.00000000 F F T
    0.11111111    0.11111111    0.03030303 F F T
    0.44444444    0.11111111    0.03030303 F F T
    0.77777778    0.11111111    0.03030303 F F T
    0.11111111    0.44444444    0.03030303 F F T
    0.44444444    0.44444444    0.03030303 F F T
    0.77777778    0.44444444    0.03030303 F F T
    0.11111111    0.77777778    0.03030303 F F T
    0.44444444    0.77777778    0.03030303 F F T
    0.77777778    0.77777778    0.03030303 F F T
    0.22222222    0.22222222    0.06060606 F F T
    0.55555556    0.22222222    0.06060606 F F T
    0.88888889    0.22222222    0.06060606 F F T
    0.22222222    0.55555556    0.06060606 F F T
    0.55555556    0.55555556    0.06060606 F F T
    0.88888889    0.55555556    0.06060606 F F T
    0.22222222    0.88888889    0.06060606 F F T
    0.55555556    0.88888889    0.06060606 F F T
    0.88888889    0.88888889    0.06060606 F F T
    0.00000000    0.00000000    0.09090909 F F T
    0.33333333    0.00000000    0.09090909 F F T
    0.66666667    0.00000000    0.09090909 F F T
    0.00000000    0.33333333    0.09090909 F F T
    0.33333333    0.33333333    0.09090909 F F T
    0.66666667    0.33333333    0.09090909 F F T
    0.00000000    0.66666667    0.09090909 F F T
    0.33333333    0.66666667    0.09090909 F F T
    0.66666667    0.66666667    0.09090909 F F T
    0.11111111    0.11111111    0.12121212 F F T
    0.44444444    0.11111111    0.12121212 F F T
    0.77777778    0.11111111    0.12121212 F F T
    0.11111111    0.44444444    0.12121212 F F T
    0.44444444    0.44444444    0.12121212 F F T
    0.77777778    0.44444444    0.12121212 F F T
    0.11111111    0.77777778    0.12121212 F F T
    0.44444444    0.77777778    0.12121212 F F T
    0.77777778    0.77777778    0.12121212 F F T
    0.22222222    0.22222222    0.15151515 F F T
    0.55555556    0.22222222    0.15151515 F F T
    0.88888889    0.22222222    0.15151515 F F T
    0.22222222    0.55555556    0.15151515 F F T
    0.55555556    0.55555556    0.15151515 F F T
    0.88888889    0.55555556    0.15151515 F F T
    0.22222222    0.88888889    0.15151515 F F T
    0.55555556    0.88888889    0.15151515 F F T
    0.88888889    0.88888889    0.15151515 F F T
    0.00000000    0.00000000    0.18181818 F F T
    0.33333333    0.00000000    0.18181818 F F T
    0.66666667    0.00000000    0.18181818 F F T
    0.00000000    0.33333333    0.18181818 F F T
    0.33333333    0.33333333    0.18181818 F F T
    0.66666667    0.33333333    0.18181818 F F T
    0.00000000    0.66666667    0.18181818 F F T
    0.33333333    0.66666667    0.18181818 F F T
    0.66666667    0.66666667    0.18181818 F F T
    0.11111111    0.11111111    0.21212121 F F T
    0.44444444    0.11111111    0.21212121 F F T
    0.77777778    0.11111111    0.21212121 F F T
    0.11111111    0.44444444    0.21212121 F F T
    0.44444444    0.44444444    0.21212121 F F T
    0.77777778    0.44444444    0.21212121 F F T
    0.11111111    0.77777778    0.21212121 F F T
    0.44444444    0.77777778    0.21212121 F F T
    0.77777778    0.77777778    0.21212121 F F T
    0.22222222    0.22222222    0.24242424 F F T
    0.55555556    0.22222222    0.24242424 F F T
    0.88888889    0.22222222    0.24242424 F F T
    0.22222222    0.55555556    0.24242424 F F T
    0.55555556    0.55555556    0.24242424 F F T
    0.88888889    0.55555556    0.24242424 F F T
    0.22222222    0.88888889    0.24242424 F F T
    0.55555556    0.88888889    0.24242424 F F T
    0.88888889    0.88888889    0.24242424 F F T
    0.00000000    0.00000000    0.27272727 F F T
    0.33333333    0.00000000    0.27272727 F F T
    0.66666667    0.00000000    0.27272727 F F T
    0.00000000    0.33333333    0.27272727 F F T
    0.33333333    0.33333333    0.27272727 F F T
    0.66666667    0.33333333    0.27272727 F F T
    0.00000000    0.66666667    0.27272727 F F T
    0.33333333    0.66666667    0.27272727 F F T
    0.66666667    0.66666667    0.27272727 F F T
    0.22222222    0.22222222    0.30303030 F F T
    0.55555556    0.22222222    0.30303030 F F T
    0.88888889    0.22222222    0.30303030 F F T
    0.22222222    0.55555556    0.30303030 F F T
    0.55555556    0.55555556    0.30303030 F F T
    0.88888889    0.55555556    0.30303030 F F T
    0.22222222    0.88888889    0.30303030 F F T
    0.55555556    0.88888889    0.30303030 F F T
    0.88888889    0.88888889    0.30303030 F F T
    0.11111111    0.11111111    0.33333333 F F T
    0.44444444    0.11111111    0.33333333 F F T
    0.77777778    0.11111111    0.33333333 F F T
    0.11111111    0.44444444    0.33333333 F F T
    0.44444444    0.44444444    0.33333333 F F T
    0.77777778    0.44444444    0.33333333 F F T
    0.11111111    0.77777778    0.33333333 F F T
    0.44444444    0.77777778    0.33333333 F F T
    0.77777778    0.77777778    0.33333333 F F T
    0.00000000    0.00000000    0.36363636 F F T
    0.33333333    0.00000000    0.36363636 F F T
    0.66666667    0.00000000    0.36363636 F F T
    0.00000000    0.33333333    0.36363636 F F T
    0.33333333    0.33333333    0.36363636 F F T
    0.66666667    0.33333333    0.36363636 F F T
    0.00000000    0.66666667    0.36363636 F F T
    0.33333333    0.66666667    0.36363636 F F T
    0.66666667    0.66666667    0.36363636 F F T
    0.22222222    0.22222222    0.39393939 F F T
    0.55555556    0.22222222    0.39393939 F F T
    0.88888889    0.22222222    0.39393939 F F T
    0.22222222    0.55555556    0.39393939 F F T
    0.55555556    0.55555556    0.39393939 F F T
    0.88888889    0.55555556    0.39393939 F F T
    0.22222222    0.88888889    0.39393939 F F T
    0.55555556    0.88888889    0.39393939 F F T
    0.88888889    0.88888889    0.39393939 F F T
    0.11111111    0.11111111    0.42424242 F F T
    0.44444444    0.11111111    0.42424242 F F T
    0.77777778    0.11111111    0.42424242 F F T
    0.11111111    0.44444444    0.42424242 F F T
    0.44444444    0.44444444    0.42424242 F F T
    0.77777778    0.44444444    0.42424242 F F T
    0.11111111    0.77777778    0.42424242 F F T
    0.44444444    0.77777778    0.42424242 F F T
    0.77777778    0.77777778    0.42424242 F F T
    0.00000000    0.00000000    0.45454545 F F T
    0.33333333    0.00000000    0.45454545 F F T
    0.66666667    0.00000000    0.45454545 F F T
    0.00000000    0.33333333    0.45454545 F F T
    0.33333333    0.33333333    0.45454545 F F T
    0.66666667    0.33333333    0.45454545 F F T
    0.00000000    0.66666667    0.45454545 F F T
    0.33333333    0.66666667    0.45454545 F F T
    0.66666667    0.66666667    0.45454545 F F T
    0.22222222    0.22222222    0.48484848 F F T
    0.55555556    0.22222222    0.48484848 F F T
    0.88888889    0.22222222    0.48484848 F F T
    0.22222222    0.55555556    0.48484848 F F T
    0.55555556    0.55555556    0.48484848 F F T
    0.88888889    0.55555556    0.48484848 F F T
    0.22222222    0.88888889    0.48484848 F F T
    0.55555556    0.88888889    0.48484848 F F T
    0.88888889    0.88888889    0.48484848 F F T
    0.11111111    0.11111111    0.51515152 F F T
    0.44444444    0.11111111    0.51515152 F F T
    0.77777778    0.11111111    0.51515152 F F T
    0.11111111    0.44444444    0.51515152 F F T
    0.44444444    0.44444444    0.51515152 F F T
    0.77777778    0.44444444    0.51515152 F F T
    0.11111111    0.77777778    0.51515152 F F T
    0.44444444    0.77777778    0.51515152 F F T
    0.77777778    0.77777778    0.51515152 F F T
    0.00000000    0.00000000    0.54545455 F F T
    0.33333333    0.00000000    0.54545455 F F T
    0.66666667    0.00000000    0.54545455 F F T
    0.00000000    0.33333333    0.54545455 F F T
    0.33333333    0.33333333    0.54545455 F F T
    0.66666667    0.33333333    0.54545455 F F T
    0.00000000    0.66666667    0.54545455 F F T
    0.33333333    0.66666667    0.54545455 F F T
    0.66666667    0.66666667    0.54545455 F F T
    0.22222222    0.22222222    0.57575758 F F T
    0.55555556    0.22222222    0.57575758 F F T
    0.88888889    0.22222222    0.57575758 F F T
    0.22222222    0.55555556    0.57575758 F F T
    0.55555556    0.55555556    0.57575758 F F T
    0.88888889    0.55555556    0.57575758 F F T
    0.22222222    0.88888889    0.57575758 F F T
    0.55555556    0.88888889    0.57575758 F F T
    0.88888889    0.88888889    0.57575758 F F T
    0.11111111    0.11111111    0.60606061 F F T
    0.44444444    0.11111111    0.60606061 F F T
    0.77777778    0.11111111    0.60606061 F F T
    0.11111111    0.44444444    0.60606061 F F T
    0.44444444    0.44444444    0.60606061 F F T
    0.77777778    0.44444444    0.60606061 F F T
    0.11111111    0.77777778    0.60606061 F F T
    0.44444444    0.77777778    0.60606061 F F T
    0.77777778    0.77777778    0.60606061 F F T
    0.00000000    0.00000000    0.63636364 F F T
    0.33333333    0.00000000    0.63636364 F F T
    0.66666667    0.00000000    0.63636364 F F T
    0.00000000    0.33333333    0.63636364 F F T
    0.33333333    0.33333333    0.63636364 F F T
    0.66666667    0.33333333    0.63636364 F F T
    0.00000000    0.66666667    0.63636364 F F T
    0.33333333    0.66666667    0.63636364 F F T
    0.66666667    0.66666667    0.63636364 F F T
    0.22222222    0.22222222    0.66666667 F F T
    0.55555556    0.22222222    0.66666667 F F T
    0.88888889    0.22222222    0.66666667 F F T
    0.22222222    0.55555556    0.66666667 F F T
    0.55555556    0.55555556    0.66666667 F F T
    0.88888889    0.55555556    0.66666667 F F T
    0.22222222    0.88888889    0.66666667 F F T
    0.55555556    0.88888889    0.66666667 F F T
    0.88888889    0.88888889    0.66666667 F F T
    0.00000000    0.00000000    0.69696970 F F T
    0.33333333    0.00000000    0.69696970 F F T
    0.66666667    0.00000000    0.69696970 F F T
    0.00000000    0.33333333    0.69696970 F F T
    0.33333333    0.33333333    0.69696970 F F T
    0.66666667    0.33333333    0.69696970 F F T
    0.00000000    0.66666667    0.69696970 F F T
    0.33333333    0.66666667    0.69696970 F F T
    0.66666667    0.66666667    0.69696970 F F T
    0.11111111    0.11111111    0.72727273 F F T
    0.44444444    0.11111111    0.72727273 F F T
    0.77777778    0.11111111    0.72727273 F F T
    0.11111111    0.44444444    0.72727273 F F T
    0.44444444    0.44444444    0.72727273 F F T
    0.77777778    0.44444444    0.72727273 F F T
    0.11111111    0.77777778    0.72727273 F F T
    0.44444444    0.77777778    0.72727273 F F T
    0.77777778    0.77777778    0.72727273 F F T
    0.22222222    0.22222222    0.75757576 F F T
    0.55555556    0.22222222    0.75757576 F F T
    0.88888889    0.22222222    0.75757576 F F T
    0.22222222    0.55555556    0.75757576 F F T
    0.55555556    0.55555556    0.75757576 F F T
    0.88888889    0.55555556    0.75757576 F F T
    0.22222222    0.88888889    0.75757576 F F T
    0.55555556    0.88888889    0.75757576 F F T
    0.88888889    0.88888889    0.75757576 F F T
    0.00000000    0.00000000    0.78787879 F F T
    0.33333333    0.00000000    0.78787879 F F T
    0.66666667    0.00000000    0.78787879 F F T
    0.00000000    0.33333333    0.78787879 F F T
    0.33333333    0.33333333    0.78787879 F F T
    0.66666667    0.33333333    0.78787879 F F T
    0.00000000    0.66666667    0.78787879 F F T
    0.33333333    0.66666667    0.78787879 F F T
    0.66666667    0.66666667    0.78787879 F F T
    0.11111111    0.11111111    0.81818182 F F T
    0.44444444    0.11111111    0.81818182 F F T
    0.77777778    0.11111111    0.81818182 F F T
    0.11111111    0.44444444    0.81818182 F F T
    0.44444444    0.44444444    0.81818182 F F T
    0.77777778    0.44444444    0.81818182 F F T
    0.11111111    0.77777778    0.81818182 F F T
    0.44444444    0.77777778    0.81818182 F F T
    0.77777778    0.77777778    0.81818182 F F T
    0.22222222    0.22222222    0.84848485 F F T
    0.55555556    0.22222222    0.84848485 F F T
    0.88888889    0.22222222    0.84848485 F F T
    0.22222222    0.55555556    0.84848485 F F T
    0.55555556    0.55555556    0.84848485 F F T
    0.88888889    0.55555556    0.84848485 F F T
    0.22222222    0.88888889    0.84848485 F F T
    0.55555556    0.88888889    0.84848485 F F T
    0.88888889    0.88888889    0.84848485 F F T
    0.00000000    0.00000000    0.87878788 F F T
    0.33333333    0.00000000    0.87878788 F F T
    0.66666667    0.00000000    0.87878788 F F T
    0.00000000    0.33333333    0.87878788 F F T
    0.33333333    0.33333333    0.87878788 F F T
    0.66666667    0.33333333    0.87878788 F F T
    0.00000000    0.66666667    0.87878788 F F T
    0.33333333    0.66666667    0.87878788 F F T
    0.66666667    0.66666667    0.87878788 F F T
    0.11111111    0.11111111    0.90909091 F F T
    0.44444444    0.11111111    0.90909091 F F T
    0.77777778    0.11111111    0.90909091 F F T
    0.11111111    0.44444444    0.90909091 F F T
    0.44444444    0.44444444    0.90909091 F F T
    0.77777778    0.44444444    0.90909091 F F T
    0.11111111    0.77777778    0.90909091 F F T
    0.44444444    0.77777778    0.90909091 F F T
    0.77777778    0.77777778    0.90909091 F F T
    0.22222222    0.22222222    0.93939394 F F T
    0.55555556    0.22222222    0.93939394 F F T
    0.88888889    0.22222222    0.93939394 F F T
    0.22222222    0.55555556    0.93939394 F F T
    0.55555556    0.55555556    0.93939394 F F T
    0.88888889    0.55555556    0.93939394 F F T
    0.22222222    0.88888889    0.93939394 F F T
    0.55555556    0.88888889    0.93939394 F F T
    0.88888889    0.88888889    0.93939394 F F T
    0.00000000    0.00000000    0.96969697 F F T
    0.33333333    0.00000000    0.96969697 F F T
    0.66666667    0.00000000    0.96969697 F F T
    0.00000000    0.33333333    0.96969697 F F T
    0.33333333    0.33333333    0.96969697 F F T
    0.66666667    0.33333333    0.96969697 F F T
    0.00000000    0.66666667    0.96969697 F F T
    0.33333333    0.66666667    0.96969697 F F T
    0.66666667    0.66666667    0.96969697 F F T
