Cu
 1.0000000000000000
     7.6685730419681093    0.0000000000000000    0.0000000000000000
     3.8342865209840546    6.6411790651208911    0.0000000000000000
     0.0000000000000000    0.0000000000000000  204.5378798658087476
 Cu 
 882
Direct
  0.2779473504404541  0.1687494007274665  0.0000000000000000
  0.2778648108500636  0.6134486733965875  0.6530612244897959
  0.9445314775167305  0.2801153400632539  0.6530612244897959
  0.6111981441833971  0.2801153400632539  0.6530612244897959
  0.2778648108500636  0.2801153400632539  0.6530612244897959
  0.1667536997389527  0.8356708956188096  0.6632653061224490
  0.8334203664056192  0.8356708956188096  0.6632653061224490
  0.5000870330722857  0.8356708956188096  0.6632653061224490
  0.1667536997389526  0.5023375622854762  0.6632653061224490
  0.8334203664056192  0.5023375622854762  0.6632653061224490
  0.5000870330722859  0.5023375622854762  0.6632653061224490
  0.1667536997389525  0.1690042289521430  0.6632653061224490
  0.8334203664056192  0.1690042289521430  0.6632653061224490
  0.5000870330722859  0.1690042289521430  0.6632653061224490
  0.0556425886278415  0.0578931178410318  0.6734693877551020
  0.7223092552945082  0.0578931178410318  0.6734693877551020
  0.3889759219611749  0.0578931178410318  0.6734693877551020
  0.0556425886278416  0.7245597845076986  0.6734693877551020
  0.7223092552945083  0.7245597845076986  0.6734693877551020
  0.3889759219611746  0.7245597845076986  0.6734693877551020
  0.0556425886278416  0.3912264511743651  0.6734693877551020
  0.7223092552945082  0.3912264511743651  0.6734693877551020
  0.3889759219611748  0.3912264511743651  0.6734693877551020
  0.9445314775167304  0.9467820067299207  0.6836734693877551
  0.6111981441833970  0.6134486733965875  0.6530612244897959
  0.9445314775167305  0.6134486733965875  0.6530612244897959
  0.2778648108500636  0.9467820067299207  0.6530612244897959
  0.6111981441833972  0.9467820067299207  0.6530612244897959
  0.6111981441833970  0.6134486733965875  0.6224489795918368
  0.2778648108500636  0.6134486733965875  0.6224489795918368
  0.9445314775167305  0.2801153400632539  0.6224489795918368
  0.6111981441833971  0.2801153400632539  0.6224489795918368
  0.2778648108500636  0.2801153400632539  0.6224489795918368
  0.1667536997389527  0.8356708956188096  0.6326530612244898
  0.8334203664056192  0.8356708956188096  0.6326530612244898
  0.5000870330722857  0.8356708956188096  0.6326530612244898
  0.1667536997389526  0.5023375622854762  0.6326530612244898
  0.8334203664056192  0.5023375622854762  0.6326530612244898
  0.5000870330722859  0.5023375622854762  0.6326530612244898
  0.6111981441833972  0.9467820067299207  0.6836734693877551
  0.1667536997389525  0.1690042289521430  0.6326530612244898
  0.5000870330722859  0.1690042289521430  0.6326530612244898
  0.0556425886278415  0.0578931178410318  0.6428571428571428
  0.7223092552945082  0.0578931178410318  0.6428571428571428
  0.3889759219611749  0.0578931178410318  0.6428571428571428
  0.0556425886278416  0.7245597845076986  0.6428571428571428
  0.7223092552945083  0.7245597845076986  0.6428571428571428
  0.3889759219611746  0.7245597845076986  0.6428571428571428
  0.0556425886278416  0.3912264511743651  0.6428571428571428
  0.7223092552945082  0.3912264511743651  0.6428571428571428
  0.3889759219611748  0.3912264511743651  0.6428571428571428
  0.9445314775167304  0.9467820067299207  0.6530612244897959
  0.8334203664056192  0.1690042289521430  0.6326530612244898
  0.9445314775167305  0.6134486733965875  0.6224489795918368
  0.2778648108500636  0.9467820067299207  0.6836734693877551
  0.6111981441833970  0.6134486733965875  0.6836734693877551
  0.9445314775167305  0.2801153400632539  0.7142857142857142
  0.6111981441833971  0.2801153400632539  0.7142857142857142
  0.2778648108500636  0.2801153400632539  0.7142857142857142
  0.1667536997389527  0.8356708956188096  0.7244897959183674
  0.8334203664056192  0.8356708956188096  0.7244897959183674
  0.5000870330722857  0.8356708956188096  0.7244897959183674
  0.1667536997389526  0.5023375622854762  0.7244897959183674
  0.8334203664056192  0.5023375622854762  0.7244897959183674
  0.5000870330722859  0.5023375622854762  0.7244897959183674
  0.1667536997389525  0.1690042289521430  0.7244897959183674
  0.8334203664056192  0.1690042289521430  0.7244897959183674
  0.5000870330722859  0.1690042289521430  0.7244897959183674
  0.0556425886278415  0.0578931178410318  0.7346938775510204
  0.7223092552945082  0.0578931178410318  0.7346938775510204
  0.3889759219611749  0.0578931178410318  0.7346938775510204
  0.0556425886278416  0.7245597845076986  0.7346938775510204
  0.7223092552945083  0.7245597845076986  0.7346938775510204
  0.3889759219611746  0.7245597845076986  0.7346938775510204
  0.0556425886278416  0.3912264511743651  0.7346938775510204
  0.7223092552945082  0.3912264511743651  0.7346938775510204
  0.3889759219611748  0.3912264511743651  0.7346938775510204
  0.9445314775167304  0.9467820067299207  0.7448979591836735
  0.6111981441833972  0.9467820067299207  0.7448979591836735
  0.2778648108500636  0.6134486733965875  0.7142857142857142
  0.6111981441833970  0.6134486733965875  0.7142857142857142
  0.9445314775167305  0.6134486733965875  0.7142857142857142
  0.2778648108500636  0.9467820067299207  0.7142857142857142
  0.2778648108500636  0.6134486733965875  0.6836734693877551
  0.9445314775167305  0.2801153400632539  0.6836734693877551
  0.6111981441833971  0.2801153400632539  0.6836734693877551
  0.2778648108500636  0.2801153400632539  0.6836734693877551
  0.1667536997389527  0.8356708956188096  0.6938775510204082
  0.8334203664056192  0.8356708956188096  0.6938775510204082
  0.5000870330722857  0.8356708956188096  0.6938775510204082
  0.1667536997389526  0.5023375622854762  0.6938775510204082
  0.8334203664056192  0.5023375622854762  0.6938775510204082
  0.5000870330722859  0.5023375622854762  0.6938775510204082
  0.1667536997389525  0.1690042289521430  0.6938775510204082
  0.9445314775167305  0.6134486733965875  0.6836734693877551
  0.8334203664056192  0.1690042289521430  0.6938775510204082
  0.0556425886278415  0.0578931178410318  0.7040816326530612
  0.7223092552945082  0.0578931178410318  0.7040816326530612
  0.3889759219611749  0.0578931178410318  0.7040816326530612
  0.0556425886278416  0.7245597845076986  0.7040816326530612
  0.7223092552945083  0.7245597845076986  0.7040816326530612
  0.3889759219611746  0.7245597845076986  0.7040816326530612
  0.0556425886278416  0.3912264511743651  0.7040816326530612
  0.7223092552945082  0.3912264511743651  0.7040816326530612
  0.3889759219611748  0.3912264511743651  0.7040816326530612
  0.9445314775167304  0.9467820067299207  0.7142857142857142
  0.6111981441833972  0.9467820067299207  0.7142857142857142
  0.5000870330722859  0.1690042289521430  0.6938775510204082
  0.2778648108500636  0.9467820067299207  0.7448979591836735
  0.2778648108500636  0.9467820067299207  0.6224489795918368
  0.9445314775167304  0.9467820067299207  0.6224489795918368
  0.9445314775167305  0.6134486733965875  0.5306122448979591
  0.6111981441833970  0.6134486733965875  0.5306122448979591
  0.2778648108500636  0.6134486733965875  0.5306122448979591
  0.9445314775167305  0.2801153400632539  0.5306122448979591
  0.6111981441833971  0.2801153400632539  0.5306122448979591
  0.2778648108500636  0.2801153400632539  0.5306122448979591
  0.1667536997389527  0.8356708956188096  0.5408163265306123
  0.8334203664056192  0.8356708956188096  0.5408163265306123
  0.5000870330722857  0.8356708956188096  0.5408163265306123
  0.1667536997389526  0.5023375622854762  0.5408163265306123
  0.8334203664056192  0.5023375622854762  0.5408163265306123
  0.5000870330722859  0.5023375622854762  0.5408163265306123
  0.1667536997389525  0.1690042289521430  0.5408163265306123
  0.8334203664056192  0.1690042289521430  0.5408163265306123
  0.5000870330722859  0.1690042289521430  0.5408163265306123
  0.0556425886278415  0.0578931178410318  0.5510204081632653
  0.7223092552945082  0.0578931178410318  0.5510204081632653
  0.3889759219611749  0.0578931178410318  0.5510204081632653
  0.0556425886278416  0.7245597845076986  0.5510204081632653
  0.7223092552945083  0.7245597845076986  0.5510204081632653
  0.3889759219611746  0.7245597845076986  0.5510204081632653
  0.0556425886278416  0.3912264511743651  0.5510204081632653
  0.7223092552945082  0.3912264511743651  0.5510204081632653
  0.2778648108500636  0.9467820067299207  0.5306122448979591
  0.6111981441833972  0.9467820067299207  0.5306122448979591
  0.9445314775167304  0.9467820067299207  0.5306122448979591
  0.3889759219611748  0.3912264511743651  0.5204081632653061
  0.2778648108500636  0.9467820067299207  0.5000000000000000
  0.9445314775167305  0.6134486733965875  0.5000000000000000
  0.6111981441833970  0.6134486733965875  0.5000000000000000
  0.2778648108500636  0.6134486733965875  0.5000000000000000
  0.9445314775167305  0.2801153400632539  0.5000000000000000
  0.6111981441833971  0.2801153400632539  0.5000000000000000
  0.2778648108500636  0.2801153400632539  0.5000000000000000
  0.1667536997389527  0.8356708956188096  0.5102040816326531
  0.8334203664056192  0.8356708956188096  0.5102040816326531
  0.5000870330722857  0.8356708956188096  0.5102040816326531
  0.1667536997389526  0.5023375622854762  0.5102040816326531
  0.3889759219611748  0.3912264511743651  0.5510204081632653
  0.8334203664056192  0.5023375622854762  0.5102040816326531
  0.1667536997389525  0.1690042289521430  0.5102040816326531
  0.8334203664056192  0.1690042289521430  0.5102040816326531
  0.5000870330722859  0.1690042289521430  0.5102040816326531
  0.0556425886278415  0.0578931178410318  0.5204081632653061
  0.7223092552945082  0.0578931178410318  0.5204081632653061
  0.3889759219611749  0.0578931178410318  0.5204081632653061
  0.0556425886278416  0.7245597845076986  0.5204081632653061
  0.7223092552945083  0.7245597845076986  0.5204081632653061
  0.3889759219611746  0.7245597845076986  0.5204081632653061
  0.0556425886278416  0.3912264511743651  0.5204081632653061
  0.7223092552945082  0.3912264511743651  0.5204081632653061
  0.5000870330722859  0.5023375622854762  0.5102040816326531
  0.6111981441833972  0.9467820067299207  0.6224489795918368
  0.9445314775167304  0.9467820067299207  0.5612244897959184
  0.2778648108500636  0.9467820067299207  0.5612244897959184
  0.6111981441833970  0.6134486733965875  0.5918367346938775
  0.2778648108500636  0.6134486733965875  0.5918367346938775
  0.9445314775167305  0.2801153400632539  0.5918367346938775
  0.6111981441833971  0.2801153400632539  0.5918367346938775
  0.2778648108500636  0.2801153400632539  0.5918367346938775
  0.1667536997389527  0.8356708956188096  0.6020408163265306
  0.8334203664056192  0.8356708956188096  0.6020408163265306
  0.5000870330722857  0.8356708956188096  0.6020408163265306
  0.1667536997389526  0.5023375622854762  0.6020408163265306
  0.8334203664056192  0.5023375622854762  0.6020408163265306
  0.5000870330722859  0.5023375622854762  0.6020408163265306
  0.1667536997389525  0.1690042289521430  0.6020408163265306
  0.8334203664056192  0.1690042289521430  0.6020408163265306
  0.5000870330722859  0.1690042289521430  0.6020408163265306
  0.0556425886278415  0.0578931178410318  0.6122448979591837
  0.7223092552945082  0.0578931178410318  0.6122448979591837
  0.3889759219611749  0.0578931178410318  0.6122448979591837
  0.0556425886278416  0.7245597845076986  0.6122448979591837
  0.7223092552945083  0.7245597845076986  0.6122448979591837
  0.3889759219611746  0.7245597845076986  0.6122448979591837
  0.0556425886278416  0.3912264511743651  0.6122448979591837
  0.7223092552945082  0.3912264511743651  0.6122448979591837
  0.3889759219611748  0.3912264511743651  0.6122448979591837
  0.9445314775167305  0.6134486733965875  0.5918367346938775
  0.2778648108500636  0.9467820067299207  0.5918367346938775
  0.6111981441833972  0.9467820067299207  0.5918367346938775
  0.9445314775167304  0.9467820067299207  0.5918367346938775
  0.9445314775167305  0.6134486733965875  0.5612244897959184
  0.6111981441833970  0.6134486733965875  0.5612244897959184
  0.2778648108500636  0.6134486733965875  0.5612244897959184
  0.9445314775167305  0.2801153400632539  0.5612244897959184
  0.6111981441833971  0.2801153400632539  0.5612244897959184
  0.2778648108500636  0.2801153400632539  0.5612244897959184
  0.1667536997389527  0.8356708956188096  0.5714285714285714
  0.8334203664056192  0.8356708956188096  0.5714285714285714
  0.5000870330722857  0.8356708956188096  0.5714285714285714
  0.1667536997389526  0.5023375622854762  0.5714285714285714
  0.8334203664056192  0.5023375622854762  0.5714285714285714
  0.6111981441833972  0.9467820067299207  0.5612244897959184
  0.5000870330722859  0.5023375622854762  0.5714285714285714
  0.8334203664056192  0.1690042289521430  0.5714285714285714
  0.5000870330722859  0.1690042289521430  0.5714285714285714
  0.0556425886278415  0.0578931178410318  0.5816326530612245
  0.7223092552945082  0.0578931178410318  0.5816326530612245
  0.3889759219611749  0.0578931178410318  0.5816326530612245
  0.0556425886278416  0.7245597845076986  0.5816326530612245
  0.7223092552945083  0.7245597845076986  0.5816326530612245
  0.3889759219611746  0.7245597845076986  0.5816326530612245
  0.0556425886278416  0.3912264511743651  0.5816326530612245
  0.7223092552945082  0.3912264511743651  0.5816326530612245
  0.3889759219611748  0.3912264511743651  0.5816326530612245
  0.1667536997389525  0.1690042289521430  0.5714285714285714
  0.9445314775167305  0.6134486733965875  0.7448979591836735
  0.6111981441833970  0.6134486733965875  0.7448979591836735
  0.2778648108500636  0.6134486733965875  0.7448979591836735
  0.8334203664056192  0.8356708956188096  0.9081632653061223
  0.5000870330722857  0.8356708956188096  0.9081632653061223
  0.1667536997389526  0.5023375622854762  0.9081632653061223
  0.8334203664056192  0.5023375622854762  0.9081632653061223
  0.5000870330722859  0.5023375622854762  0.9081632653061223
  0.1667536997389525  0.1690042289521430  0.9081632653061223
  0.8334203664056192  0.1690042289521430  0.9081632653061223
  0.5000870330722859  0.1690042289521430  0.9081632653061223
  0.0556425886278415  0.0578931178410318  0.9183673469387755
  0.7223092552945082  0.0578931178410318  0.9183673469387755
  0.3889759219611749  0.0578931178410318  0.9183673469387755
  0.0556425886278416  0.7245597845076986  0.9183673469387755
  0.7223092552945083  0.7245597845076986  0.9183673469387755
  0.3889759219611746  0.7245597845076986  0.9183673469387755
  0.0556425886278416  0.3912264511743651  0.9183673469387755
  0.7223092552945082  0.3912264511743651  0.9183673469387755
  0.3889759219611748  0.3912264511743651  0.9183673469387755
  0.9445314775167304  0.9467820067299207  0.9285714285714286
  0.6111981441833972  0.9467820067299207  0.9285714285714286
  0.2778648108500636  0.9467820067299207  0.9285714285714286
  0.9445314775167305  0.6134486733965875  0.9285714285714286
  0.6111981441833970  0.6134486733965875  0.9285714285714286
  0.2778648108500636  0.6134486733965875  0.9285714285714286
  0.1667536997389527  0.8356708956188096  0.9081632653061223
  0.2778648108500636  0.2801153400632539  0.8979591836734695
  0.6111981441833971  0.2801153400632539  0.8979591836734695
  0.9445314775167305  0.2801153400632539  0.8979591836734695
  0.1667536997389527  0.8356708956188096  0.8775510204081632
  0.8334203664056192  0.8356708956188096  0.8775510204081632
  0.5000870330722857  0.8356708956188096  0.8775510204081632
  0.1667536997389526  0.5023375622854762  0.8775510204081632
  0.8334203664056192  0.5023375622854762  0.8775510204081632
  0.5000870330722859  0.5023375622854762  0.8775510204081632
  0.1667536997389525  0.1690042289521430  0.8775510204081632
  0.8334203664056192  0.1690042289521430  0.8775510204081632
  0.5000870330722859  0.1690042289521430  0.8775510204081632
  0.0556425886278415  0.0578931178410318  0.8877551020408163
  0.7223092552945082  0.0578931178410318  0.8877551020408163
  0.9445314775167305  0.2801153400632539  0.9285714285714286
  0.3889759219611749  0.0578931178410318  0.8877551020408163
  0.7223092552945083  0.7245597845076986  0.8877551020408163
  0.3889759219611746  0.7245597845076986  0.8877551020408163
  0.0556425886278416  0.3912264511743651  0.8877551020408163
  0.7223092552945082  0.3912264511743651  0.8877551020408163
  0.3889759219611748  0.3912264511743651  0.8877551020408163
  0.9445314775167304  0.9467820067299207  0.8979591836734695
  0.6111981441833972  0.9467820067299207  0.8979591836734695
  0.2778648108500636  0.9467820067299207  0.8979591836734695
  0.9445314775167305  0.6134486733965875  0.8979591836734695
  0.6111981441833970  0.6134486733965875  0.8979591836734695
  0.2778648108500636  0.6134486733965875  0.8979591836734695
  0.0556425886278416  0.7245597845076986  0.8877551020408163
  0.2778648108500636  0.2801153400632539  0.8673469387755102
  0.6111981441833971  0.2801153400632539  0.9285714285714286
  0.1667536997389527  0.8356708956188096  0.9387755102040817
  0.5000870330722857  0.8356708956188096  0.9693877551020409
  0.1667536997389526  0.5023375622854762  0.9693877551020409
  0.8334203664056192  0.5023375622854762  0.9693877551020409
  0.5000870330722859  0.5023375622854762  0.9693877551020409
  0.1667536997389525  0.1690042289521430  0.9693877551020409
  0.8334203664056192  0.1690042289521430  0.9693877551020409
  0.5000870330722859  0.1690042289521430  0.9693877551020409
  0.0556425886278415  0.0578931178410318  0.9795918367346939
  0.7223092552945082  0.0578931178410318  0.9795918367346939
  0.3889759219611749  0.0578931178410318  0.9795918367346939
  0.0556425886278416  0.7245597845076986  0.9795918367346939
  0.7223092552945083  0.7245597845076986  0.9795918367346939
  0.3889759219611746  0.7245597845076986  0.9795918367346939
  0.0556425886278416  0.3912264511743651  0.9795918367346939
  0.7223092552945082  0.3912264511743651  0.9795918367346939
  0.3889759219611748  0.3912264511743651  0.9795918367346939
  0.1648554564004381  0.1729438210574757  0.9897959183673469
  0.4981887897337713  0.1729438210574757  0.9897959183673469
  0.8315221230671046  0.1729438210574757  0.9897959183673469
  0.1648554564004380  0.5062771543908090  0.9897959183673469
  0.4981887897337713  0.5062771543908090  0.9897959183673469
  0.8315221230671046  0.5062771543908090  0.9897959183673469
  0.1648554564004380  0.8396104877241424  0.9897959183673469
  0.8334203664056192  0.8356708956188096  0.9693877551020409
  0.1667536997389527  0.8356708956188096  0.9693877551020409
  0.2778648108500636  0.2801153400632539  0.9591836734693877
  0.6111981441833971  0.2801153400632539  0.9591836734693877
  0.8334203664056192  0.8356708956188096  0.9387755102040817
  0.5000870330722857  0.8356708956188096  0.9387755102040817
  0.1667536997389526  0.5023375622854762  0.9387755102040817
  0.8334203664056192  0.5023375622854762  0.9387755102040817
  0.5000870330722859  0.5023375622854762  0.9387755102040817
  0.1667536997389525  0.1690042289521430  0.9387755102040817
  0.8334203664056192  0.1690042289521430  0.9387755102040817
  0.5000870330722859  0.1690042289521430  0.9387755102040817
  0.0556425886278415  0.0578931178410318  0.9489795918367346
  0.7223092552945082  0.0578931178410318  0.9489795918367346
  0.3889759219611749  0.0578931178410318  0.9489795918367346
  0.2778648108500636  0.2801153400632539  0.9285714285714286
  0.0556425886278416  0.7245597845076986  0.9489795918367346
  0.3889759219611746  0.7245597845076986  0.9489795918367346
  0.0556425886278416  0.3912264511743651  0.9489795918367346
  0.7223092552945082  0.3912264511743651  0.9489795918367346
  0.3889759219611748  0.3912264511743651  0.9489795918367346
  0.9445314775167304  0.9467820067299207  0.9591836734693877
  0.6111981441833972  0.9467820067299207  0.9591836734693877
  0.2778648108500636  0.9467820067299207  0.9591836734693877
  0.9445314775167305  0.6134486733965875  0.9591836734693877
  0.6111981441833970  0.6134486733965875  0.9591836734693877
  0.2778648108500636  0.6134486733965875  0.9591836734693877
  0.9445314775167305  0.2801153400632539  0.9591836734693877
  0.7223092552945083  0.7245597845076986  0.9489795918367346
  0.6111981441833971  0.2801153400632539  0.8673469387755102
  0.9445314775167305  0.2801153400632539  0.8673469387755102
  0.2778648108500636  0.6134486733965875  0.8673469387755102
  0.6111981441833971  0.2801153400632539  0.7755102040816326
  0.2778648108500636  0.2801153400632539  0.7755102040816326
  0.1667536997389527  0.8356708956188096  0.7857142857142858
  0.8334203664056192  0.8356708956188096  0.7857142857142858
  0.5000870330722857  0.8356708956188096  0.7857142857142858
  0.1667536997389526  0.5023375622854762  0.7857142857142858
  0.8334203664056192  0.5023375622854762  0.7857142857142858
  0.5000870330722859  0.5023375622854762  0.7857142857142858
  0.1667536997389525  0.1690042289521430  0.7857142857142858
  0.8334203664056192  0.1690042289521430  0.7857142857142858
  0.5000870330722859  0.1690042289521430  0.7857142857142858
  0.0556425886278415  0.0578931178410318  0.7959183673469388
  0.7223092552945082  0.0578931178410318  0.7959183673469388
  0.3889759219611749  0.0578931178410318  0.7959183673469388
  0.0556425886278416  0.7245597845076986  0.7959183673469388
  0.7223092552945083  0.7245597845076986  0.7959183673469388
  0.3889759219611746  0.7245597845076986  0.7959183673469388
  0.0556425886278416  0.3912264511743651  0.7959183673469388
  0.7223092552945082  0.3912264511743651  0.7959183673469388
  0.3889759219611748  0.3912264511743651  0.7959183673469388
  0.9445314775167304  0.9467820067299207  0.8061224489795918
  0.6111981441833972  0.9467820067299207  0.8061224489795918
  0.2778648108500636  0.9467820067299207  0.8061224489795918
  0.9445314775167305  0.2801153400632539  0.7755102040816326
  0.2778648108500636  0.6134486733965875  0.7755102040816326
  0.6111981441833970  0.6134486733965875  0.7755102040816326
  0.9445314775167305  0.6134486733965875  0.7755102040816326
  0.9445314775167305  0.2801153400632539  0.7448979591836735
  0.6111981441833971  0.2801153400632539  0.7448979591836735
  0.2778648108500636  0.2801153400632539  0.7448979591836735
  0.1667536997389527  0.8356708956188096  0.7551020408163265
  0.8334203664056192  0.8356708956188096  0.7551020408163265
  0.5000870330722857  0.8356708956188096  0.7551020408163265
  0.1667536997389526  0.5023375622854762  0.7551020408163265
  0.8334203664056192  0.5023375622854762  0.7551020408163265
  0.5000870330722859  0.5023375622854762  0.7551020408163265
  0.1667536997389525  0.1690042289521430  0.7551020408163265
  0.8334203664056192  0.1690042289521430  0.7551020408163265
  0.9445314775167305  0.6134486733965875  0.8061224489795918
  0.5000870330722859  0.1690042289521430  0.7551020408163265
  0.7223092552945082  0.0578931178410318  0.7653061224489796
  0.3889759219611749  0.0578931178410318  0.7653061224489796
  0.0556425886278416  0.7245597845076986  0.7653061224489796
  0.7223092552945083  0.7245597845076986  0.7653061224489796
  0.3889759219611746  0.7245597845076986  0.7653061224489796
  0.0556425886278416  0.3912264511743651  0.7653061224489796
  0.7223092552945082  0.3912264511743651  0.7653061224489796
  0.3889759219611748  0.3912264511743651  0.7653061224489796
  0.9445314775167304  0.9467820067299207  0.7755102040816326
  0.6111981441833972  0.9467820067299207  0.7755102040816326
  0.2778648108500636  0.9467820067299207  0.7755102040816326
  0.0556425886278415  0.0578931178410318  0.7653061224489796
  0.6111981441833970  0.6134486733965875  0.8061224489795918
  0.2778648108500636  0.6134486733965875  0.8061224489795918
  0.9445314775167305  0.2801153400632539  0.8061224489795918
  0.2778648108500636  0.2801153400632539  0.8367346938775510
  0.1667536997389527  0.8356708956188096  0.8469387755102041
  0.8334203664056192  0.8356708956188096  0.8469387755102041
  0.5000870330722857  0.8356708956188096  0.8469387755102041
  0.1667536997389526  0.5023375622854762  0.8469387755102041
  0.8334203664056192  0.5023375622854762  0.8469387755102041
  0.5000870330722859  0.5023375622854762  0.8469387755102041
  0.1667536997389525  0.1690042289521430  0.8469387755102041
  0.8334203664056192  0.1690042289521430  0.8469387755102041
  0.5000870330722859  0.1690042289521430  0.8469387755102041
  0.0556425886278415  0.0578931178410318  0.8571428571428572
  0.6111981441833971  0.2801153400632539  0.8367346938775510
  0.7223092552945082  0.0578931178410318  0.8571428571428572
  0.0556425886278416  0.7245597845076986  0.8571428571428572
  0.7223092552945083  0.7245597845076986  0.8571428571428572
  0.3889759219611746  0.7245597845076986  0.8571428571428572
  0.0556425886278416  0.3912264511743651  0.8571428571428572
  0.7223092552945082  0.3912264511743651  0.8571428571428572
  0.3889759219611748  0.3912264511743651  0.8571428571428572
  0.9445314775167304  0.9467820067299207  0.8673469387755102
  0.6111981441833972  0.9467820067299207  0.8673469387755102
  0.2778648108500636  0.9467820067299207  0.8673469387755102
  0.9445314775167305  0.6134486733965875  0.8673469387755102
  0.6111981441833970  0.6134486733965875  0.8673469387755102
  0.3889759219611749  0.0578931178410318  0.8571428571428572
  0.6111981441833972  0.9467820067299207  0.5000000000000000
  0.9445314775167305  0.2801153400632539  0.8367346938775510
  0.6111981441833970  0.6134486733965875  0.8367346938775510
  0.6111981441833971  0.2801153400632539  0.8061224489795918
  0.2778648108500636  0.2801153400632539  0.8061224489795918
  0.1667536997389527  0.8356708956188096  0.8163265306122449
  0.8334203664056192  0.8356708956188096  0.8163265306122449
  0.5000870330722857  0.8356708956188096  0.8163265306122449
  0.1667536997389526  0.5023375622854762  0.8163265306122449
  0.8334203664056192  0.5023375622854762  0.8163265306122449
  0.5000870330722859  0.5023375622854762  0.8163265306122449
  0.1667536997389525  0.1690042289521430  0.8163265306122449
  0.8334203664056192  0.1690042289521430  0.8163265306122449
  0.5000870330722859  0.1690042289521430  0.8163265306122449
  0.2778648108500636  0.6134486733965875  0.8367346938775510
  0.0556425886278415  0.0578931178410318  0.8265306122448979
  0.3889759219611749  0.0578931178410318  0.8265306122448979
  0.0556425886278416  0.7245597845076986  0.8265306122448979
  0.7223092552945083  0.7245597845076986  0.8265306122448979
  0.3889759219611746  0.7245597845076986  0.8265306122448979
  0.0556425886278416  0.3912264511743651  0.8265306122448979
  0.7223092552945082  0.3912264511743651  0.8265306122448979
  0.3889759219611748  0.3912264511743651  0.8265306122448979
  0.9445314775167304  0.9467820067299207  0.8367346938775510
  0.6111981441833972  0.9467820067299207  0.8367346938775510
  0.2778648108500636  0.9467820067299207  0.8367346938775510
  0.9445314775167305  0.6134486733965875  0.8367346938775510
  0.7223092552945082  0.0578931178410318  0.8265306122448979
  0.9445314775167304  0.9467820067299207  0.5000000000000000
  0.4995198225749634  0.4960033960633339  0.4897959183673469
  0.8328531559082971  0.4960033960633339  0.4897959183673469
  0.9446140171071207  0.5020827340607998  0.1530612244897959
  0.2779473504404541  0.8354160673941333  0.1530612244897959
  0.6112806837737873  0.8354160673941333  0.1530612244897959
  0.9446140171071207  0.8354160673941333  0.1530612244897959
  0.0557251282182319  0.2798605118385776  0.1632653061224490
  0.3890584615515651  0.2798605118385776  0.1632653061224490
  0.7223917948848986  0.2798605118385776  0.1632653061224490
  0.0557251282182320  0.6131938451719111  0.1632653061224490
  0.3890584615515652  0.6131938451719111  0.1632653061224490
  0.7223917948848984  0.6131938451719111  0.1632653061224490
  0.0557251282182320  0.9465271785052443  0.1632653061224490
  0.3890584615515651  0.9465271785052443  0.1632653061224490
  0.7223917948848986  0.9465271785052443  0.1632653061224490
  0.1668362393293430  0.0576382896163554  0.1734693877551020
  0.5001695726626763  0.0576382896163554  0.1734693877551020
  0.8335029059960096  0.0576382896163554  0.1734693877551020
  0.1668362393293430  0.3909716229496888  0.1734693877551020
  0.5001695726626763  0.3909716229496888  0.1734693877551020
  0.8335029059960096  0.3909716229496888  0.1734693877551020
  0.1668362393293431  0.7243049562830222  0.1734693877551020
  0.5001695726626763  0.7243049562830222  0.1734693877551020
  0.8335029059960096  0.7243049562830222  0.1734693877551020
  0.2779473504404541  0.1687494007274665  0.1836734693877551
  0.6112806837737873  0.5020827340607998  0.1530612244897959
  0.2779473504404540  0.5020827340607998  0.1530612244897959
  0.9446140171071206  0.1687494007274665  0.1530612244897959
  0.6112806837737873  0.1687494007274665  0.1530612244897959
  0.6112806837737873  0.5020827340607998  0.1224489795918367
  0.9446140171071207  0.5020827340607998  0.1224489795918367
  0.2779473504404541  0.8354160673941333  0.1224489795918367
  0.6112806837737873  0.8354160673941333  0.1224489795918367
  0.9446140171071207  0.8354160673941333  0.1224489795918367
  0.0557251282182319  0.2798605118385776  0.1326530612244898
  0.3890584615515651  0.2798605118385776  0.1326530612244898
  0.7223917948848986  0.2798605118385776  0.1326530612244898
  0.0557251282182320  0.6131938451719111  0.1326530612244898
  0.3890584615515652  0.6131938451719111  0.1326530612244898
  0.7223917948848984  0.6131938451719111  0.1326530612244898
  0.6112806837737873  0.1687494007274665  0.1836734693877551
  0.0557251282182320  0.9465271785052443  0.1326530612244898
  0.7223917948848986  0.9465271785052443  0.1326530612244898
  0.1668362393293430  0.0576382896163554  0.1428571428571428
  0.5001695726626763  0.0576382896163554  0.1428571428571428
  0.8335029059960096  0.0576382896163554  0.1428571428571428
  0.1668362393293430  0.3909716229496888  0.1428571428571428
  0.5001695726626763  0.3909716229496888  0.1428571428571428
  0.8335029059960096  0.3909716229496888  0.1428571428571428
  0.1668362393293431  0.7243049562830222  0.1428571428571428
  0.5001695726626763  0.7243049562830222  0.1428571428571428
  0.8335029059960096  0.7243049562830222  0.1428571428571428
  0.2779473504404541  0.1687494007274665  0.1530612244897959
  0.3890584615515651  0.9465271785052443  0.1326530612244898
  0.2779473504404540  0.5020827340607998  0.1224489795918367
  0.9446140171071206  0.1687494007274665  0.1836734693877551
  0.6112806837737873  0.5020827340607998  0.1836734693877551
  0.2779473504404541  0.8354160673941333  0.2142857142857143
  0.6112806837737873  0.8354160673941333  0.2142857142857143
  0.9446140171071207  0.8354160673941333  0.2142857142857143
  0.0557251282182319  0.2798605118385776  0.2244897959183674
  0.3890584615515651  0.2798605118385776  0.2244897959183674
  0.7223917948848986  0.2798605118385776  0.2244897959183674
  0.0557251282182320  0.6131938451719111  0.2244897959183674
  0.3890584615515652  0.6131938451719111  0.2244897959183674
  0.7223917948848984  0.6131938451719111  0.2244897959183674
  0.0557251282182320  0.9465271785052443  0.2244897959183674
  0.3890584615515651  0.9465271785052443  0.2244897959183674
  0.7223917948848986  0.9465271785052443  0.2244897959183674
  0.1668362393293430  0.0576382896163554  0.2346938775510204
  0.5001695726626763  0.0576382896163554  0.2346938775510204
  0.8335029059960096  0.0576382896163554  0.2346938775510204
  0.1668362393293430  0.3909716229496888  0.2346938775510204
  0.5001695726626763  0.3909716229496888  0.2346938775510204
  0.8335029059960096  0.3909716229496888  0.2346938775510204
  0.1668362393293431  0.7243049562830222  0.2346938775510204
  0.5001695726626763  0.7243049562830222  0.2346938775510204
  0.8335029059960096  0.7243049562830222  0.2346938775510204
  0.2779473504404541  0.1687494007274665  0.2448979591836735
  0.6112806837737873  0.1687494007274665  0.2448979591836735
  0.9446140171071207  0.5020827340607998  0.2142857142857143
  0.6112806837737873  0.5020827340607998  0.2142857142857143
  0.2779473504404540  0.5020827340607998  0.2142857142857143
  0.9446140171071206  0.1687494007274665  0.2142857142857143
  0.9446140171071207  0.5020827340607998  0.1836734693877551
  0.2779473504404541  0.8354160673941333  0.1836734693877551
  0.6112806837737873  0.8354160673941333  0.1836734693877551
  0.9446140171071207  0.8354160673941333  0.1836734693877551
  0.0557251282182319  0.2798605118385776  0.1938775510204082
  0.3890584615515651  0.2798605118385776  0.1938775510204082
  0.7223917948848986  0.2798605118385776  0.1938775510204082
  0.0557251282182320  0.6131938451719111  0.1938775510204082
  0.3890584615515652  0.6131938451719111  0.1938775510204082
  0.7223917948848984  0.6131938451719111  0.1938775510204082
  0.0557251282182320  0.9465271785052443  0.1938775510204082
  0.2779473504404540  0.5020827340607998  0.1836734693877551
  0.3890584615515651  0.9465271785052443  0.1938775510204082
  0.1668362393293430  0.0576382896163554  0.2040816326530612
  0.5001695726626763  0.0576382896163554  0.2040816326530612
  0.8335029059960096  0.0576382896163554  0.2040816326530612
  0.1668362393293430  0.3909716229496888  0.2040816326530612
  0.5001695726626763  0.3909716229496888  0.2040816326530612
  0.8335029059960096  0.3909716229496888  0.2040816326530612
  0.1668362393293431  0.7243049562830222  0.2040816326530612
  0.5001695726626763  0.7243049562830222  0.2040816326530612
  0.8335029059960096  0.7243049562830222  0.2040816326530612
  0.2779473504404541  0.1687494007274665  0.2142857142857143
  0.6112806837737873  0.1687494007274665  0.2142857142857143
  0.7223917948848986  0.9465271785052443  0.1938775510204082
  0.9446140171071206  0.1687494007274665  0.1224489795918367
  0.6112806837737873  0.1687494007274665  0.1224489795918367
  0.2779473504404541  0.1687494007274665  0.1224489795918367
  0.9446140171071206  0.1687494007274665  0.0306122448979592
  0.2779473504404540  0.5020827340607998  0.0306122448979592
  0.6112806837737873  0.5020827340607998  0.0306122448979592
  0.9446140171071207  0.5020827340607998  0.0306122448979592
  0.2779473504404541  0.8354160673941333  0.0306122448979592
  0.6112806837737873  0.8354160673941333  0.0306122448979592
  0.9446140171071207  0.8354160673941333  0.0306122448979592
  0.0557251282182319  0.2798605118385776  0.0408163265306122
  0.3890584615515651  0.2798605118385776  0.0408163265306122
  0.7223917948848986  0.2798605118385776  0.0408163265306122
  0.0557251282182320  0.6131938451719111  0.0408163265306122
  0.3890584615515652  0.6131938451719111  0.0408163265306122
  0.7223917948848984  0.6131938451719111  0.0408163265306122
  0.0557251282182320  0.9465271785052443  0.0408163265306122
  0.3890584615515651  0.9465271785052443  0.0408163265306122
  0.7223917948848986  0.9465271785052443  0.0408163265306122
  0.1668362393293430  0.0576382896163554  0.0510204081632653
  0.5001695726626763  0.0576382896163554  0.0510204081632653
  0.8335029059960096  0.0576382896163554  0.0510204081632653
  0.1668362393293430  0.3909716229496888  0.0510204081632653
  0.5001695726626763  0.3909716229496888  0.0510204081632653
  0.8335029059960096  0.3909716229496888  0.0510204081632653
  0.1668362393293431  0.7243049562830222  0.0510204081632653
  0.6112806837737873  0.1687494007274665  0.0306122448979592
  0.2779473504404541  0.1687494007274665  0.0306122448979592
  0.8335029059960096  0.7243049562830222  0.0204081632653061
  0.5001695726626763  0.7243049562830222  0.0204081632653061
  0.6112806837737873  0.1687494007274665  0.0000000000000000
  0.9446140171071206  0.1687494007274665  0.0000000000000000
  0.2779473504404540  0.5020827340607998  0.0000000000000000
  0.6112806837737873  0.5020827340607998  0.0000000000000000
  0.9446140171071207  0.5020827340607998  0.0000000000000000
  0.2779473504404541  0.8354160673941333  0.0000000000000000
  0.6112806837737873  0.8354160673941333  0.0000000000000000
  0.9446140171071207  0.8354160673941333  0.0000000000000000
  0.0557251282182319  0.2798605118385776  0.0102040816326531
  0.3890584615515651  0.2798605118385776  0.0102040816326531
  0.7223917948848986  0.2798605118385776  0.0102040816326531
  0.5001695726626763  0.7243049562830222  0.0510204081632653
  0.0557251282182320  0.6131938451719111  0.0102040816326531
  0.7223917948848984  0.6131938451719111  0.0102040816326531
  0.0557251282182320  0.9465271785052443  0.0102040816326531
  0.3890584615515651  0.9465271785052443  0.0102040816326531
  0.7223917948848986  0.9465271785052443  0.0102040816326531
  0.1668362393293430  0.0576382896163554  0.0204081632653061
  0.5001695726626763  0.0576382896163554  0.0204081632653061
  0.8335029059960096  0.0576382896163554  0.0204081632653061
  0.1668362393293430  0.3909716229496888  0.0204081632653061
  0.5001695726626763  0.3909716229496888  0.0204081632653061
  0.8335029059960096  0.3909716229496888  0.0204081632653061
  0.1668362393293431  0.7243049562830222  0.0204081632653061
  0.3890584615515652  0.6131938451719111  0.0102040816326531
  0.8335029059960096  0.7243049562830222  0.0510204081632653
  0.2779473504404541  0.1687494007274665  0.0612244897959184
  0.6112806837737873  0.1687494007274665  0.0612244897959184
  0.2779473504404540  0.5020827340607998  0.0918367346938776
  0.6112806837737873  0.5020827340607998  0.0918367346938776
  0.9446140171071207  0.5020827340607998  0.0918367346938776
  0.2779473504404541  0.8354160673941333  0.0918367346938776
  0.6112806837737873  0.8354160673941333  0.0918367346938776
  0.9446140171071207  0.8354160673941333  0.0918367346938776
  0.0557251282182319  0.2798605118385776  0.1020408163265306
  0.3890584615515651  0.2798605118385776  0.1020408163265306
  0.7223917948848986  0.2798605118385776  0.1020408163265306
  0.0557251282182320  0.6131938451719111  0.1020408163265306
  0.3890584615515652  0.6131938451719111  0.1020408163265306
  0.9446140171071206  0.1687494007274665  0.0918367346938776
  0.7223917948848984  0.6131938451719111  0.1020408163265306
  0.3890584615515651  0.9465271785052443  0.1020408163265306
  0.7223917948848986  0.9465271785052443  0.1020408163265306
  0.1668362393293430  0.0576382896163554  0.1122448979591837
  0.5001695726626763  0.0576382896163554  0.1122448979591837
  0.8335029059960096  0.0576382896163554  0.1122448979591837
  0.1668362393293430  0.3909716229496888  0.1122448979591837
  0.5001695726626763  0.3909716229496888  0.1122448979591837
  0.8335029059960096  0.3909716229496888  0.1122448979591837
  0.1668362393293431  0.7243049562830222  0.1122448979591837
  0.5001695726626763  0.7243049562830222  0.1122448979591837
  0.8335029059960096  0.7243049562830222  0.1122448979591837
  0.0557251282182320  0.9465271785052443  0.1020408163265306
  0.9446140171071206  0.1687494007274665  0.2448979591836735
  0.6112806837737873  0.1687494007274665  0.0918367346938776
  0.8335029059960096  0.7243049562830222  0.0816326530612245
  0.9446140171071206  0.1687494007274665  0.0612244897959184
  0.2779473504404540  0.5020827340607998  0.0612244897959184
  0.6112806837737873  0.5020827340607998  0.0612244897959184
  0.9446140171071207  0.5020827340607998  0.0612244897959184
  0.2779473504404541  0.8354160673941333  0.0612244897959184
  0.6112806837737873  0.8354160673941333  0.0612244897959184
  0.9446140171071207  0.8354160673941333  0.0612244897959184
  0.0557251282182319  0.2798605118385776  0.0714285714285714
  0.3890584615515651  0.2798605118385776  0.0714285714285714
  0.7223917948848986  0.2798605118385776  0.0714285714285714
  0.0557251282182320  0.6131938451719111  0.0714285714285714
  0.2779473504404541  0.1687494007274665  0.0918367346938776
  0.3890584615515652  0.6131938451719111  0.0714285714285714
  0.0557251282182320  0.9465271785052443  0.0714285714285714
  0.3890584615515651  0.9465271785052443  0.0714285714285714
  0.7223917948848986  0.9465271785052443  0.0714285714285714
  0.1668362393293430  0.0576382896163554  0.0816326530612245
  0.5001695726626763  0.0576382896163554  0.0816326530612245
  0.8335029059960096  0.0576382896163554  0.0816326530612245
  0.1668362393293430  0.3909716229496888  0.0816326530612245
  0.5001695726626763  0.3909716229496888  0.0816326530612245
  0.8335029059960096  0.3909716229496888  0.0816326530612245
  0.1668362393293431  0.7243049562830222  0.0816326530612245
  0.5001695726626763  0.7243049562830222  0.0816326530612245
  0.7223917948848984  0.6131938451719111  0.0714285714285714
  0.4981887897337713  0.8396104877241424  0.9897959183673469
  0.2779473504404540  0.5020827340607998  0.2448979591836735
  0.9446140171071207  0.5020827340607998  0.2448979591836735
  0.3890584615515651  0.2798605118385776  0.4081632653061225
  0.7223917948848986  0.2798605118385776  0.4081632653061225
  0.0557251282182320  0.6131938451719111  0.4081632653061225
  0.3890584615515652  0.6131938451719111  0.4081632653061225
  0.7223917948848984  0.6131938451719111  0.4081632653061225
  0.0557251282182320  0.9465271785052443  0.4081632653061225
  0.3890584615515651  0.9465271785052443  0.4081632653061225
  0.7223917948848986  0.9465271785052443  0.4081632653061225
  0.1668362393293430  0.0576382896163554  0.4183673469387755
  0.5001695726626763  0.0576382896163554  0.4183673469387755
  0.8335029059960096  0.0576382896163554  0.4183673469387755
  0.1668362393293430  0.3909716229496888  0.4183673469387755
  0.5001695726626763  0.3909716229496888  0.4183673469387755
  0.8335029059960096  0.3909716229496888  0.4183673469387755
  0.1668362393293431  0.7243049562830222  0.4183673469387755
  0.5001695726626763  0.7243049562830222  0.4183673469387755
  0.8335029059960096  0.7243049562830222  0.4183673469387755
  0.2779473504404541  0.1687494007274665  0.4285714285714286
  0.6112806837737873  0.1687494007274665  0.4285714285714286
  0.9446140171071206  0.1687494007274665  0.4285714285714286
  0.2779473504404540  0.5020827340607998  0.4285714285714286
  0.6112806837737873  0.5020827340607998  0.4285714285714286
  0.9446140171071207  0.5020827340607998  0.4285714285714286
  0.0557251282182319  0.2798605118385776  0.4081632653061225
  0.9446140171071207  0.8354160673941333  0.3979591836734694
  0.6112806837737873  0.8354160673941333  0.3979591836734694
  0.2779473504404541  0.8354160673941333  0.3979591836734694
  0.0557251282182319  0.2798605118385776  0.3775510204081632
  0.3890584615515651  0.2798605118385776  0.3775510204081632
  0.7223917948848986  0.2798605118385776  0.3775510204081632
  0.0557251282182320  0.6131938451719111  0.3775510204081632
  0.3890584615515652  0.6131938451719111  0.3775510204081632
  0.7223917948848984  0.6131938451719111  0.3775510204081632
  0.0557251282182320  0.9465271785052443  0.3775510204081632
  0.3890584615515651  0.9465271785052443  0.3775510204081632
  0.7223917948848986  0.9465271785052443  0.3775510204081632
  0.1668362393293430  0.0576382896163554  0.3877551020408163
  0.5001695726626763  0.0576382896163554  0.3877551020408163
  0.2779473504404541  0.8354160673941333  0.4285714285714286
  0.8335029059960096  0.0576382896163554  0.3877551020408163
  0.5001695726626763  0.3909716229496888  0.3877551020408163
  0.8335029059960096  0.3909716229496888  0.3877551020408163
  0.1668362393293431  0.7243049562830222  0.3877551020408163
  0.5001695726626763  0.7243049562830222  0.3877551020408163
  0.8335029059960096  0.7243049562830222  0.3877551020408163
  0.2779473504404541  0.1687494007274665  0.3979591836734694
  0.6112806837737873  0.1687494007274665  0.3979591836734694
  0.9446140171071206  0.1687494007274665  0.3979591836734694
  0.2779473504404540  0.5020827340607998  0.3979591836734694
  0.6112806837737873  0.5020827340607998  0.3979591836734694
  0.9446140171071207  0.5020827340607998  0.3979591836734694
  0.1668362393293430  0.3909716229496888  0.3877551020408163
  0.9446140171071207  0.8354160673941333  0.3673469387755102
  0.6112806837737873  0.8354160673941333  0.4285714285714286
  0.0557251282182319  0.2798605118385776  0.4387755102040816
  0.7223917948848986  0.2798605118385776  0.4693877551020408
  0.0557251282182320  0.6131938451719111  0.4693877551020408
  0.3890584615515652  0.6131938451719111  0.4693877551020408
  0.7223917948848984  0.6131938451719111  0.4693877551020408
  0.0557251282182320  0.9465271785052443  0.4693877551020408
  0.3890584615515651  0.9465271785052443  0.4693877551020408
  0.7223917948848986  0.9465271785052443  0.4693877551020408
  0.1668362393293430  0.0576382896163554  0.4795918367346939
  0.5001695726626763  0.0576382896163554  0.4795918367346939
  0.8335029059960096  0.0576382896163554  0.4795918367346939
  0.1668362393293430  0.3909716229496888  0.4795918367346939
  0.5001695726626763  0.3909716229496888  0.4795918367346939
  0.8335029059960096  0.3909716229496888  0.4795918367346939
  0.1668362393293431  0.7243049562830222  0.4795918367346939
  0.5001695726626763  0.7243049562830222  0.4795918367346939
  0.8335029059960096  0.7243049562830222  0.4795918367346939
  0.1661864892416302  0.1626700627300005  0.4897959183673469
  0.8328531559082968  0.1626700627300005  0.4897959183673469
  0.4995198225749634  0.1626700627300005  0.4897959183673469
  0.1661864892416302  0.8293367293966672  0.4897959183673469
  0.8328531559082973  0.8293367293966672  0.4897959183673469
  0.4995198225749634  0.8293367293966672  0.4897959183673469
  0.1661864892416302  0.4960033960633339  0.4897959183673469
  0.3890584615515651  0.2798605118385776  0.4693877551020408
  0.0557251282182319  0.2798605118385776  0.4693877551020408
  0.9446140171071207  0.8354160673941333  0.4591836734693878
  0.6112806837737873  0.8354160673941333  0.4591836734693878
  0.3890584615515651  0.2798605118385776  0.4387755102040816
  0.7223917948848986  0.2798605118385776  0.4387755102040816
  0.0557251282182320  0.6131938451719111  0.4387755102040816
  0.3890584615515652  0.6131938451719111  0.4387755102040816
  0.7223917948848984  0.6131938451719111  0.4387755102040816
  0.0557251282182320  0.9465271785052443  0.4387755102040816
  0.3890584615515651  0.9465271785052443  0.4387755102040816
  0.7223917948848986  0.9465271785052443  0.4387755102040816
  0.1668362393293430  0.0576382896163554  0.4489795918367347
  0.5001695726626763  0.0576382896163554  0.4489795918367347
  0.8335029059960096  0.0576382896163554  0.4489795918367347
  0.9446140171071207  0.8354160673941333  0.4285714285714286
  0.1668362393293430  0.3909716229496888  0.4489795918367347
  0.8335029059960096  0.3909716229496888  0.4489795918367347
  0.1668362393293431  0.7243049562830222  0.4489795918367347
  0.5001695726626763  0.7243049562830222  0.4489795918367347
  0.8335029059960096  0.7243049562830222  0.4489795918367347
  0.2779473504404541  0.1687494007274665  0.4591836734693878
  0.6112806837737873  0.1687494007274665  0.4591836734693878
  0.9446140171071206  0.1687494007274665  0.4591836734693878
  0.2779473504404540  0.5020827340607998  0.4591836734693878
  0.6112806837737873  0.5020827340607998  0.4591836734693878
  0.9446140171071207  0.5020827340607998  0.4591836734693878
  0.2779473504404541  0.8354160673941333  0.4591836734693878
  0.5001695726626763  0.3909716229496888  0.4489795918367347
  0.6112806837737873  0.8354160673941333  0.3673469387755102
  0.2779473504404541  0.8354160673941333  0.3673469387755102
  0.9446140171071207  0.5020827340607998  0.3673469387755102
  0.6112806837737873  0.8354160673941333  0.2755102040816326
  0.9446140171071207  0.8354160673941333  0.2755102040816326
  0.0557251282182319  0.2798605118385776  0.2857142857142857
  0.3890584615515651  0.2798605118385776  0.2857142857142857
  0.7223917948848986  0.2798605118385776  0.2857142857142857
  0.0557251282182320  0.6131938451719111  0.2857142857142857
  0.3890584615515652  0.6131938451719111  0.2857142857142857
  0.7223917948848984  0.6131938451719111  0.2857142857142857
  0.0557251282182320  0.9465271785052443  0.2857142857142857
  0.3890584615515651  0.9465271785052443  0.2857142857142857
  0.7223917948848986  0.9465271785052443  0.2857142857142857
  0.1668362393293430  0.0576382896163554  0.2959183673469388
  0.5001695726626763  0.0576382896163554  0.2959183673469388
  0.8335029059960096  0.0576382896163554  0.2959183673469388
  0.1668362393293430  0.3909716229496888  0.2959183673469388
  0.5001695726626763  0.3909716229496888  0.2959183673469388
  0.8335029059960096  0.3909716229496888  0.2959183673469388
  0.1668362393293431  0.7243049562830222  0.2959183673469388
  0.5001695726626763  0.7243049562830222  0.2959183673469388
  0.8335029059960096  0.7243049562830222  0.2959183673469388
  0.2779473504404541  0.1687494007274665  0.3061224489795918
  0.6112806837737873  0.1687494007274665  0.3061224489795918
  0.9446140171071206  0.1687494007274665  0.3061224489795918
  0.2779473504404541  0.8354160673941333  0.2755102040816326
  0.9446140171071207  0.5020827340607998  0.2755102040816326
  0.6112806837737873  0.5020827340607998  0.2755102040816326
  0.2779473504404540  0.5020827340607998  0.2755102040816326
  0.2779473504404541  0.8354160673941333  0.2448979591836735
  0.6112806837737873  0.8354160673941333  0.2448979591836735
  0.9446140171071207  0.8354160673941333  0.2448979591836735
  0.0557251282182319  0.2798605118385776  0.2551020408163265
  0.3890584615515651  0.2798605118385776  0.2551020408163265
  0.7223917948848986  0.2798605118385776  0.2551020408163265
  0.0557251282182320  0.6131938451719111  0.2551020408163265
  0.3890584615515652  0.6131938451719111  0.2551020408163265
  0.7223917948848984  0.6131938451719111  0.2551020408163265
  0.0557251282182320  0.9465271785052443  0.2551020408163265
  0.3890584615515651  0.9465271785052443  0.2551020408163265
  0.2779473504404540  0.5020827340607998  0.3061224489795918
  0.7223917948848986  0.9465271785052443  0.2551020408163265
  0.5001695726626763  0.0576382896163554  0.2653061224489796
  0.8335029059960096  0.0576382896163554  0.2653061224489796
  0.1668362393293430  0.3909716229496888  0.2653061224489796
  0.5001695726626763  0.3909716229496888  0.2653061224489796
  0.8335029059960096  0.3909716229496888  0.2653061224489796
  0.1668362393293431  0.7243049562830222  0.2653061224489796
  0.5001695726626763  0.7243049562830222  0.2653061224489796
  0.8335029059960096  0.7243049562830222  0.2653061224489796
  0.2779473504404541  0.1687494007274665  0.2755102040816326
  0.6112806837737873  0.1687494007274665  0.2755102040816326
  0.9446140171071206  0.1687494007274665  0.2755102040816326
  0.1668362393293430  0.0576382896163554  0.2653061224489796
  0.6112806837737873  0.5020827340607998  0.3061224489795918
  0.9446140171071207  0.5020827340607998  0.3061224489795918
  0.2779473504404541  0.8354160673941333  0.3061224489795918
  0.9446140171071207  0.8354160673941333  0.3367346938775510
  0.0557251282182319  0.2798605118385776  0.3469387755102041
  0.3890584615515651  0.2798605118385776  0.3469387755102041
  0.7223917948848986  0.2798605118385776  0.3469387755102041
  0.0557251282182320  0.6131938451719111  0.3469387755102041
  0.3890584615515652  0.6131938451719111  0.3469387755102041
  0.7223917948848984  0.6131938451719111  0.3469387755102041
  0.0557251282182320  0.9465271785052443  0.3469387755102041
  0.3890584615515651  0.9465271785052443  0.3469387755102041
  0.7223917948848986  0.9465271785052443  0.3469387755102041
  0.1668362393293430  0.0576382896163554  0.3571428571428571
  0.6112806837737873  0.8354160673941333  0.3367346938775510
  0.5001695726626763  0.0576382896163554  0.3571428571428571
  0.1668362393293430  0.3909716229496888  0.3571428571428571
  0.5001695726626763  0.3909716229496888  0.3571428571428571
  0.8335029059960096  0.3909716229496888  0.3571428571428571
  0.1668362393293431  0.7243049562830222  0.3571428571428571
  0.5001695726626763  0.7243049562830222  0.3571428571428571
  0.8335029059960096  0.7243049562830222  0.3571428571428571
  0.2779473504404541  0.1687494007274665  0.3673469387755102
  0.6112806837737873  0.1687494007274665  0.3673469387755102
  0.9446140171071206  0.1687494007274665  0.3673469387755102
  0.2779473504404540  0.5020827340607998  0.3673469387755102
  0.6112806837737873  0.5020827340607998  0.3673469387755102
  0.8335029059960096  0.0576382896163554  0.3571428571428571
  0.6112806837737873  0.5020827340607998  0.2448979591836735
  0.2779473504404541  0.8354160673941333  0.3367346938775510
  0.6112806837737873  0.5020827340607998  0.3367346938775510
  0.6112806837737873  0.8354160673941333  0.3061224489795918
  0.9446140171071207  0.8354160673941333  0.3061224489795918
  0.0557251282182319  0.2798605118385776  0.3163265306122449
  0.3890584615515651  0.2798605118385776  0.3163265306122449
  0.7223917948848986  0.2798605118385776  0.3163265306122449
  0.0557251282182320  0.6131938451719111  0.3163265306122449
  0.3890584615515652  0.6131938451719111  0.3163265306122449
  0.7223917948848984  0.6131938451719111  0.3163265306122449
  0.0557251282182320  0.9465271785052443  0.3163265306122449
  0.3890584615515651  0.9465271785052443  0.3163265306122449
  0.7223917948848986  0.9465271785052443  0.3163265306122449
  0.9446140171071207  0.5020827340607998  0.3367346938775510
  0.1668362393293430  0.0576382896163554  0.3265306122448979
  0.8335029059960096  0.0576382896163554  0.3265306122448979
  0.1668362393293430  0.3909716229496888  0.3265306122448979
  0.5001695726626763  0.3909716229496888  0.3265306122448979
  0.8335029059960096  0.3909716229496888  0.3265306122448979
  0.1668362393293431  0.7243049562830222  0.3265306122448979
  0.5001695726626763  0.7243049562830222  0.3265306122448979
  0.8335029059960096  0.7243049562830222  0.3265306122448979
  0.2779473504404541  0.1687494007274665  0.3367346938775510
  0.6112806837737873  0.1687494007274665  0.3367346938775510
  0.9446140171071206  0.1687494007274665  0.3367346938775510
  0.2779473504404540  0.5020827340607998  0.3367346938775510
  0.5001695726626763  0.0576382896163554  0.3265306122448979
  0.8315221230671046  0.8396104877241424  0.9897959183673469
