Cu
 1.0000000000000000
     7.6685730419681093    0.0000000000000000    0.0000000000000000
     3.8342865209840546    6.6411790651208911    0.0000000000000000
     0.0000000000000000    0.0000000000000000   25.0454546774459672
 Cu 
 108
Direct
  0.0566196659660810  0.2765717989669159  0.0000000000000000
  0.9462560828014805  0.2762403223981481  0.6666666666666667
  0.2795894161348138  0.6095736557314818  0.6666666666666667
  0.6129227494681474  0.6095736557314818  0.6666666666666667
  0.9462560828014807  0.6095736557314818  0.6666666666666667
  0.2795894161348138  0.9429069890648152  0.6666666666666667
  0.6129227494681473  0.9429069890648152  0.6666666666666667
  0.9462560828014803  0.9429069890648152  0.6666666666666667
  0.3907005272459250  0.3873514335092594  0.5833333333333334
  0.7240338605792584  0.3873514335092594  0.5833333333333334
  0.0573671939125916  0.3873514335092594  0.5833333333333334
  0.3907005272459249  0.7206847668425930  0.5833333333333334
  0.7240338605792584  0.7206847668425930  0.5833333333333334
  0.0573671939125916  0.7206847668425930  0.5833333333333334
  0.3907005272459249  0.0540181001759261  0.5833333333333334
  0.7240338605792584  0.0540181001759261  0.5833333333333334
  0.0573671939125916  0.0540181001759261  0.5833333333333334
  0.5018116383570360  0.1651292112870372  0.5000000000000000
  0.8351449716903694  0.1651292112870372  0.5000000000000000
  0.1684783050237026  0.1651292112870372  0.5000000000000000
  0.5018116383570361  0.4984625446203704  0.5000000000000000
  0.8351449716903694  0.4984625446203704  0.5000000000000000
  0.1684783050237027  0.4984625446203704  0.5000000000000000
  0.5018116383570360  0.8317958779537039  0.5000000000000000
  0.6129227494681474  0.2762403223981481  0.6666666666666667
  0.8351449716903693  0.8317958779537039  0.5000000000000000
  0.2795894161348138  0.2762403223981481  0.6666666666666667
  0.8351449716903693  0.8317958779537039  0.7500000000000001
  0.1673470377031806  0.8334050577722684  0.9166666666666667
  0.8340137043698472  0.5000717244389351  0.9166666666666667
  0.5006803710365139  0.5000717244389351  0.9166666666666667
  0.1673470377031806  0.5000717244389351  0.9166666666666667
  0.8340137043698472  0.1667383911056018  0.9166666666666667
  0.5006803710365139  0.1667383911056018  0.9166666666666667
  0.1673470377031806  0.1667383911056018  0.9166666666666667
  0.3907005272459250  0.3873514335092594  0.8333333333333335
  0.7240338605792584  0.3873514335092594  0.8333333333333335
  0.0573671939125916  0.3873514335092594  0.8333333333333335
  0.3907005272459249  0.7206847668425930  0.8333333333333335
  0.7240338605792584  0.7206847668425930  0.8333333333333335
  0.0573671939125916  0.7206847668425930  0.8333333333333335
  0.3907005272459249  0.0540181001759261  0.8333333333333335
  0.7240338605792584  0.0540181001759261  0.8333333333333335
  0.0573671939125916  0.0540181001759261  0.8333333333333335
  0.5018116383570360  0.1651292112870372  0.7500000000000001
  0.8351449716903694  0.1651292112870372  0.7500000000000001
  0.1684783050237026  0.1651292112870372  0.7500000000000001
  0.5018116383570361  0.4984625446203704  0.7500000000000001
  0.8351449716903694  0.4984625446203704  0.7500000000000001
  0.1684783050237027  0.4984625446203704  0.7500000000000001
  0.5018116383570360  0.8317958779537039  0.7500000000000001
  0.1684783050237027  0.8317958779537039  0.7500000000000001
  0.1684783050237027  0.8317958779537039  0.5000000000000000
  0.4871531821245328  0.4879192772309857  0.4166666666666667
  0.8204865154578662  0.4879192772309857  0.4166666666666667
  0.9455085548549694  0.4987940211891381  0.1666666666666667
  0.6121752215216365  0.4987940211891381  0.1666666666666667
  0.2788418881883032  0.4987940211891381  0.1666666666666667
  0.9455085548549699  0.1654606878558048  0.1666666666666667
  0.6121752215216365  0.1654606878558048  0.1666666666666667
  0.2788418881883031  0.1654606878558048  0.1666666666666667
  0.8343974437438584  0.7210162434113603  0.0833333333333333
  0.5010641104105255  0.7210162434113603  0.0833333333333333
  0.1677307770771923  0.7210162434113603  0.0833333333333333
  0.8343974437438588  0.3876829100780270  0.0833333333333333
  0.5010641104105255  0.3876829100780270  0.0833333333333333
  0.1677307770771920  0.3876829100780270  0.0833333333333333
  0.8343974437438588  0.0543495767446937  0.0833333333333333
  0.5010641104105255  0.0543495767446937  0.0833333333333333
  0.1677307770771920  0.0543495767446937  0.0833333333333333
  0.7232863326327472  0.9432384656335825  0.0000000000000000
  0.3899529992994143  0.9432384656335825  0.0000000000000000
  0.0566196659660811  0.9432384656335825  0.0000000000000000
  0.7232863326327477  0.6099051323002492  0.0000000000000000
  0.3899529992994145  0.6099051323002492  0.0000000000000000
  0.0566196659660810  0.6099051323002492  0.0000000000000000
  0.7232863326327478  0.2765717989669159  0.0000000000000000
  0.3899529992994143  0.2765717989669159  0.0000000000000000
  0.2788418881883033  0.8321273545224716  0.1666666666666667
  0.6121752215216365  0.8321273545224716  0.1666666666666667
  0.9455085548549694  0.8321273545224716  0.1666666666666667
  0.0566196659660810  0.2765717989669159  0.2500000000000000
  0.1538198487911993  0.4879192772309857  0.4166666666666667
  0.4871531821245327  0.8212526105643192  0.4166666666666667
  0.8204865154578663  0.8212526105643192  0.4166666666666667
  0.1538198487911995  0.8212526105643192  0.4166666666666667
  0.4871531821245328  0.1545859438976523  0.4166666666666667
  0.8204865154578663  0.1545859438976523  0.4166666666666667
  0.1538198487911994  0.1545859438976523  0.4166666666666667
  0.8343974437438584  0.7210162434113603  0.3333333333333334
  0.5010641104105255  0.7210162434113603  0.3333333333333334
  0.1677307770771923  0.7210162434113603  0.3333333333333334
  0.8343974437438588  0.3876829100780270  0.3333333333333334
  0.5006803710365140  0.8334050577722684  0.9166666666666667
  0.5010641104105255  0.3876829100780270  0.3333333333333334
  0.8343974437438588  0.0543495767446937  0.3333333333333334
  0.5010641104105255  0.0543495767446937  0.3333333333333334
  0.1677307770771920  0.0543495767446937  0.3333333333333334
  0.7232863326327472  0.9432384656335825  0.2500000000000000
  0.3899529992994143  0.9432384656335825  0.2500000000000000
  0.0566196659660811  0.9432384656335825  0.2500000000000000
  0.7232863326327477  0.6099051323002492  0.2500000000000000
  0.3899529992994145  0.6099051323002492  0.2500000000000000
  0.0566196659660810  0.6099051323002492  0.2500000000000000
  0.7232863326327478  0.2765717989669159  0.2500000000000000
  0.3899529992994143  0.2765717989669159  0.2500000000000000
  0.1677307770771920  0.3876829100780270  0.3333333333333334
  0.8340137043698472  0.8334050577722684  0.9166666666666667
