Cu
 1.0000000000000000
     7.6685730419681093    0.0000000000000000    0.0000000000000000
     3.8342865209840546    6.6411790651208911    0.0000000000000000
     0.0000000000000000    0.0000000000000000   25.0450909090909093
 Cu 
 108
Direct
  0.1099026930646099  0.1083676013503399  0.0006506428692013
  0.1513944160288243  0.6683039993847570  0.6659038349899581
  0.8149492390478271  0.3352312410343967  0.6668491431232603
  0.4859931365396915  0.3308981756063920  0.6673757126178406
  0.1478589287129799  0.3360990408562347  0.6671767344539338
  0.8137851667024208  0.0020944712297784  0.6666102241116281
  0.4844478659563972  0.0006103225049900  0.6664864557059506
  0.1521726359539044 -0.0012923184414528  0.6658999532920125
  0.7073897102139816  0.8866513989294664  0.5837150507390844
  0.3723732238490498  0.8887793197326516  0.5839674641330179
  0.0375000199937788  0.8895897943629023  0.5830568957906421
  0.7057536188902457  0.5531014213618124  0.5830306842437979
  0.3729558114919371  0.5580173522121611  0.5831183294658192
  0.0361529734019158  0.5567285462639578  0.5826831673740478
  0.7050158186823325  0.2229123386671326  0.5825740589145572
  0.3738435085966702  0.2238820544835935  0.5830794839707488
  0.0406716615334520  0.2192484177556508  0.5831669950739422
  0.9283188433056138  0.7778202135236850  0.5007387875272664
  0.5918583640252724  0.7801856272681725  0.5002490771590568
  0.2628529858276954  0.7780130287816894  0.5004160255398071
  0.9263936602655550  0.4442889136241318  0.5007329122015868
  0.5953880420747657  0.4444475103135408  0.5005704814295712
  0.2573650526108353  0.4473741856143216  0.5004030484059820
  0.9260756942273719  0.1102905656817992  0.4992290494608297
  0.4864155683179819  0.6644242512331796  0.6663053939058136
  0.5980067534203214  0.1083895141600522  0.5002349281989993
  0.8190726390819185  0.6637849023408968  0.6661204524788734
  0.5931404550187385  0.1099309590976679  0.7506714309381964
  0.1482359659644490  0.6672665835387736  0.9172837741498291
  0.8155406020582097  0.3361238875601504  0.9165733544977535
  0.4843469395499427  0.3314473586656794  0.9167557008570152
  0.1484191641341571  0.3361600999882221  0.9166335719605931
  0.8183914634506660  0.0003889081941715  0.9173141337484321
  0.4843555251625887  0.0021034245760798  0.9174305607918491
  0.1478422359225987  0.0029986538709942  0.9173571416582397
  0.7052156817497027  0.8907262044046030  0.8339732494174783
  0.3721766934047838  0.8880535649662430  0.8329436499372808
  0.0380942203712224  0.8878187817024711  0.8340655499625969
  0.7065659108543265  0.5575513351273749  0.8333569285602995
  0.3731786519040764  0.5529750801207911  0.8331154020509630
  0.0376542052508111  0.5565222262524422  0.8333519781472002
  0.7061265931352998  0.2192271427773748  0.8329038945546168
  0.3698243828477963  0.2231832083986931  0.8336766134755934
  0.0371933162586205  0.2219686789728489  0.8335296658670237
  0.9275476256953613  0.7807715102205339  0.7502065012608770
  0.5953837932773295  0.7771909932164389  0.7502635154007330
  0.2610110361429799  0.7789870781438452  0.7493029807541494
  0.9307181646307933  0.4436499893402862  0.7494621820466042
  0.5945023701201699  0.4457229718371680  0.7501270830289470
  0.2597269035806776  0.4464737103873539  0.7497825786489168
  0.9277066740943247  0.1138003773836251  0.7506823993410728
  0.2599097965582201  0.1121531680378936  0.7504831166420997
  0.2608570023632021  0.1124113600070303  0.4993266868884880
  0.6698482701130710  0.6653461390509445  0.4167124858163538
  0.3316108004277299  0.6684005356867466  0.4172790598701991
  0.6652749181551827  0.3333546512907903  0.1669879466857717
  0.3325909213009889  0.3320894637613082  0.1668625412280165
  0.0019750167647003  0.3306214381863978  0.1673222418446239
  0.6697790596813077 -0.0026818408375420  0.1662243301594695
  0.3338849431880357 -0.0028515340483594  0.1668822339065048
  0.0002676825536081 -0.0016168077732285  0.1671315175427184
  0.5515251756295961  0.8918002904144691  0.0835400376903208
  0.2242493397642183  0.8884540542162723  0.0829890009673536
  0.8896405414657551  0.8882194869474221  0.0838966221642559
  0.5571383023569891  0.5572825885993135  0.0835233400566821
  0.2234280987013185  0.5542380199614868  0.0840864858198249
  0.8877151312608939  0.5528103133761272  0.0825549368355880
  0.5528961869491882  0.2233871203538754  0.0833511515188189
  0.2226215691152029  0.2200035784548606  0.0828548797932464
  0.8861220769221720  0.2233245959208939  0.0839985907936640
  0.7799120825915092  0.7754406552231672  0.0000744711296568
  0.4459855916712640  0.7758539402555533  0.0006510394608737
  0.1084367387230598  0.7796346700355885  0.0002376201269750
  0.7771591386154718  0.4446203754008606  0.0003004593674489
  0.4408533313445911  0.4471324636198486 -0.0005805529680603
  0.1110646303505745  0.4428275946687186 -0.0004834803162137
  0.7803130806760675  0.1092552329437042  0.0000109805781991
  0.4418859476895479  0.1127066290037015 -0.0000030368909736
  0.0011568706904924  0.6677552802800324  0.1659575391186535
  0.3300269506635834  0.6695173584736861  0.1666345824742961
  0.6690930481624334  0.6648451538262679  0.1669346896778870
  0.1121524062522505  0.1085552990091325  0.2503505981117494
  0.0000684900776803  0.6636791378639597  0.4162174994885915
  0.6681545201117035  0.3346751406738164  0.4172181210270888
  0.3336597207728739  0.3342517734607886  0.4165262202124144
  0.0022124404039410  0.3339204887297676  0.4172896595981659
  0.6665308666489305 -0.0010595289257215  0.4170136379283540
  0.3317935719044543  0.0029229162817904  0.4169763537271646
 -0.0003279354699959  0.0024636150822320  0.4164058060440232
  0.5565555970147301  0.8916412193498335  0.3328689254838231
  0.2206193581358719  0.8892725438572140  0.3332410956103289
  0.8872405491784404  0.8880891470681994  0.3325571566493734
  0.5546358120849755  0.5528315016314873  0.3337825476991117
  0.4846772814146264  0.6642914003530753  0.9164460112009533
  0.2215372990425396  0.5548537600298453  0.3326740346719577
  0.5567812067489250  0.2207924918458181  0.3340413920431218
  0.2218462591524662  0.2209724056204911  0.3339265986801646
  0.8874006545636144  0.2203372605872995  0.3327809564459358
  0.7791270065699236  0.7749081914043017  0.2500250332313848
  0.4460801602924998  0.7774964526713013  0.2508007022594864
  0.1133495853846081  0.7749730780820513  0.2493418200625739
  0.7796791242504113  0.4433751057292988  0.2501439679975483
  0.4428260173139965  0.4447448789157894  0.2492147576532893
  0.1135323378964742  0.4440478873601379  0.2502679363826661
  0.7784969152262710  0.1126909490272316  0.2498768851495254
  0.4466510178449155  0.1099305665406176  0.2499079435781975
  0.8877129155514610  0.5535196144189256  0.3334310073512901
  0.8170108469915142  0.6690538126619254  0.9173520586362259
