Generated generic
1.0
   30.67429217    0.00000000    0.00000000
   15.33714608   26.56471626    0.00000000
    0.00000000    0.00000000   25.04509091
 Cu
 1560
Selective dynamics
Direct
    0.02777778    0.02777778    0.00000000 F F F
    0.11111111    0.02777778    0.00000000 F F F
    0.19444444    0.02777778    0.00000000 F F F
    0.27777778    0.02777778    0.00000000 F F F
    0.36111111    0.02777778    0.00000000 F F F
    0.44444444    0.02777778    0.00000000 F F F
    0.52777778    0.02777778    0.00000000 F F F
    0.61111111    0.02777778    0.00000000 F F F
    0.69444444    0.02777778    0.00000000 F F F
    0.77777778    0.02777778    0.00000000 F F F
    0.86111111    0.02777778    0.00000000 F F F
    0.94444444    0.02777778    0.00000000 F F F
    0.02777778    0.11111111    0.00000000 F F F
    0.11111111    0.11111111    0.00000000 F F F
    0.19444444    0.11111111    0.00000000 F F F
    0.27777778    0.11111111    0.00000000 F F F
    0.36111111    0.11111111    0.00000000 F F F
    0.44444444    0.11111111    0.00000000 F F F
    0.52777778    0.11111111    0.00000000 F F F
    0.61111111    0.11111111    0.00000000 F F F
    0.69444444    0.11111111    0.00000000 F F F
    0.77777778    0.11111111    0.00000000 F F F
    0.86111111    0.11111111    0.00000000 F F F
    0.94444444    0.11111111    0.00000000 F F F
    0.02777778    0.19444444    0.00000000 F F F
    0.11111111    0.19444444    0.00000000 F F F
    0.19444444    0.19444444    0.00000000 F F F
    0.27777778    0.19444444    0.00000000 F F F
    0.36111111    0.19444444    0.00000000 F F F
    0.44444444    0.19444444    0.00000000 F F F
    0.52777778    0.19444444    0.00000000 F F F
    0.61111111    0.19444444    0.00000000 F F F
    0.69444444    0.19444444    0.00000000 F F F
    0.77777778    0.19444444    0.00000000 F F F
    0.86111111    0.19444444    0.00000000 F F F
    0.94444444    0.19444444    0.00000000 F F F
    0.02777778    0.27777778    0.00000000 F F F
    0.11111111    0.27777778    0.00000000 F F F
    0.19444444    0.27777778    0.00000000 F F F
    0.27777778    0.27777778    0.00000000 F F F
    0.36111111    0.27777778    0.00000000 F F F
    0.44444444    0.27777778    0.00000000 F F F
    0.52777778    0.27777778    0.00000000 F F F
    0.61111111    0.27777778    0.00000000 F F F
    0.69444444    0.27777778    0.00000000 F F F
    0.77777778    0.27777778    0.00000000 F F F
    0.86111111    0.27777778    0.00000000 F F F
    0.94444444    0.27777778    0.00000000 F F F
    0.02777778    0.36111111    0.00000000 F F F
    0.11111111    0.36111111    0.00000000 F F F
    0.19444444    0.36111111    0.00000000 F F F
    0.27777778    0.36111111    0.00000000 F F F
    0.36111111    0.36111111    0.00000000 F F F
    0.44444444    0.36111111    0.00000000 F F F
    0.52777778    0.36111111    0.00000000 F F F
    0.61111111    0.36111111    0.00000000 F F F
    0.69444444    0.36111111    0.00000000 F F F
    0.77777778    0.36111111    0.00000000 F F F
    0.86111111    0.36111111    0.00000000 F F F
    0.94444444    0.36111111    0.00000000 F F F
    0.02777778    0.44444444    0.00000000 F F F
    0.11111111    0.44444444    0.00000000 F F F
    0.19444444    0.44444444    0.00000000 F F F
    0.27777778    0.44444444    0.00000000 F F F
    0.36111111    0.44444444    0.00000000 F F F
    0.44444444    0.44444444    0.00000000 F F F
    0.52777778    0.44444444    0.00000000 F F F
    0.61111111    0.44444444    0.00000000 F F F
    0.69444444    0.44444444    0.00000000 F F F
    0.77777778    0.44444444    0.00000000 F F F
    0.86111111    0.44444444    0.00000000 F F F
    0.94444444    0.44444444    0.00000000 F F F
    0.02777778    0.52777778    0.00000000 F F F
    0.11111111    0.52777778    0.00000000 F F F
    0.19444444    0.52777778    0.00000000 F F F
    0.27777778    0.52777778    0.00000000 F F F
    0.36111111    0.52777778    0.00000000 F F F
    0.44444444    0.52777778    0.00000000 F F F
    0.52777778    0.52777778    0.00000000 F F F
    0.61111111    0.52777778    0.00000000 F F F
    0.69444444    0.52777778    0.00000000 F F F
    0.77777778    0.52777778    0.00000000 F F F
    0.86111111    0.52777778    0.00000000 F F F
    0.94444444    0.52777778    0.00000000 F F F
    0.02777778    0.86111111    0.00000000 F F F
    0.11111111    0.86111111    0.00000000 F F F
    0.19444444    0.86111111    0.00000000 F F F
    0.27777778    0.86111111    0.00000000 F F F
    0.36111111    0.86111111    0.00000000 F F F
    0.44444444    0.86111111    0.00000000 F F F
    0.52777778    0.86111111    0.00000000 F F F
    0.61111111    0.86111111    0.00000000 F F F
    0.69444444    0.86111111    0.00000000 F F F
    0.77777778    0.86111111    0.00000000 F F F
    0.86111111    0.86111111    0.00000000 F F F
    0.94444444    0.86111111    0.00000000 F F F
    0.02777778    0.94444444    0.00000000 F F F
    0.11111111    0.94444444    0.00000000 F F F
    0.19444444    0.94444444    0.00000000 F F F
    0.27777778    0.94444444    0.00000000 F F F
    0.36111111    0.94444444    0.00000000 F F F
    0.44444444    0.94444444    0.00000000 F F F
    0.52777778    0.94444444    0.00000000 F F F
    0.61111111    0.94444444    0.00000000 F F F
    0.69444444    0.94444444    0.00000000 F F F
    0.77777778    0.94444444    0.00000000 F F F
    0.86111111    0.94444444    0.00000000 F F F
    0.94444444    0.94444444    0.00000000 F F F
    0.97222222    0.05555556    0.08333454 T T T
    0.05555556    0.05555556    0.08333454 T T T
    0.13888889    0.05555556    0.08333454 T T T
    0.22222222    0.05555556    0.08333454 T T T
    0.30555556    0.05555556    0.08333454 T T T
    0.38888889    0.05555556    0.08333454 T T T
    0.47222222    0.05555556    0.08333454 T T T
    0.55555556    0.05555556    0.08333454 T T T
    0.63888889    0.05555556    0.08333454 T T T
    0.72222222    0.05555556    0.08333454 T T T
    0.80555556    0.05555556    0.08333454 T T T
    0.88888889    0.05555556    0.08333454 T T T
    0.97222222    0.13888889    0.08333454 T T T
    0.05555556    0.13888889    0.08333454 T T T
    0.13888889    0.13888889    0.08333454 T T T
    0.22222222    0.13888889    0.08333454 T T T
    0.30555556    0.13888889    0.08333454 T T T
    0.38888889    0.13888889    0.08333454 T T T
    0.47222222    0.13888889    0.08333454 T T T
    0.55555556    0.13888889    0.08333454 T T T
    0.63888889    0.13888889    0.08333454 T T T
    0.72222222    0.13888889    0.08333454 T T T
    0.80555556    0.13888889    0.08333454 T T T
    0.88888889    0.13888889    0.08333454 T T T
    0.97222222    0.22222222    0.08333454 T T T
    0.05555556    0.22222222    0.08333454 T T T
    0.13888889    0.22222222    0.08333454 T T T
    0.22222222    0.22222222    0.08333454 T T T
    0.30555556    0.22222222    0.08333454 T T T
    0.38888889    0.22222222    0.08333454 T T T
    0.47222222    0.22222222    0.08333454 T T T
    0.55555556    0.22222222    0.08333454 T T T
    0.63888889    0.22222222    0.08333454 T T T
    0.72222222    0.22222222    0.08333454 T T T
    0.80555556    0.22222222    0.08333454 T T T
    0.88888889    0.22222222    0.08333454 T T T
    0.97222222    0.30555556    0.08333454 T T T
    0.05555556    0.30555556    0.08333454 T T T
    0.13888889    0.30555556    0.08333454 T T T
    0.22222222    0.30555556    0.08333454 T T T
    0.30555556    0.30555556    0.08333454 T T T
    0.38888889    0.30555556    0.08333454 T T T
    0.47222222    0.30555556    0.08333454 T T T
    0.55555556    0.30555556    0.08333454 T T T
    0.63888889    0.30555556    0.08333454 T T T
    0.72222222    0.30555556    0.08333454 T T T
    0.80555556    0.30555556    0.08333454 T T T
    0.88888889    0.30555556    0.08333454 T T T
    0.97222222    0.38888889    0.08333454 T T T
    0.05555556    0.38888889    0.08333454 T T T
    0.13888889    0.38888889    0.08333454 T T T
    0.22222222    0.38888889    0.08333454 T T T
    0.30555556    0.38888889    0.08333454 T T T
    0.38888889    0.38888889    0.08333454 T T T
    0.47222222    0.38888889    0.08333454 T T T
    0.55555556    0.38888889    0.08333454 T T T
    0.63888889    0.38888889    0.08333454 T T T
    0.72222222    0.38888889    0.08333454 T T T
    0.80555556    0.38888889    0.08333454 T T T
    0.88888889    0.38888889    0.08333454 T T T
    0.97222222    0.47222222    0.08333454 T T T
    0.05555556    0.47222222    0.08333454 T T T
    0.13888889    0.47222222    0.08333454 T T T
    0.22222222    0.47222222    0.08333454 T T T
    0.30555556    0.47222222    0.08333454 T T T
    0.38888889    0.47222222    0.08333454 T T T
    0.47222222    0.47222222    0.08333454 T T T
    0.55555556    0.47222222    0.08333454 T T T
    0.63888889    0.47222222    0.08333454 T T T
    0.72222222    0.47222222    0.08333454 T T T
    0.80555556    0.47222222    0.08333454 T T T
    0.88888889    0.47222222    0.08333454 T T T
    0.97222222    0.88888889    0.08333454 T T T
    0.05555556    0.88888889    0.08333454 T T T
    0.13888889    0.88888889    0.08333454 T T T
    0.22222222    0.88888889    0.08333454 T T T
    0.30555556    0.88888889    0.08333454 T T T
    0.38888889    0.88888889    0.08333454 T T T
    0.47222222    0.88888889    0.08333454 T T T
    0.55555556    0.88888889    0.08333454 T T T
    0.63888889    0.88888889    0.08333454 T T T
    0.72222222    0.88888889    0.08333454 T T T
    0.80555556    0.88888889    0.08333454 T T T
    0.88888889    0.88888889    0.08333454 T T T
    0.97222222    0.97222222    0.08333454 T T T
    0.05555556    0.97222222    0.08333454 T T T
    0.13888889    0.97222222    0.08333454 T T T
    0.22222222    0.97222222    0.08333454 T T T
    0.30555556    0.97222222    0.08333454 T T T
    0.38888889    0.97222222    0.08333454 T T T
    0.47222222    0.97222222    0.08333454 T T T
    0.55555556    0.97222222    0.08333454 T T T
    0.63888889    0.97222222    0.08333454 T T T
    0.72222222    0.97222222    0.08333454 T T T
    0.80555556    0.97222222    0.08333454 T T T
    0.88888889    0.97222222    0.08333454 T T T
    0.00000000    0.00000000    0.16666909 T T T
    0.08333333    0.00000000    0.16666909 T T T
    0.16666667    0.00000000    0.16666909 T T T
    0.25000000    0.00000000    0.16666909 T T T
    0.33333333    0.00000000    0.16666909 T T T
    0.41666667    0.00000000    0.16666909 T T T
    0.50000000    0.00000000    0.16666909 T T T
    0.58333333    0.00000000    0.16666909 T T T
    0.66666667    0.00000000    0.16666909 T T T
    0.75000000    0.00000000    0.16666909 T T T
    0.83333333    0.00000000    0.16666909 T T T
    0.91666667    0.00000000    0.16666909 T T T
    0.00000000    0.08333333    0.16666909 T T T
    0.08333333    0.08333333    0.16666909 T T T
    0.16666667    0.08333333    0.16666909 T T T
    0.25000000    0.08333333    0.16666909 T T T
    0.33333333    0.08333333    0.16666909 T T T
    0.41666667    0.08333333    0.16666909 T T T
    0.50000000    0.08333333    0.16666909 T T T
    0.58333333    0.08333333    0.16666909 T T T
    0.66666667    0.08333333    0.16666909 T T T
    0.75000000    0.08333333    0.16666909 T T T
    0.83333333    0.08333333    0.16666909 T T T
    0.91666667    0.08333333    0.16666909 T T T
    0.00000000    0.16666667    0.16666909 T T T
    0.08333333    0.16666667    0.16666909 T T T
    0.16666667    0.16666667    0.16666909 T T T
    0.25000000    0.16666667    0.16666909 T T T
    0.33333333    0.16666667    0.16666909 T T T
    0.41666667    0.16666667    0.16666909 T T T
    0.50000000    0.16666667    0.16666909 T T T
    0.58333333    0.16666667    0.16666909 T T T
    0.66666667    0.16666667    0.16666909 T T T
    0.75000000    0.16666667    0.16666909 T T T
    0.83333333    0.16666667    0.16666909 T T T
    0.91666667    0.16666667    0.16666909 T T T
    0.00000000    0.25000000    0.16666909 T T T
    0.08333333    0.25000000    0.16666909 T T T
    0.16666667    0.25000000    0.16666909 T T T
    0.25000000    0.25000000    0.16666909 T T T
    0.33333333    0.25000000    0.16666909 T T T
    0.41666667    0.25000000    0.16666909 T T T
    0.50000000    0.25000000    0.16666909 T T T
    0.58333333    0.25000000    0.16666909 T T T
    0.66666667    0.25000000    0.16666909 T T T
    0.75000000    0.25000000    0.16666909 T T T
    0.83333333    0.25000000    0.16666909 T T T
    0.91666667    0.25000000    0.16666909 T T T
    0.00000000    0.33333333    0.16666909 T T T
    0.08333333    0.33333333    0.16666909 T T T
    0.16666667    0.33333333    0.16666909 T T T
    0.25000000    0.33333333    0.16666909 T T T
    0.33333333    0.33333333    0.16666909 T T T
    0.41666667    0.33333333    0.16666909 T T T
    0.50000000    0.33333333    0.16666909 T T T
    0.58333333    0.33333333    0.16666909 T T T
    0.66666667    0.33333333    0.16666909 T T T
    0.75000000    0.33333333    0.16666909 T T T
    0.83333333    0.33333333    0.16666909 T T T
    0.91666667    0.33333333    0.16666909 T T T
    0.00000000    0.41666667    0.16666909 T T T
    0.08333333    0.41666667    0.16666909 T T T
    0.16666667    0.41666667    0.16666909 T T T
    0.25000000    0.41666667    0.16666909 T T T
    0.33333333    0.41666667    0.16666909 T T T
    0.41666667    0.41666667    0.16666909 T T T
    0.50000000    0.41666667    0.16666909 T T T
    0.58333333    0.41666667    0.16666909 T T T
    0.66666667    0.41666667    0.16666909 T T T
    0.75000000    0.41666667    0.16666909 T T T
    0.83333333    0.41666667    0.16666909 T T T
    0.91666667    0.41666667    0.16666909 T T T
    0.00000000    0.83333333    0.16666909 T T T
    0.08333333    0.83333333    0.16666909 T T T
    0.16666667    0.83333333    0.16666909 T T T
    0.25000000    0.83333333    0.16666909 T T T
    0.33333333    0.83333333    0.16666909 T T T
    0.41666667    0.83333333    0.16666909 T T T
    0.50000000    0.83333333    0.16666909 T T T
    0.58333333    0.83333333    0.16666909 T T T
    0.66666667    0.83333333    0.16666909 T T T
    0.75000000    0.83333333    0.16666909 T T T
    0.83333333    0.83333333    0.16666909 T T T
    0.91666667    0.83333333    0.16666909 T T T
    0.00000000    0.91666667    0.16666909 T T T
    0.08333333    0.91666667    0.16666909 T T T
    0.16666667    0.91666667    0.16666909 T T T
    0.25000000    0.91666667    0.16666909 T T T
    0.33333333    0.91666667    0.16666909 T T T
    0.41666667    0.91666667    0.16666909 T T T
    0.50000000    0.91666667    0.16666909 T T T
    0.58333333    0.91666667    0.16666909 T T T
    0.66666667    0.91666667    0.16666909 T T T
    0.75000000    0.91666667    0.16666909 T T T
    0.83333333    0.91666667    0.16666909 T T T
    0.91666667    0.91666667    0.16666909 T T T
    0.02777778    0.02777778    0.25000363 T T T
    0.11111111    0.02777778    0.25000363 T T T
    0.19444444    0.02777778    0.25000363 T T T
    0.27777778    0.02777778    0.25000363 T T T
    0.36111111    0.02777778    0.25000363 T T T
    0.44444444    0.02777778    0.25000363 T T T
    0.52777778    0.02777778    0.25000363 T T T
    0.61111111    0.02777778    0.25000363 T T T
    0.69444444    0.02777778    0.25000363 T T T
    0.77777778    0.02777778    0.25000363 T T T
    0.86111111    0.02777778    0.25000363 T T T
    0.94444444    0.02777778    0.25000363 T T T
    0.02777778    0.11111111    0.25000363 T T T
    0.11111111    0.11111111    0.25000363 T T T
    0.19444444    0.11111111    0.25000363 T T T
    0.27777778    0.11111111    0.25000363 T T T
    0.36111111    0.11111111    0.25000363 T T T
    0.44444444    0.11111111    0.25000363 T T T
    0.52777778    0.11111111    0.25000363 T T T
    0.61111111    0.11111111    0.25000363 T T T
    0.69444444    0.11111111    0.25000363 T T T
    0.77777778    0.11111111    0.25000363 T T T
    0.86111111    0.11111111    0.25000363 T T T
    0.94444444    0.11111111    0.25000363 T T T
    0.02777778    0.19444444    0.25000363 T T T
    0.11111111    0.19444444    0.25000363 T T T
    0.19444444    0.19444444    0.25000363 T T T
    0.27777778    0.19444444    0.25000363 T T T
    0.36111111    0.19444444    0.25000363 T T T
    0.44444444    0.19444444    0.25000363 T T T
    0.52777778    0.19444444    0.25000363 T T T
    0.61111111    0.19444444    0.25000363 T T T
    0.69444444    0.19444444    0.25000363 T T T
    0.77777778    0.19444444    0.25000363 T T T
    0.86111111    0.19444444    0.25000363 T T T
    0.94444444    0.19444444    0.25000363 T T T
    0.02777778    0.27777778    0.25000363 T T T
    0.11111111    0.27777778    0.25000363 T T T
    0.19444444    0.27777778    0.25000363 T T T
    0.27777778    0.27777778    0.25000363 T T T
    0.36111111    0.27777778    0.25000363 T T T
    0.44444444    0.27777778    0.25000363 T T T
    0.52777778    0.27777778    0.25000363 T T T
    0.61111111    0.27777778    0.25000363 T T T
    0.69444444    0.27777778    0.25000363 T T T
    0.77777778    0.27777778    0.25000363 T T T
    0.86111111    0.27777778    0.25000363 T T T
    0.94444444    0.27777778    0.25000363 T T T
    0.02777778    0.36111111    0.25000363 T T T
    0.11111111    0.36111111    0.25000363 T T T
    0.19444444    0.36111111    0.25000363 T T T
    0.27777778    0.36111111    0.25000363 T T T
    0.36111111    0.36111111    0.25000363 T T T
    0.44444444    0.36111111    0.25000363 T T T
    0.52777778    0.36111111    0.25000363 T T T
    0.61111111    0.36111111    0.25000363 T T T
    0.69444444    0.36111111    0.25000363 T T T
    0.77777778    0.36111111    0.25000363 T T T
    0.86111111    0.36111111    0.25000363 T T T
    0.94444444    0.36111111    0.25000363 T T T
    0.02777778    0.44444444    0.25000363 T T T
    0.11111111    0.44444444    0.25000363 T T T
    0.19444444    0.44444444    0.25000363 T T T
    0.27777778    0.44444444    0.25000363 T T T
    0.36111111    0.44444444    0.25000363 T T T
    0.44444444    0.44444444    0.25000363 T T T
    0.52777778    0.44444444    0.25000363 T T T
    0.61111111    0.44444444    0.25000363 T T T
    0.69444444    0.44444444    0.25000363 T T T
    0.77777778    0.44444444    0.25000363 T T T
    0.86111111    0.44444444    0.25000363 T T T
    0.94444444    0.44444444    0.25000363 T T T
    0.02777778    0.77777778    0.25000363 T T T
    0.11111111    0.77777778    0.25000363 T T T
    0.19444444    0.77777778    0.25000363 T T T
    0.27777778    0.77777778    0.25000363 T T T
    0.36111111    0.77777778    0.25000363 T T T
    0.44444444    0.77777778    0.25000363 T T T
    0.52777778    0.77777778    0.25000363 T T T
    0.61111111    0.77777778    0.25000363 T T T
    0.69444444    0.77777778    0.25000363 T T T
    0.77777778    0.77777778    0.25000363 T T T
    0.86111111    0.77777778    0.25000363 T T T
    0.94444444    0.77777778    0.25000363 T T T
    0.02777778    0.86111111    0.25000363 T T T
    0.11111111    0.86111111    0.25000363 T T T
    0.19444444    0.86111111    0.25000363 T T T
    0.27777778    0.86111111    0.25000363 T T T
    0.36111111    0.86111111    0.25000363 T T T
    0.44444444    0.86111111    0.25000363 T T T
    0.52777778    0.86111111    0.25000363 T T T
    0.61111111    0.86111111    0.25000363 T T T
    0.69444444    0.86111111    0.25000363 T T T
    0.77777778    0.86111111    0.25000363 T T T
    0.86111111    0.86111111    0.25000363 T T T
    0.94444444    0.86111111    0.25000363 T T T
    0.02777778    0.94444444    0.25000363 T T T
    0.11111111    0.94444444    0.25000363 T T T
    0.19444444    0.94444444    0.25000363 T T T
    0.27777778    0.94444444    0.25000363 T T T
    0.36111111    0.94444444    0.25000363 T T T
    0.44444444    0.94444444    0.25000363 T T T
    0.52777778    0.94444444    0.25000363 T T T
    0.61111111    0.94444444    0.25000363 T T T
    0.69444444    0.94444444    0.25000363 T T T
    0.77777778    0.94444444    0.25000363 T T T
    0.86111111    0.94444444    0.25000363 T T T
    0.94444444    0.94444444    0.25000363 T T T
    0.97222222    0.05555556    0.33333817 T T T
    0.05555556    0.05555556    0.33333817 T T T
    0.13888889    0.05555556    0.33333817 T T T
    0.22222222    0.05555556    0.33333817 T T T
    0.30555556    0.05555556    0.33333817 T T T
    0.38888889    0.05555556    0.33333817 T T T
    0.47222222    0.05555556    0.33333817 T T T
    0.55555556    0.05555556    0.33333817 T T T
    0.63888889    0.05555556    0.33333817 T T T
    0.72222222    0.05555556    0.33333817 T T T
    0.80555556    0.05555556    0.33333817 T T T
    0.88888889    0.05555556    0.33333817 T T T
    0.97222222    0.13888889    0.33333817 T T T
    0.05555556    0.13888889    0.33333817 T T T
    0.13888889    0.13888889    0.33333817 T T T
    0.22222222    0.13888889    0.33333817 T T T
    0.30555556    0.13888889    0.33333817 T T T
    0.38888889    0.13888889    0.33333817 T T T
    0.47222222    0.13888889    0.33333817 T T T
    0.55555556    0.13888889    0.33333817 T T T
    0.63888889    0.13888889    0.33333817 T T T
    0.72222222    0.13888889    0.33333817 T T T
    0.80555556    0.13888889    0.33333817 T T T
    0.88888889    0.13888889    0.33333817 T T T
    0.97222222    0.22222222    0.33333817 T T T
    0.05555556    0.22222222    0.33333817 T T T
    0.13888889    0.22222222    0.33333817 T T T
    0.22222222    0.22222222    0.33333817 T T T
    0.30555556    0.22222222    0.33333817 T T T
    0.38888889    0.22222222    0.33333817 T T T
    0.47222222    0.22222222    0.33333817 T T T
    0.55555556    0.22222222    0.33333817 T T T
    0.63888889    0.22222222    0.33333817 T T T
    0.72222222    0.22222222    0.33333817 T T T
    0.80555556    0.22222222    0.33333817 T T T
    0.88888889    0.22222222    0.33333817 T T T
    0.97222222    0.30555556    0.33333817 T T T
    0.05555556    0.30555556    0.33333817 T T T
    0.13888889    0.30555556    0.33333817 T T T
    0.22222222    0.30555556    0.33333817 T T T
    0.30555556    0.30555556    0.33333817 T T T
    0.38888889    0.30555556    0.33333817 T T T
    0.47222222    0.30555556    0.33333817 T T T
    0.55555556    0.30555556    0.33333817 T T T
    0.63888889    0.30555556    0.33333817 T T T
    0.72222222    0.30555556    0.33333817 T T T
    0.80555556    0.30555556    0.33333817 T T T
    0.88888889    0.30555556    0.33333817 T T T
    0.97222222    0.38888889    0.33333817 T T T
    0.05555556    0.38888889    0.33333817 T T T
    0.13888889    0.38888889    0.33333817 T T T
    0.22222222    0.38888889    0.33333817 T T T
    0.30555556    0.38888889    0.33333817 T T T
    0.38888889    0.38888889    0.33333817 T T T
    0.47222222    0.38888889    0.33333817 T T T
    0.55555556    0.38888889    0.33333817 T T T
    0.63888889    0.38888889    0.33333817 T T T
    0.72222222    0.38888889    0.33333817 T T T
    0.80555556    0.38888889    0.33333817 T T T
    0.88888889    0.38888889    0.33333817 T T T
    0.97222222    0.80555556    0.33333817 T T T
    0.05555556    0.80555556    0.33333817 T T T
    0.13888889    0.80555556    0.33333817 T T T
    0.22222222    0.80555556    0.33333817 T T T
    0.30555556    0.80555556    0.33333817 T T T
    0.38888889    0.80555556    0.33333817 T T T
    0.47222222    0.80555556    0.33333817 T T T
    0.55555556    0.80555556    0.33333817 T T T
    0.63888889    0.80555556    0.33333817 T T T
    0.72222222    0.80555556    0.33333817 T T T
    0.80555556    0.80555556    0.33333817 T T T
    0.88888889    0.80555556    0.33333817 T T T
    0.97222222    0.88888889    0.33333817 T T T
    0.05555556    0.88888889    0.33333817 T T T
    0.13888889    0.88888889    0.33333817 T T T
    0.22222222    0.88888889    0.33333817 T T T
    0.30555556    0.88888889    0.33333817 T T T
    0.38888889    0.88888889    0.33333817 T T T
    0.47222222    0.88888889    0.33333817 T T T
    0.55555556    0.88888889    0.33333817 T T T
    0.63888889    0.88888889    0.33333817 T T T
    0.72222222    0.88888889    0.33333817 T T T
    0.80555556    0.88888889    0.33333817 T T T
    0.88888889    0.88888889    0.33333817 T T T
    0.97222222    0.97222222    0.33333817 T T T
    0.05555556    0.97222222    0.33333817 T T T
    0.13888889    0.97222222    0.33333817 T T T
    0.22222222    0.97222222    0.33333817 T T T
    0.30555556    0.97222222    0.33333817 T T T
    0.38888889    0.97222222    0.33333817 T T T
    0.47222222    0.97222222    0.33333817 T T T
    0.55555556    0.97222222    0.33333817 T T T
    0.63888889    0.97222222    0.33333817 T T T
    0.72222222    0.97222222    0.33333817 T T T
    0.80555556    0.97222222    0.33333817 T T T
    0.88888889    0.97222222    0.33333817 T T T
    0.00000000    0.00000000    0.66667635 T T T
    0.08333333    0.00000000    0.66667635 T T T
    0.16666667    0.00000000    0.66667635 T T T
    0.25000000    0.00000000    0.66667635 T T T
    0.33333333    0.00000000    0.66667635 T T T
    0.41666667    0.00000000    0.66667635 T T T
    0.50000000    0.00000000    0.66667635 T T T
    0.58333333    0.00000000    0.66667635 T T T
    0.66666667    0.00000000    0.66667635 T T T
    0.75000000    0.00000000    0.66667635 T T T
    0.83333333    0.00000000    0.66667635 T T T
    0.91666667    0.00000000    0.66667635 T T T
    0.00000000    0.08333333    0.66667635 T T T
    0.08333333    0.08333333    0.66667635 T T T
    0.16666667    0.08333333    0.66667635 T T T
    0.25000000    0.08333333    0.66667635 T T T
    0.33333333    0.08333333    0.66667635 T T T
    0.41666667    0.08333333    0.66667635 T T T
    0.50000000    0.08333333    0.66667635 T T T
    0.58333333    0.08333333    0.66667635 T T T
    0.66666667    0.08333333    0.66667635 T T T
    0.75000000    0.08333333    0.66667635 T T T
    0.83333333    0.08333333    0.66667635 T T T
    0.91666667    0.08333333    0.66667635 T T T
    0.00000000    0.16666667    0.66667635 T T T
    0.08333333    0.16666667    0.66667635 T T T
    0.16666667    0.16666667    0.66667635 T T T
    0.25000000    0.16666667    0.66667635 T T T
    0.33333333    0.16666667    0.66667635 T T T
    0.41666667    0.16666667    0.66667635 T T T
    0.50000000    0.16666667    0.66667635 T T T
    0.58333333    0.16666667    0.66667635 T T T
    0.66666667    0.16666667    0.66667635 T T T
    0.75000000    0.16666667    0.66667635 T T T
    0.83333333    0.16666667    0.66667635 T T T
    0.91666667    0.16666667    0.66667635 T T T
    0.00000000    0.25000000    0.66667635 T T T
    0.08333333    0.25000000    0.66667635 T T T
    0.16666667    0.25000000    0.66667635 T T T
    0.25000000    0.25000000    0.66667635 T T T
    0.33333333    0.25000000    0.66667635 T T T
    0.41666667    0.25000000    0.66667635 T T T
    0.50000000    0.25000000    0.66667635 T T T
    0.58333333    0.25000000    0.66667635 T T T
    0.66666667    0.25000000    0.66667635 T T T
    0.75000000    0.25000000    0.66667635 T T T
    0.83333333    0.25000000    0.66667635 T T T
    0.91666667    0.25000000    0.66667635 T T T
    0.00000000    0.66666667    0.66667635 T T T
    0.08333333    0.66666667    0.66667635 T T T
    0.16666667    0.66666667    0.66667635 T T T
    0.25000000    0.66666667    0.66667635 T T T
    0.33333333    0.66666667    0.66667635 T T T
    0.41666667    0.66666667    0.66667635 T T T
    0.50000000    0.66666667    0.66667635 T T T
    0.58333333    0.66666667    0.66667635 T T T
    0.66666667    0.66666667    0.66667635 T T T
    0.75000000    0.66666667    0.66667635 T T T
    0.83333333    0.66666667    0.66667635 T T T
    0.91666667    0.66666667    0.66667635 T T T
    0.00000000    0.75000000    0.66667635 T T T
    0.08333333    0.75000000    0.66667635 T T T
    0.16666667    0.75000000    0.66667635 T T T
    0.25000000    0.75000000    0.66667635 T T T
    0.33333333    0.75000000    0.66667635 T T T
    0.41666667    0.75000000    0.66667635 T T T
    0.50000000    0.75000000    0.66667635 T T T
    0.58333333    0.75000000    0.66667635 T T T
    0.66666667    0.75000000    0.66667635 T T T
    0.75000000    0.75000000    0.66667635 T T T
    0.83333333    0.75000000    0.66667635 T T T
    0.91666667    0.75000000    0.66667635 T T T
    0.00000000    0.83333333    0.66667635 T T T
    0.08333333    0.83333333    0.66667635 T T T
    0.16666667    0.83333333    0.66667635 T T T
    0.25000000    0.83333333    0.66667635 T T T
    0.33333333    0.83333333    0.66667635 T T T
    0.41666667    0.83333333    0.66667635 T T T
    0.50000000    0.83333333    0.66667635 T T T
    0.58333333    0.83333333    0.66667635 T T T
    0.66666667    0.83333333    0.66667635 T T T
    0.75000000    0.83333333    0.66667635 T T T
    0.83333333    0.83333333    0.66667635 T T T
    0.91666667    0.83333333    0.66667635 T T T
    0.00000000    0.91666667    0.66667635 T T T
    0.08333333    0.91666667    0.66667635 T T T
    0.16666667    0.91666667    0.66667635 T T T
    0.25000000    0.91666667    0.66667635 T T T
    0.33333333    0.91666667    0.66667635 T T T
    0.41666667    0.91666667    0.66667635 T T T
    0.50000000    0.91666667    0.66667635 T T T
    0.58333333    0.91666667    0.66667635 T T T
    0.66666667    0.91666667    0.66667635 T T T
    0.75000000    0.91666667    0.66667635 T T T
    0.83333333    0.91666667    0.66667635 T T T
    0.91666667    0.91666667    0.66667635 T T T
    0.02777778    0.02777778    0.75001089 T T T
    0.11111111    0.02777778    0.75001089 T T T
    0.19444444    0.02777778    0.75001089 T T T
    0.27777778    0.02777778    0.75001089 T T T
    0.36111111    0.02777778    0.75001089 T T T
    0.44444444    0.02777778    0.75001089 T T T
    0.52777778    0.02777778    0.75001089 T T T
    0.61111111    0.02777778    0.75001089 T T T
    0.69444444    0.02777778    0.75001089 T T T
    0.77777778    0.02777778    0.75001089 T T T
    0.86111111    0.02777778    0.75001089 T T T
    0.94444444    0.02777778    0.75001089 T T T
    0.02777778    0.11111111    0.75001089 T T T
    0.11111111    0.11111111    0.75001089 T T T
    0.19444444    0.11111111    0.75001089 T T T
    0.27777778    0.11111111    0.75001089 T T T
    0.36111111    0.11111111    0.75001089 T T T
    0.44444444    0.11111111    0.75001089 T T T
    0.52777778    0.11111111    0.75001089 T T T
    0.61111111    0.11111111    0.75001089 T T T
    0.69444444    0.11111111    0.75001089 T T T
    0.77777778    0.11111111    0.75001089 T T T
    0.86111111    0.11111111    0.75001089 T T T
    0.94444444    0.11111111    0.75001089 T T T
    0.02777778    0.19444444    0.75001089 T T T
    0.11111111    0.19444444    0.75001089 T T T
    0.19444444    0.19444444    0.75001089 T T T
    0.27777778    0.19444444    0.75001089 T T T
    0.36111111    0.19444444    0.75001089 T T T
    0.44444444    0.19444444    0.75001089 T T T
    0.52777778    0.19444444    0.75001089 T T T
    0.61111111    0.19444444    0.75001089 T T T
    0.69444444    0.19444444    0.75001089 T T T
    0.77777778    0.19444444    0.75001089 T T T
    0.86111111    0.19444444    0.75001089 T T T
    0.94444444    0.19444444    0.75001089 T T T
    0.02777778    0.27777778    0.75001089 T T T
    0.11111111    0.27777778    0.75001089 T T T
    0.19444444    0.27777778    0.75001089 T T T
    0.27777778    0.27777778    0.75001089 T T T
    0.36111111    0.27777778    0.75001089 T T T
    0.44444444    0.27777778    0.75001089 T T T
    0.52777778    0.27777778    0.75001089 T T T
    0.61111111    0.27777778    0.75001089 T T T
    0.69444444    0.27777778    0.75001089 T T T
    0.77777778    0.27777778    0.75001089 T T T
    0.86111111    0.27777778    0.75001089 T T T
    0.94444444    0.27777778    0.75001089 T T T
    0.02777778    0.61111111    0.75001089 T T T
    0.11111111    0.61111111    0.75001089 T T T
    0.19444444    0.61111111    0.75001089 T T T
    0.27777778    0.61111111    0.75001089 T T T
    0.36111111    0.61111111    0.75001089 T T T
    0.44444444    0.61111111    0.75001089 T T T
    0.52777778    0.61111111    0.75001089 T T T
    0.61111111    0.61111111    0.75001089 T T T
    0.69444444    0.61111111    0.75001089 T T T
    0.77777778    0.61111111    0.75001089 T T T
    0.86111111    0.61111111    0.75001089 T T T
    0.94444444    0.61111111    0.75001089 T T T
    0.02777778    0.69444444    0.75001089 T T T
    0.11111111    0.69444444    0.75001089 T T T
    0.19444444    0.69444444    0.75001089 T T T
    0.27777778    0.69444444    0.75001089 T T T
    0.36111111    0.69444444    0.75001089 T T T
    0.44444444    0.69444444    0.75001089 T T T
    0.52777778    0.69444444    0.75001089 T T T
    0.61111111    0.69444444    0.75001089 T T T
    0.69444444    0.69444444    0.75001089 T T T
    0.77777778    0.69444444    0.75001089 T T T
    0.86111111    0.69444444    0.75001089 T T T
    0.94444444    0.69444444    0.75001089 T T T
    0.02777778    0.77777778    0.75001089 T T T
    0.11111111    0.77777778    0.75001089 T T T
    0.19444444    0.77777778    0.75001089 T T T
    0.27777778    0.77777778    0.75001089 T T T
    0.36111111    0.77777778    0.75001089 T T T
    0.44444444    0.77777778    0.75001089 T T T
    0.52777778    0.77777778    0.75001089 T T T
    0.61111111    0.77777778    0.75001089 T T T
    0.69444444    0.77777778    0.75001089 T T T
    0.77777778    0.77777778    0.75001089 T T T
    0.86111111    0.77777778    0.75001089 T T T
    0.94444444    0.77777778    0.75001089 T T T
    0.02777778    0.86111111    0.75001089 T T T
    0.11111111    0.86111111    0.75001089 T T T
    0.19444444    0.86111111    0.75001089 T T T
    0.27777778    0.86111111    0.75001089 T T T
    0.36111111    0.86111111    0.75001089 T T T
    0.44444444    0.86111111    0.75001089 T T T
    0.52777778    0.86111111    0.75001089 T T T
    0.61111111    0.86111111    0.75001089 T T T
    0.69444444    0.86111111    0.75001089 T T T
    0.77777778    0.86111111    0.75001089 T T T
    0.86111111    0.86111111    0.75001089 T T T
    0.94444444    0.86111111    0.75001089 T T T
    0.02777778    0.94444444    0.75001089 T T T
    0.11111111    0.94444444    0.75001089 T T T
    0.19444444    0.94444444    0.75001089 T T T
    0.27777778    0.94444444    0.75001089 T T T
    0.36111111    0.94444444    0.75001089 T T T
    0.44444444    0.94444444    0.75001089 T T T
    0.52777778    0.94444444    0.75001089 T T T
    0.61111111    0.94444444    0.75001089 T T T
    0.69444444    0.94444444    0.75001089 T T T
    0.77777778    0.94444444    0.75001089 T T T
    0.86111111    0.94444444    0.75001089 T T T
    0.94444444    0.94444444    0.75001089 T T T
    0.97222222    0.05555556    0.83334544 T T T
    0.05555556    0.05555556    0.83334544 T T T
    0.13888889    0.05555556    0.83334544 T T T
    0.22222222    0.05555556    0.83334544 T T T
    0.30555556    0.05555556    0.83334544 T T T
    0.38888889    0.05555556    0.83334544 T T T
    0.47222222    0.05555556    0.83334544 T T T
    0.55555556    0.05555556    0.83334544 T T T
    0.63888889    0.05555556    0.83334544 T T T
    0.72222222    0.05555556    0.83334544 T T T
    0.80555556    0.05555556    0.83334544 T T T
    0.88888889    0.05555556    0.83334544 T T T
    0.97222222    0.13888889    0.83334544 T T T
    0.05555556    0.13888889    0.83334544 T T T
    0.13888889    0.13888889    0.83334544 T T T
    0.22222222    0.13888889    0.83334544 T T T
    0.30555556    0.13888889    0.83334544 T T T
    0.38888889    0.13888889    0.83334544 T T T
    0.47222222    0.13888889    0.83334544 T T T
    0.55555556    0.13888889    0.83334544 T T T
    0.63888889    0.13888889    0.83334544 T T T
    0.72222222    0.13888889    0.83334544 T T T
    0.80555556    0.13888889    0.83334544 T T T
    0.88888889    0.13888889    0.83334544 T T T
    0.97222222    0.22222222    0.83334544 T T T
    0.05555556    0.22222222    0.83334544 T T T
    0.13888889    0.22222222    0.83334544 T T T
    0.22222222    0.22222222    0.83334544 T T T
    0.30555556    0.22222222    0.83334544 T T T
    0.38888889    0.22222222    0.83334544 T T T
    0.47222222    0.22222222    0.83334544 T T T
    0.55555556    0.22222222    0.83334544 T T T
    0.63888889    0.22222222    0.83334544 T T T
    0.72222222    0.22222222    0.83334544 T T T
    0.80555556    0.22222222    0.83334544 T T T
    0.88888889    0.22222222    0.83334544 T T T
    0.97222222    0.63888889    0.83334544 T T T
    0.05555556    0.63888889    0.83334544 T T T
    0.13888889    0.63888889    0.83334544 T T T
    0.22222222    0.63888889    0.83334544 T T T
    0.30555556    0.63888889    0.83334544 T T T
    0.38888889    0.63888889    0.83334544 T T T
    0.47222222    0.63888889    0.83334544 T T T
    0.55555556    0.63888889    0.83334544 T T T
    0.63888889    0.63888889    0.83334544 T T T
    0.72222222    0.63888889    0.83334544 T T T
    0.80555556    0.63888889    0.83334544 T T T
    0.88888889    0.63888889    0.83334544 T T T
    0.97222222    0.72222222    0.83334544 T T T
    0.05555556    0.72222222    0.83334544 T T T
    0.13888889    0.72222222    0.83334544 T T T
    0.22222222    0.72222222    0.83334544 T T T
    0.30555556    0.72222222    0.83334544 T T T
    0.38888889    0.72222222    0.83334544 T T T
    0.47222222    0.72222222    0.83334544 T T T
    0.55555556    0.72222222    0.83334544 T T T
    0.63888889    0.72222222    0.83334544 T T T
    0.72222222    0.72222222    0.83334544 T T T
    0.80555556    0.72222222    0.83334544 T T T
    0.88888889    0.72222222    0.83334544 T T T
    0.97222222    0.80555556    0.83334544 T T T
    0.05555556    0.80555556    0.83334544 T T T
    0.13888889    0.80555556    0.83334544 T T T
    0.22222222    0.80555556    0.83334544 T T T
    0.30555556    0.80555556    0.83334544 T T T
    0.38888889    0.80555556    0.83334544 T T T
    0.47222222    0.80555556    0.83334544 T T T
    0.55555556    0.80555556    0.83334544 T T T
    0.63888889    0.80555556    0.83334544 T T T
    0.72222222    0.80555556    0.83334544 T T T
    0.80555556    0.80555556    0.83334544 T T T
    0.88888889    0.80555556    0.83334544 T T T
    0.97222222    0.88888889    0.83334544 T T T
    0.05555556    0.88888889    0.83334544 T T T
    0.13888889    0.88888889    0.83334544 T T T
    0.22222222    0.88888889    0.83334544 T T T
    0.30555556    0.88888889    0.83334544 T T T
    0.38888889    0.88888889    0.83334544 T T T
    0.47222222    0.88888889    0.83334544 T T T
    0.55555556    0.88888889    0.83334544 T T T
    0.63888889    0.88888889    0.83334544 T T T
    0.72222222    0.88888889    0.83334544 T T T
    0.80555556    0.88888889    0.83334544 T T T
    0.88888889    0.88888889    0.83334544 T T T
    0.97222222    0.97222222    0.83334544 T T T
    0.05555556    0.97222222    0.83334544 T T T
    0.13888889    0.97222222    0.83334544 T T T
    0.22222222    0.97222222    0.83334544 T T T
    0.30555556    0.97222222    0.83334544 T T T
    0.38888889    0.97222222    0.83334544 T T T
    0.47222222    0.97222222    0.83334544 T T T
    0.55555556    0.97222222    0.83334544 T T T
    0.63888889    0.97222222    0.83334544 T T T
    0.72222222    0.97222222    0.83334544 T T T
    0.80555556    0.97222222    0.83334544 T T T
    0.88888889    0.97222222    0.83334544 T T T
    0.00000000    0.00000000    0.91667998 F F F
    0.08333333    0.00000000    0.91667998 F F F
    0.16666667    0.00000000    0.91667998 F F F
    0.25000000    0.00000000    0.91667998 F F F
    0.33333333    0.00000000    0.91667998 F F F
    0.41666667    0.00000000    0.91667998 F F F
    0.50000000    0.00000000    0.91667998 F F F
    0.58333333    0.00000000    0.91667998 F F F
    0.66666667    0.00000000    0.91667998 F F F
    0.75000000    0.00000000    0.91667998 F F F
    0.83333333    0.00000000    0.91667998 F F F
    0.91666667    0.00000000    0.91667998 F F F
    0.00000000    0.08333333    0.91667998 F F F
    0.08333333    0.08333333    0.91667998 F F F
    0.16666667    0.08333333    0.91667998 F F F
    0.25000000    0.08333333    0.91667998 F F F
    0.33333333    0.08333333    0.91667998 F F F
    0.41666667    0.08333333    0.91667998 F F F
    0.50000000    0.08333333    0.91667998 F F F
    0.58333333    0.08333333    0.91667998 F F F
    0.66666667    0.08333333    0.91667998 F F F
    0.75000000    0.08333333    0.91667998 F F F
    0.83333333    0.08333333    0.91667998 F F F
    0.91666667    0.08333333    0.91667998 F F F
    0.00000000    0.16666667    0.91667998 F F F
    0.08333333    0.16666667    0.91667998 F F F
    0.16666667    0.16666667    0.91667998 F F F
    0.25000000    0.16666667    0.91667998 F F F
    0.33333333    0.16666667    0.91667998 F F F
    0.41666667    0.16666667    0.91667998 F F F
    0.50000000    0.16666667    0.91667998 F F F
    0.58333333    0.16666667    0.91667998 F F F
    0.66666667    0.16666667    0.91667998 F F F
    0.75000000    0.16666667    0.91667998 F F F
    0.83333333    0.16666667    0.91667998 F F F
    0.91666667    0.16666667    0.91667998 F F F
    0.00000000    0.58333333    0.91667998 F F F
    0.08333333    0.58333333    0.91667998 F F F
    0.16666667    0.58333333    0.91667998 F F F
    0.25000000    0.58333333    0.91667998 F F F
    0.33333333    0.58333333    0.91667998 F F F
    0.41666667    0.58333333    0.91667998 F F F
    0.50000000    0.58333333    0.91667998 F F F
    0.58333333    0.58333333    0.91667998 F F F
    0.66666667    0.58333333    0.91667998 F F F
    0.75000000    0.58333333    0.91667998 F F F
    0.83333333    0.58333333    0.91667998 F F F
    0.91666667    0.58333333    0.91667998 F F F
    0.00000000    0.66666667    0.91667998 F F F
    0.08333333    0.66666667    0.91667998 F F F
    0.16666667    0.66666667    0.91667998 F F F
    0.25000000    0.66666667    0.91667998 F F F
    0.33333333    0.66666667    0.91667998 F F F
    0.41666667    0.66666667    0.91667998 F F F
    0.50000000    0.66666667    0.91667998 F F F
    0.58333333    0.66666667    0.91667998 F F F
    0.66666667    0.66666667    0.91667998 F F F
    0.75000000    0.66666667    0.91667998 F F F
    0.83333333    0.66666667    0.91667998 F F F
    0.91666667    0.66666667    0.91667998 F F F
    0.00000000    0.75000000    0.91667998 F F F
    0.08333333    0.75000000    0.91667998 F F F
    0.16666667    0.75000000    0.91667998 F F F
    0.25000000    0.75000000    0.91667998 F F F
    0.33333333    0.75000000    0.91667998 F F F
    0.41666667    0.75000000    0.91667998 F F F
    0.50000000    0.75000000    0.91667998 F F F
    0.58333333    0.75000000    0.91667998 F F F
    0.66666667    0.75000000    0.91667998 F F F
    0.75000000    0.75000000    0.91667998 F F F
    0.83333333    0.75000000    0.91667998 F F F
    0.91666667    0.75000000    0.91667998 F F F
    0.00000000    0.83333333    0.91667998 F F F
    0.08333333    0.83333333    0.91667998 F F F
    0.16666667    0.83333333    0.91667998 F F F
    0.25000000    0.83333333    0.91667998 F F F
    0.33333333    0.83333333    0.91667998 F F F
    0.41666667    0.83333333    0.91667998 F F F
    0.50000000    0.83333333    0.91667998 F F F
    0.58333333    0.83333333    0.91667998 F F F
    0.66666667    0.83333333    0.91667998 F F F
    0.75000000    0.83333333    0.91667998 F F F
    0.83333333    0.83333333    0.91667998 F F F
    0.91666667    0.83333333    0.91667998 F F F
    0.00000000    0.91666667    0.91667998 F F F
    0.08333333    0.91666667    0.91667998 F F F
    0.16666667    0.91666667    0.91667998 F F F
    0.25000000    0.91666667    0.91667998 F F F
    0.33333333    0.91666667    0.91667998 F F F
    0.41666667    0.91666667    0.91667998 F F F
    0.50000000    0.91666667    0.91667998 F F F
    0.58333333    0.91666667    0.91667998 F F F
    0.66666667    0.91666667    0.91667998 F F F
    0.75000000    0.91666667    0.91667998 F F F
    0.83333333    0.91666667    0.91667998 F F F
    0.91666667    0.91666667    0.91667998 F F F
    0.05555556    0.47222222    0.41667272 T T T
    0.05555556    0.55555556    0.41667272 T T T
    0.05555556    0.63888889    0.41667272 T T T
    0.05555556    0.72222222    0.41667272 T T T
    0.05555556    0.80555556    0.41667272 T T T
    0.05555556    0.88888889    0.41667272 T T T
    0.05555556    0.97222222    0.41667272 T T T
    0.05555556    0.05555556    0.41667272 T T T
    0.05555556    0.13888889    0.41667272 T T T
    0.05555556    0.22222222    0.41667272 T T T
    0.05555556    0.30555556    0.41667272 T T T
    0.05555556    0.38888889    0.41667272 T T T
    0.97222222    0.55555556    0.41667272 T T T
    0.97222222    0.63888889    0.41667272 T T T
    0.97222222    0.72222222    0.41667272 T T T
    0.97222222    0.80555556    0.41667272 T T T
    0.97222222    0.88888889    0.41667272 T T T
    0.97222222    0.97222222    0.41667272 T T T
    0.97222222    0.05555556    0.41667272 T T T
    0.97222222    0.13888889    0.41667272 T T T
    0.97222222    0.22222222    0.41667272 T T T
    0.97222222    0.30555556    0.41667272 T T T
    0.97222222    0.38888889    0.41667272 T T T
    0.88888889    0.63888889    0.41667272 T T T
    0.88888889    0.72222222    0.41667272 T T T
    0.88888889    0.80555556    0.41667272 T T T
    0.88888889    0.88888889    0.41667272 T T T
    0.88888889    0.97222222    0.41667272 T T T
    0.88888889    0.05555556    0.41667272 T T T
    0.88888889    0.13888889    0.41667272 T T T
    0.88888889    0.22222222    0.41667272 T T T
    0.88888889    0.30555556    0.41667272 T T T
    0.88888889    0.38888889    0.41667272 T T T
    0.80555556    0.72222222    0.41667272 T T T
    0.80555556    0.80555556    0.41667272 T T T
    0.80555556    0.88888889    0.41667272 T T T
    0.80555556    0.97222222    0.41667272 T T T
    0.80555556    0.05555556    0.41667272 T T T
    0.80555556    0.13888889    0.41667272 T T T
    0.80555556    0.22222222    0.41667272 T T T
    0.80555556    0.30555556    0.41667272 T T T
    0.80555556    0.38888889    0.41667272 T T T
    0.72222222    0.80555556    0.41667272 T T T
    0.72222222    0.88888889    0.41667272 T T T
    0.72222222    0.97222222    0.41667272 T T T
    0.72222222    0.05555556    0.41667272 T T T
    0.72222222    0.13888889    0.41667272 T T T
    0.72222222    0.22222222    0.41667272 T T T
    0.72222222    0.30555556    0.41667272 T T T
    0.72222222    0.38888889    0.41667272 T T T
    0.72222222    0.72222222    0.41667272 T T T
    0.63888889    0.88888889    0.41667272 T T T
    0.63888889    0.97222222    0.41667272 T T T
    0.63888889    0.05555556    0.41667272 T T T
    0.63888889    0.13888889    0.41667272 T T T
    0.63888889    0.22222222    0.41667272 T T T
    0.63888889    0.30555556    0.41667272 T T T
    0.63888889    0.38888889    0.41667272 T T T
    0.63888889    0.72222222    0.41667272 T T T
    0.63888889    0.80555556    0.41667272 T T T
    0.55555556    0.97222222    0.41667272 T T T
    0.55555556    0.05555556    0.41667272 T T T
    0.55555556    0.13888889    0.41667272 T T T
    0.55555556    0.22222222    0.41667272 T T T
    0.55555556    0.30555556    0.41667272 T T T
    0.55555556    0.38888889    0.41667272 T T T
    0.55555556    0.72222222    0.41667272 T T T
    0.55555556    0.80555556    0.41667272 T T T
    0.55555556    0.88888889    0.41667272 T T T
    0.47222222    0.05555556    0.41667272 T T T
    0.47222222    0.13888889    0.41667272 T T T
    0.47222222    0.22222222    0.41667272 T T T
    0.47222222    0.30555556    0.41667272 T T T
    0.47222222    0.38888889    0.41667272 T T T
    0.47222222    0.72222222    0.41667272 T T T
    0.47222222    0.80555556    0.41667272 T T T
    0.47222222    0.88888889    0.41667272 T T T
    0.47222222    0.97222222    0.41667272 T T T
    0.38888889    0.13888889    0.41667272 T T T
    0.38888889    0.22222222    0.41667272 T T T
    0.38888889    0.30555556    0.41667272 T T T
    0.38888889    0.38888889    0.41667272 T T T
    0.38888889    0.72222222    0.41667272 T T T
    0.38888889    0.80555556    0.41667272 T T T
    0.38888889    0.88888889    0.41667272 T T T
    0.38888889    0.97222222    0.41667272 T T T
    0.38888889    0.05555556    0.41667272 T T T
    0.30555556    0.22222222    0.41667272 T T T
    0.30555556    0.30555556    0.41667272 T T T
    0.30555556    0.38888889    0.41667272 T T T
    0.30555556    0.72222222    0.41667272 T T T
    0.30555556    0.80555556    0.41667272 T T T
    0.30555556    0.88888889    0.41667272 T T T
    0.30555556    0.97222222    0.41667272 T T T
    0.30555556    0.05555556    0.41667272 T T T
    0.30555556    0.13888889    0.41667272 T T T
    0.22222222    0.30555556    0.41667272 T T T
    0.22222222    0.38888889    0.41667272 T T T
    0.22222222    0.72222222    0.41667272 T T T
    0.22222222    0.80555556    0.41667272 T T T
    0.22222222    0.88888889    0.41667272 T T T
    0.22222222    0.97222222    0.41667272 T T T
    0.22222222    0.05555556    0.41667272 T T T
    0.22222222    0.13888889    0.41667272 T T T
    0.22222222    0.22222222    0.41667272 T T T
    0.13888889    0.38888889    0.41667272 T T T
    0.13888889    0.72222222    0.41667272 T T T
    0.13888889    0.80555556    0.41667272 T T T
    0.13888889    0.88888889    0.41667272 T T T
    0.13888889    0.97222222    0.41667272 T T T
    0.13888889    0.05555556    0.41667272 T T T
    0.13888889    0.13888889    0.41667272 T T T
    0.13888889    0.22222222    0.41667272 T T T
    0.13888889    0.30555556    0.41667272 T T T
    0.02777778    0.52777778    0.50000726 T T T
    0.02777778    0.61111111    0.50000726 T T T
    0.02777778    0.69444444    0.50000726 T T T
    0.02777778    0.77777778    0.50000726 T T T
    0.02777778    0.86111111    0.50000726 T T T
    0.02777778    0.94444444    0.50000726 T T T
    0.02777778    0.02777778    0.50000726 T T T
    0.02777778    0.11111111    0.50000726 T T T
    0.02777778    0.19444444    0.50000726 T T T
    0.02777778    0.27777778    0.50000726 T T T
    0.02777778    0.36111111    0.50000726 T T T
    0.94444444    0.61111111    0.50000726 T T T
    0.94444444    0.69444444    0.50000726 T T T
    0.94444444    0.77777778    0.50000726 T T T
    0.94444444    0.86111111    0.50000726 T T T
    0.94444444    0.94444444    0.50000726 T T T
    0.94444444    0.02777778    0.50000726 T T T
    0.94444444    0.11111111    0.50000726 T T T
    0.94444444    0.19444444    0.50000726 T T T
    0.94444444    0.27777778    0.50000726 T T T
    0.94444444    0.36111111    0.50000726 T T T
    0.86111111    0.69444444    0.50000726 T T T
    0.86111111    0.77777778    0.50000726 T T T
    0.86111111    0.86111111    0.50000726 T T T
    0.86111111    0.94444444    0.50000726 T T T
    0.86111111    0.02777778    0.50000726 T T T
    0.86111111    0.11111111    0.50000726 T T T
    0.86111111    0.19444444    0.50000726 T T T
    0.86111111    0.27777778    0.50000726 T T T
    0.86111111    0.36111111    0.50000726 T T T
    0.77777778    0.77777778    0.50000726 T T T
    0.77777778    0.86111111    0.50000726 T T T
    0.77777778    0.94444444    0.50000726 T T T
    0.77777778    0.02777778    0.50000726 T T T
    0.77777778    0.11111111    0.50000726 T T T
    0.77777778    0.19444444    0.50000726 T T T
    0.77777778    0.27777778    0.50000726 T T T
    0.77777778    0.36111111    0.50000726 T T T
    0.77777778    0.69444444    0.50000726 T T T
    0.69444444    0.86111111    0.50000726 T T T
    0.69444444    0.94444444    0.50000726 T T T
    0.69444444    0.02777778    0.50000726 T T T
    0.69444444    0.11111111    0.50000726 T T T
    0.69444444    0.19444444    0.50000726 T T T
    0.69444444    0.27777778    0.50000726 T T T
    0.69444444    0.36111111    0.50000726 T T T
    0.69444444    0.69444444    0.50000726 T T T
    0.69444444    0.77777778    0.50000726 T T T
    0.61111111    0.94444444    0.50000726 T T T
    0.61111111    0.02777778    0.50000726 T T T
    0.61111111    0.11111111    0.50000726 T T T
    0.61111111    0.19444444    0.50000726 T T T
    0.61111111    0.27777778    0.50000726 T T T
    0.61111111    0.36111111    0.50000726 T T T
    0.61111111    0.69444444    0.50000726 T T T
    0.61111111    0.77777778    0.50000726 T T T
    0.61111111    0.86111111    0.50000726 T T T
    0.52777778    0.02777778    0.50000726 T T T
    0.52777778    0.11111111    0.50000726 T T T
    0.52777778    0.19444444    0.50000726 T T T
    0.52777778    0.27777778    0.50000726 T T T
    0.52777778    0.36111111    0.50000726 T T T
    0.52777778    0.69444444    0.50000726 T T T
    0.52777778    0.77777778    0.50000726 T T T
    0.52777778    0.86111111    0.50000726 T T T
    0.52777778    0.94444444    0.50000726 T T T
    0.44444444    0.11111111    0.50000726 T T T
    0.44444444    0.19444444    0.50000726 T T T
    0.44444444    0.27777778    0.50000726 T T T
    0.44444444    0.36111111    0.50000726 T T T
    0.44444444    0.69444444    0.50000726 T T T
    0.44444444    0.77777778    0.50000726 T T T
    0.44444444    0.86111111    0.50000726 T T T
    0.44444444    0.94444444    0.50000726 T T T
    0.44444444    0.02777778    0.50000726 T T T
    0.36111111    0.19444444    0.50000726 T T T
    0.36111111    0.27777778    0.50000726 T T T
    0.36111111    0.36111111    0.50000726 T T T
    0.36111111    0.69444444    0.50000726 T T T
    0.36111111    0.77777778    0.50000726 T T T
    0.36111111    0.86111111    0.50000726 T T T
    0.36111111    0.94444444    0.50000726 T T T
    0.36111111    0.02777778    0.50000726 T T T
    0.36111111    0.11111111    0.50000726 T T T
    0.27777778    0.27777778    0.50000726 T T T
    0.27777778    0.36111111    0.50000726 T T T
    0.27777778    0.69444444    0.50000726 T T T
    0.27777778    0.77777778    0.50000726 T T T
    0.27777778    0.86111111    0.50000726 T T T
    0.27777778    0.94444444    0.50000726 T T T
    0.27777778    0.02777778    0.50000726 T T T
    0.27777778    0.11111111    0.50000726 T T T
    0.27777778    0.19444444    0.50000726 T T T
    0.19444444    0.36111111    0.50000726 T T T
    0.19444444    0.69444444    0.50000726 T T T
    0.19444444    0.77777778    0.50000726 T T T
    0.19444444    0.86111111    0.50000726 T T T
    0.19444444    0.94444444    0.50000726 T T T
    0.19444444    0.02777778    0.50000726 T T T
    0.19444444    0.11111111    0.50000726 T T T
    0.19444444    0.19444444    0.50000726 T T T
    0.19444444    0.27777778    0.50000726 T T T
    0.11111111    0.69444444    0.50000726 T T T
    0.11111111    0.77777778    0.50000726 T T T
    0.11111111    0.86111111    0.50000726 T T T
    0.11111111    0.94444444    0.50000726 T T T
    0.11111111    0.02777778    0.50000726 T T T
    0.11111111    0.11111111    0.50000726 T T T
    0.11111111    0.19444444    0.50000726 T T T
    0.11111111    0.27777778    0.50000726 T T T
    0.11111111    0.36111111    0.50000726 T T T
    1.00000000    0.50000000    0.58334181 T T T
    1.00000000    0.58333333    0.58334181 T T T
    1.00000000    0.66666667    0.58334181 T T T
    1.00000000    0.75000000    0.58334181 T T T
    1.00000000    0.83333333    0.58334181 T T T
    1.00000000    0.91666667    0.58334181 T T T
    1.00000000    0.00000000    0.58334181 T T T
    1.00000000    0.08333333    0.58334181 T T T
    1.00000000    0.16666667    0.58334181 T T T
    1.00000000    0.25000000    0.58334181 T T T
    1.00000000    0.33333333    0.58334181 T T T
    0.91666667    0.58333333    0.58334181 T T T
    0.91666667    0.66666667    0.58334181 T T T
    0.91666667    0.75000000    0.58334181 T T T
    0.91666667    0.83333333    0.58334181 T T T
    0.91666667    0.91666667    0.58334181 T T T
    0.91666667    0.00000000    0.58334181 T T T
    0.91666667    0.08333333    0.58334181 T T T
    0.91666667    0.16666667    0.58334181 T T T
    0.91666667    0.25000000    0.58334181 T T T
    0.91666667    0.33333333    0.58334181 T T T
    0.83333333    0.66666667    0.58334181 T T T
    0.83333333    0.75000000    0.58334181 T T T
    0.83333333    0.83333333    0.58334181 T T T
    0.83333333    0.91666667    0.58334181 T T T
    0.83333333    1.00000000    0.58334181 T T T
    0.83333333    0.08333333    0.58334181 T T T
    0.83333333    0.16666667    0.58334181 T T T
    0.83333333    0.25000000    0.58334181 T T T
    0.83333333    0.33333333    0.58334181 T T T
    0.75000000    0.75000000    0.58334181 T T T
    0.75000000    0.83333333    0.58334181 T T T
    0.75000000    0.91666667    0.58334181 T T T
    0.75000000    1.00000000    0.58334181 T T T
    0.75000000    0.08333333    0.58334181 T T T
    0.75000000    0.16666667    0.58334181 T T T
    0.75000000    0.25000000    0.58334181 T T T
    0.75000000    0.33333333    0.58334181 T T T
    0.75000000    0.66666667    0.58334181 T T T
    0.66666667    0.83333333    0.58334181 T T T
    0.66666667    0.91666667    0.58334181 T T T
    0.66666667    0.00000000    0.58334181 T T T
    0.66666667    0.08333333    0.58334181 T T T
    0.66666667    0.16666667    0.58334181 T T T
    0.66666667    0.25000000    0.58334181 T T T
    0.66666667    0.33333333    0.58334181 T T T
    0.66666667    0.66666667    0.58334181 T T T
    0.66666667    0.75000000    0.58334181 T T T
    0.58333333    0.91666667    0.58334181 T T T
    0.58333333    0.00000000    0.58334181 T T T
    0.58333333    0.08333333    0.58334181 T T T
    0.58333333    0.16666667    0.58334181 T T T
    0.58333333    0.25000000    0.58334181 T T T
    0.58333333    0.33333333    0.58334181 T T T
    0.58333333    0.66666667    0.58334181 T T T
    0.58333333    0.75000000    0.58334181 T T T
    0.58333333    0.83333333    0.58334181 T T T
    0.50000000    0.00000000    0.58334181 T T T
    0.50000000    0.08333333    0.58334181 T T T
    0.50000000    0.16666667    0.58334181 T T T
    0.50000000    0.25000000    0.58334181 T T T
    0.50000000    0.33333333    0.58334181 T T T
    0.50000000    0.66666667    0.58334181 T T T
    0.50000000    0.75000000    0.58334181 T T T
    0.50000000    0.83333333    0.58334181 T T T
    0.50000000    0.91666667    0.58334181 T T T
    0.41666667    0.08333333    0.58334181 T T T
    0.41666667    0.16666667    0.58334181 T T T
    0.41666667    0.25000000    0.58334181 T T T
    0.41666667    0.33333333    0.58334181 T T T
    0.41666667    0.66666667    0.58334181 T T T
    0.41666667    0.75000000    0.58334181 T T T
    0.41666667    0.83333333    0.58334181 T T T
    0.41666667    0.91666667    0.58334181 T T T
    0.41666667    0.00000000    0.58334181 T T T
    0.33333333    0.16666667    0.58334181 T T T
    0.33333333    0.25000000    0.58334181 T T T
    0.33333333    0.33333333    0.58334181 T T T
    0.33333333    0.66666667    0.58334181 T T T
    0.33333333    0.75000000    0.58334181 T T T
    0.33333333    0.83333333    0.58334181 T T T
    0.33333333    0.91666667    0.58334181 T T T
    0.33333333    0.00000000    0.58334181 T T T
    0.33333333    0.08333333    0.58334181 T T T
    0.25000000    0.25000000    0.58334181 T T T
    0.25000000    0.33333333    0.58334181 T T T
    0.25000000    0.66666667    0.58334181 T T T
    0.25000000    0.75000000    0.58334181 T T T
    0.25000000    0.83333333    0.58334181 T T T
    0.25000000    0.91666667    0.58334181 T T T
    0.25000000    1.00000000    0.58334181 T T T
    0.25000000    0.08333333    0.58334181 T T T
    0.25000000    0.16666667    0.58334181 T T T
    0.16666667    0.33333333    0.58334181 T T T
    0.16666667    0.66666667    0.58334181 T T T
    0.16666667    0.75000000    0.58334181 T T T
    0.16666667    0.83333333    0.58334181 T T T
    0.16666667    0.91666667    0.58334181 T T T
    0.16666667    0.00000000    0.58334181 T T T
    0.16666667    0.08333333    0.58334181 T T T
    0.16666667    0.16666667    0.58334181 T T T
    0.16666667    0.25000000    0.58334181 T T T
    0.08333333    0.66666667    0.58334181 T T T
    0.08333333    0.75000000    0.58334181 T T T
    0.08333333    0.83333333    0.58334181 T T T
    0.08333333    0.91666667    0.58334181 T T T
    0.08333333    0.00000000    0.58334181 T T T
    0.08333333    0.08333333    0.58334181 T T T
    0.08333333    0.16666667    0.58334181 T T T
    0.08333333    0.25000000    0.58334181 T T T
    0.08333333    0.33333333    0.58334181 T T T
    0.01851043    0.37964330    0.69446060 T T T
    0.15740350    0.51852382    0.27778474 T T T
    0.18518212    0.54629992    0.19444957 T T T
    0.21296073    0.57407603    0.11111440 T T T
    0.24073935    0.60185213    0.02777923 T T T
    0.97221553    0.47223561    0.66668137 T T T
    0.08332999    0.58334003    0.33334069 T T T
    0.11110860    0.61111613    0.25000551 T T T
    0.13888722    0.63889224    0.16667034 T T T
    0.16666583    0.66666834    0.08333517 T T T
    0.19444444    0.69444444    1.00000000 F F F
    0.03703508    0.67593234    0.30556146 T T T
    0.06481370    0.70370845    0.22222629 T T T
    0.09259231    0.73148455    0.13889112 T T T
    0.12037093    0.75926065    0.05555594 T T T
    0.08023808    0.31174272    0.81483328 T T T
    0.10801669    0.33951882    0.73149810 T T T
    0.24690977    0.47839934    0.31482225 T T T
    0.27468838    0.50617544    0.23148708 T T T
    0.30246700    0.53395155    0.14815190 T T T
    0.33024561    0.56172765    0.06481673 T T T
    0.35802423    0.58950376    0.98148156 F F F
    0.03394318    0.40433503    0.78705405 T T T
    0.06172179    0.43211113    0.70371888 T T T
    0.20061487    0.57099165    0.28704302 T T T
    0.22839348    0.59876776    0.20370785 T T T
    0.25617210    0.62654386    0.12037268 T T T
    0.28395071    0.65431996    0.03703751 T T T
    0.98764828    0.49692734    0.75927482 T T T
    0.01542689    0.52470345    0.67593965 T T T
    0.15431996    0.66358397    0.25926379 T T T
    0.18209858    0.69136007    0.17592862 T T T
    0.20987719    0.71913617    0.09259345 T T T
    0.23765581    0.74691228    0.00925828 T T T
    0.08024645    0.72840018    0.31481974 T T T
    0.16358229    0.81172849    0.06481422 T T T
    0.22530157    0.32717044    0.68520044 T T T
    0.39197326    0.49382707    0.18518941 T T T
    0.12344944    0.36421055    0.82409155 T T T
    0.15122806    0.39198665    0.74075638 T T T
    0.29012113    0.53086717    0.32408052 T T T
    0.31789975    0.55864328    0.24074535 T T T
    0.34567836    0.58641938    0.15741018 T T T
    0.37345698    0.61419549    0.07407501 T T T
    0.40123559    0.64197159    0.99073984 F F F
    0.07715454    0.45680286    0.79631233 T T T
    0.10493316    0.48457897    0.71297715 T T T
    0.24382623    0.62345949    0.29630130 T T T
    0.27160485    0.65123559    0.21296613 T T T
    0.29938346    0.67901169    0.12963095 T T T
    0.32716207    0.70678780    0.04629578 T T T
    0.03085964    0.54939518    0.76853310 T T T
    0.05863826    0.57717128    0.68519793 T T T
    0.19753133    0.71605180    0.26852207 T T T
    0.22530994    0.74382790    0.18518690 T T T
    0.25308856    0.77160401    0.10185173 T T T
    0.28086717    0.79938011    0.01851656 T T T
    0.21295571    0.32408607    0.86112906 T T T
    0.24073432    0.35186217    0.77779389 T T T
    0.26851294    0.37963828    0.69445872 T T T
    0.40740601    0.51851880    0.27778286 T T T
    0.43518463    0.54629490    0.19444769 T T T
    0.46296324    0.57407101    0.11111252 T T T
    0.49074186    0.60184711    0.02777734 T T T
    0.16666081    0.41667838    0.83334983 T T T
    0.19443942    0.44445449    0.75001466 T T T
    0.22221804    0.47223059    0.66667949 T T T
    0.33333250    0.58333501    0.33333880 T T T
    0.36111111    0.61111111    0.25000363 T T T
    0.38888973    0.63888722    0.16666846 T T T
    0.41666834    0.66666332    0.08333329 T T T
    0.44444696    0.69443942    0.99999812 F F F
    0.12036591    0.50927070    0.80557060 T T T
    0.14814452    0.53704680    0.72223543 T T T
    0.28703760    0.67592732    0.30555958 T T T
    0.31481621    0.70370342    0.22222440 T T T
    0.34259482    0.73147953    0.13888923 T T T
    0.37037344    0.75925563    0.05555406 T T T
    0.30246198    0.28396159    0.89816656 T T T
    0.33024059    0.31173769    0.81483139 T T T
    0.35801920    0.33951380    0.73149622 T T T
    0.49691228    0.47839432    0.31482036 T T T
    0.52469089    0.50617042    0.23148519 T T T
    0.55246951    0.53394653    0.14815002 T T T
    0.58024812    0.56172263    0.06481485 T T T
    0.25616707    0.37655390    0.87038734 T T T
    0.28394569    0.40433001    0.78705216 T T T
    0.31172430    0.43210611    0.70371699 T T T
    0.45061738    0.57098663    0.28704114 T T T
    0.47839599    0.59876274    0.20370596 T T T
    0.50617461    0.62653884    0.12037079 T T T
    0.53395322    0.65431494    0.03703562 T T T
    0.18209356    0.44137011    0.92594328 F F F
    0.20987217    0.46914622    0.84260811 T T T
    0.23765079    0.49692232    0.75927294 T T T
    0.26542940    0.52469843    0.67593777 T T T
    0.40432248    0.66357895    0.25926191 T T T
    0.43210109    0.69135505    0.17592674 T T T
    0.45987970    0.71913115    0.09259157 T T T
    0.48765832    0.74690726    0.00925639 T T T
    0.16357727    0.56173853    0.81482888 T T T
    0.33024896    0.72839515    0.31481785 T T T
    0.41358480    0.81172347    0.06481234 T T T
    0.39196824    0.24383711    0.93520407 F F F
    0.47530409    0.32716542    0.68519855 T T T
    0.64197577    0.49382205    0.18518753 T T T
    0.34567334    0.33642942    0.90742484 T T T
    0.37345195    0.36420553    0.82408967 T T T
    0.40123057    0.39198163    0.74075450 T T T
    0.54012364    0.53086215    0.32407864 T T T
    0.56790226    0.55863826    0.24074347 T T T
    0.59568087    0.58641436    0.15740830 T T T
    0.62345949    0.61419046    0.07407313 T T T
    0.29937844    0.42902174    0.87964561 T T T
    0.32715705    0.45679784    0.79631044 T T T
    0.35493567    0.48457395    0.71297527 T T T
    0.49382874    0.62345447    0.29629941 T T T
    0.52160736    0.65123057    0.21296424 T T T
    0.54938597    0.67900667    0.12962907 T T T
    0.57716459    0.70678278    0.04629390 T T T
    0.22530492    0.49383795    0.93520156 F F F
    0.25308354    0.52161405    0.85186639 T T T
    0.28086215    0.54939016    0.76853122 T T T
    0.30864077    0.57716626    0.68519604 T T T
    0.44753384    0.71604678    0.26852019 T T T
    0.47531245    0.74382288    0.18518502 T T T
    0.50309107    0.77159899    0.10184984 T T T
    0.53086968    0.79937509    0.01851467 T T T
    0.46295822    0.32408105    0.86112718 T T T
    0.49073684    0.35185715    0.77779200 T T T
    0.51851545    0.37963326    0.69445683 T T T
    0.65740852    0.51851378    0.27778098 T T T
    0.68518714    0.54628988    0.19444580 T T T
    0.71296575    0.57406598    0.11111063 T T T
    0.38888470    0.38889726    0.91668312 F F F
    0.41666332    0.41667336    0.83334795 T T T
    0.44444193    0.44444947    0.75001278 T T T
    0.47222055    0.47222557    0.66667761 T T T
    0.58333501    0.58332999    0.33333692 T T T
    0.61111362    0.61110609    0.25000175 T T T
    0.63889224    0.63888219    0.16666658 T T T
    0.66667085    0.66665830    0.08333141 T T T
    0.34258980    0.48148957    0.88890389 T T T
    0.37036842    0.50926568    0.80556872 T T T
    0.39814703    0.53704178    0.72223355 T T T
    0.53704011    0.67592230    0.30555769 T T T
    0.56481872    0.70369840    0.22222252 T T T
    0.59259734    0.73147451    0.13888735 T T T
    0.62037595    0.75925061    0.05555218 T T T
    0.55246449    0.28395657    0.89816468 T T T
    0.58024310    0.31173267    0.81482951 T T T
    0.60802172    0.33950878    0.73149434 T T T
    0.74691479    0.47838930    0.31481848 T T T
    0.77469340    0.50616540    0.23148331 T T T
    0.50616958    0.37654888    0.87038545 T T T
    0.53394820    0.40432499    0.78705028 T T T
    0.56172681    0.43210109    0.70371511 T T T
    0.70061989    0.57098161    0.28703925 T T T
    0.72839850    0.59875771    0.20370408 T T T
    0.43209607    0.44136509    0.92594140 F F F
    0.45987468    0.46914120    0.84260623 T T T
    0.48765330    0.49691730    0.75927105 T T T
    0.51543191    0.52469340    0.67593588 T T T
    0.65432499    0.66357392    0.25926003 T T T
    0.68210360    0.69135003    0.17592485 T T T
    0.41357978    0.56173351    0.81482700 T T T
    0.58025147    0.72839013    0.31481597 T T T
    0.64197075    0.24383209    0.93520219 F F F
    0.72530660    0.32716040    0.68519667 T T T
    0.59567585    0.33642440    0.90742296 T T T
    0.62345447    0.36420051    0.82408779 T T T
    0.65123308    0.39197661    0.74075262 T T T
    0.79012615    0.53085713    0.32407676 T T T
    0.81790477    0.55863323    0.24074159 T T T
    0.54938095    0.42901672    0.87964373 T T T
    0.57715956    0.45679282    0.79630856 T T T
    0.60493818    0.48456892    0.71297339 T T T
    0.74383125    0.62344944    0.29629753 T T T
    0.77160987    0.65122555    0.21296236 T T T
    0.47530743    0.49383293    0.93519967 F F F
    0.50308605    0.52160903    0.85186450 T T T
    0.53086466    0.54938513    0.76852933 T T T
    0.55864328    0.57716124    0.68519416 T T T
    0.69753635    0.71604176    0.26851830 T T T
    0.72531497    0.74381786    0.18518313 T T T
    0.71296073    0.32407603    0.86112529 T T T
    0.74073935    0.35185213    0.77779012 T T T
    0.76851796    0.37962823    0.69445495 T T T
    0.90741103    0.51850875    0.27777909 T T T
    0.63888722    0.38889224    0.91668124 F F F
    0.66666583    0.41666834    0.83334606 T T T
    0.69444444    0.44444444    0.75001089 T T T
    0.72222306    0.47222055    0.66667572 T T T
    0.83333752    0.58332496    0.33333504 T T T
    0.86111613    0.61110107    0.24999987 T T T
    0.59259231    0.48148455    0.88890201 T T T
    0.62037093    0.50926065    0.80556684 T T T
    0.64814954    0.53703676    0.72223167 T T T
    0.78704262    0.67591728    0.30555581 T T T
    0.81482123    0.70369338    0.22222064 T T T
    0.80246700    0.28395155    0.89816280 T T T
    0.83024561    0.31172765    0.81482763 T T T
    0.85802423    0.33950376    0.73149245 T T T
    0.75617210    0.37654386    0.87038357 T T T
    0.78395071    0.40431996    0.78704840 T T T
    0.81172932    0.43209607    0.70371323 T T T
    0.68209858    0.44136007    0.92593951 F F F
    0.70987719    0.46913617    0.84260434 T T T
    0.73765581    0.49691228    0.75926917 T T T
    0.76543442    0.52468838    0.67593400 T T T
    0.66358229    0.56172849    0.81482512 T T T
    0.83025398    0.72838511    0.31481409 T T T
    0.89197326    0.24382707    0.93520030 F F F
    0.97530911    0.32715538    0.68519479 T T T
    0.84567836    0.33641938    0.90742108 T T T
    0.87345698    0.36419549    0.82408590 T T T
    0.90123559    0.39197159    0.74075073 T T T
    0.79938346    0.42901169    0.87964185 T T T
    0.82716207    0.45678780    0.79630668 T T T
    0.85494069    0.48456390    0.71297151 T T T
    0.72530994    0.49382790    0.93519779 F F F
    0.75308856    0.52160401    0.85186262 T T T
    0.78086717    0.54938011    0.76852745 T T T
    0.80864579    0.57715622    0.68519228 T T T
    0.12962489    0.49074772    0.36111991 T T T
    0.07406766    0.43519551    0.52779026 T T T
    0.04628904    0.40741940    0.61112543 T T T
    0.18518044    0.46296994    0.44445446 T T T
    0.13888554    0.55556225    0.41667523 T T T
    0.15740183    0.43519383    0.52778963 T T T
    0.11110693    0.52778615    0.50001040 T T T
    0.12962321    0.40741773    0.61112480 T T T
    0.08332831    0.50001004    0.58334557 T T T
    0.26851461    0.46296826    0.44445383 T T T
    0.22221971    0.55556058    0.41667460 T T T
    0.17592481    0.64815289    0.38889537 T T T
    0.24073600    0.43519216    0.52778900 T T T
    0.19444110    0.52778447    0.50000977 T T T
    0.14814620    0.62037679    0.47223055 T T T
    0.21295738    0.40741606    0.61112417 T T T
    0.16666248    0.50000837    0.58334494 T T T
    0.12036758    0.59260068    0.55556572 T T T
    0.37962740    0.49074269    0.36111803 T T T
    0.35184878    0.46296659    0.44445320 T T T
    0.30555388    0.55555890    0.41667397 T T T
    0.25925898    0.64815122    0.38889475 T T T
    0.32407017    0.43519049    0.52778837 T T T
    0.27777527    0.52778280    0.50000915 T T T
    0.23148037    0.62037511    0.47222992 T T T
    0.29629155    0.40741438    0.61112354 T T T
    0.24999665    0.50000670    0.58334432 T T T
    0.20370175    0.59259901    0.55556509 T T T
    0.17592314    0.56482290    0.63890026 T T T
    0.43518295    0.46296492    0.44445257 T T T
    0.38888805    0.55555723    0.41667335 T T T
    0.34259315    0.64814954    0.38889412 T T T
    0.40740434    0.43518881    0.52778774 T T T
    0.36110944    0.52778113    0.50000852 T T T
    0.31481454    0.62037344    0.47222929 T T T
    0.37962572    0.40741271    0.61112292 T T T
    0.33333082    0.50000502    0.58334369 T T T
    0.28703592    0.59259734    0.55556446 T T T
    0.51851712    0.46296324    0.44445195 T T T
    0.47222222    0.55555556    0.41667272 T T T
    0.42592732    0.64814787    0.38889349 T T T
    0.49073851    0.43518714    0.52778712 T T T
    0.44444361    0.52777945    0.50000789 T T T
    0.39814871    0.62037177    0.47222866 T T T
    0.46295989    0.40741103    0.61112229 T T T
    0.41666499    0.50000335    0.58334306 T T T
    0.37037009    0.59259566    0.55556383 T T T
    0.62962991    0.49073767    0.36111615 T T T
    0.60185129    0.46296157    0.44445132 T T T
    0.55555639    0.55555388    0.41667209 T T T
    0.50926149    0.64814620    0.38889286 T T T
    0.57407268    0.43518546    0.52778649 T T T
    0.52777778    0.52777778    0.50000726 T T T
    0.48148288    0.62037009    0.47222803 T T T
    0.54629406    0.40740936    0.61112166 T T T
    0.49999916    0.50000167    0.58334243 T T T
    0.45370426    0.59259399    0.55556321 T T T
    0.42592565    0.56481788    0.63889838 T T T
    0.68518546    0.46295989    0.44445069 T T T
    0.63889056    0.55555221    0.41667146 T T T
    0.59259566    0.64814452    0.38889224 T T T
    0.65740685    0.43518379    0.52778586 T T T
    0.61111195    0.52777610    0.50000663 T T T
    0.56481705    0.62036842    0.47222741 T T T
    0.62962823    0.40740769    0.61112103 T T T
    0.58333333    0.50000000    0.58334181 T T T
    0.53703843    0.59259231    0.55556258 T T T
    0.76851963    0.46295822    0.44445006 T T T
    0.72222473    0.55555053    0.41667084 T T T
    0.67592983    0.64814285    0.38889161 T T T
    0.74074102    0.43518212    0.52778523 T T T
    0.69444612    0.52777443    0.50000601 T T T
    0.64815122    0.62036674    0.47222678 T T T
    0.71296240    0.40740601    0.61112041 T T T
    0.66666750    0.49999833    0.58334118 T T T
    0.62037260    0.59259064    0.55556195 T T T
    0.87963242    0.49073265    0.36111426 T T T
    0.85185380    0.46295655    0.44444944 T T T
    0.80555890    0.55554886    0.41667021 T T T
    0.75926400    0.64814117    0.38889098 T T T
    0.82407519    0.43518044    0.52778461 T T T
    0.77778029    0.52777276    0.50000538 T T T
    0.73148539    0.62036507    0.47222615 T T T
    0.79629658    0.40740434    0.61111978 T T T
    0.75000167    0.49999665    0.58334055 T T T
    0.70370677    0.59258897    0.55556132 T T T
    0.67592816    0.56481286    0.63889649 T T T
    0.96296659    0.49073098    0.36111364 T T T
    0.93518797    0.46295487    0.44444881 T T T
    0.88889307    0.55554719    0.41666958 T T T
    0.90740936    0.43517877    0.52778398 T T T
    0.86111446    0.52777108    0.50000475 T T T
    0.81481956    0.62036340    0.47222552 T T T
    0.87963075    0.40740266    0.61111915 T T T
    0.83333584    0.49999498    0.58333992 T T T
    0.78704094    0.59258729    0.55556070 T T T
    0.99074353    0.43517710    0.52778335 T T T
    0.94444863    0.52776941    0.50000412 T T T
    0.96296492    0.40740099    0.61111852 T T T
    0.91667001    0.49999330    0.58333930 T T T
