Generated generic
1.0
    7.66857304    0.00000000    0.00000000
    3.83428652    6.64117907    0.00000000
    0.00000000    0.00000000   25.04545468
 Cu
 108
Selective dynamics
Direct
    0.11034640    0.10944363    0.00036550 F F F
    0.44273266    0.10937308    0.00008426 F F F
    0.77741184    0.10969893   -0.00058157 F F F
    0.11191454    0.44443494    0.00031381 F F F
    0.44812407    0.44148336   -0.00033001 F F F
    0.77560606    0.44414088   -0.00039205 F F F
    0.11314386    0.77505373   -0.00011249 F F F
    0.44689434    0.77719260   -0.00071152 F F F
    0.77711760    0.77994923   -0.00015810 F F F
    0.88879013    0.22021028    0.08389358 F F F
    0.22087665    0.22032576    0.08407170 F F F
    0.55606095    0.21998581    0.08287411 F F F
    0.88860472    0.55298717    0.08304406 F F F
    0.22252082    0.55673296    0.08258397 F F F
    0.55374753    0.55581100    0.08283186 F F F
    0.89168342    0.88792402    0.08381278 F F F
    0.22404602    0.88646770    0.08255465 F F F
    0.55745953    0.88606702    0.08299531 F F F
    0.00325970    0.99766832    0.16717610 F F F
    0.33183239    0.00097906    0.16626463 F F F
    0.66890408    0.99774628    0.16631365 F F F
    0.00349097    0.33084020    0.16634344 F F F
    0.33488061    0.33286979    0.16614606 F F F
    0.66654170    0.33051355    0.16602138 F F F
    0.99984626    0.66486965    0.16648289 F F F
    0.33614444    0.66477495    0.16634429 F F F
    0.66614120    0.66486848    0.16720497 F F F
    0.10911366    0.11044810    0.24946997 F F F
    0.44390720    0.10908776    0.24940377 F F F
    0.77604601    0.10996377    0.25004399 F F F
    0.10853460    0.44579484    0.24928033 F F F
    0.44451159    0.44569401    0.24944077 F F F
    0.77912368    0.44691823    0.24940514 F F F
    0.11097958    0.77500268    0.25002124 F F F
    0.44460451    0.77733866    0.25058901 F F F
    0.77468033    0.77934736    0.25012535 F F F
    0.89124429    0.22011428    0.33408174 F F F
    0.21967104    0.22341209    0.33392487 F F F
    0.55320324    0.22495175    0.33398814 F F F
    0.88959630    0.55345083    0.33411904 F F F
    0.22489543    0.55503604    0.33362870 F F F
    0.55259505    0.55641531    0.33389535 F F F
    0.89053177    0.88905850    0.33369375 F F F
    0.22358420    0.88986559    0.33349640 F F F
    0.55572791    0.88689530    0.33278661 F F F
    0.00146317    0.00127781    0.41644055 F F F
    0.33261322    0.00263571    0.41626104 F F F
    0.66464827    0.00013624    0.41664185 F F F
    0.00080423    0.33438978    0.41687214 F F F
    0.33179244    0.33631260    0.41625154 F F F
    0.66844190    0.33092214    0.41719578 F F F
    0.00053215    0.66474844    0.41592817 F F F
    0.33259988    0.66476493    0.41714917 F F F
    0.66677987    0.66523419    0.41736623 F F F
    0.42678368    0.11296209    0.49990519 F F T
    0.76267089    0.11275668    0.50051817 F F T
    0.09484504    0.11199067    0.50001206 F F T
    0.42825347    0.44367224    0.50034242 F F T
    0.76053688    0.44180771    0.49987101 F F T
    0.09350061    0.44734182    0.50044931 F F T
    0.42628052    0.77715484    0.50067236 F F T
    0.76067870    0.77949664    0.49924788 F F T
    0.09670728    0.77546642    0.50019238 F F T
    0.20722717    0.22397277    0.58306858 F F T
    0.54021736    0.22352607    0.58285696 F F T
    0.87000542    0.22174571    0.58323088 F F T
    0.20804732    0.55555795    0.58290153 F F T
    0.53593092    0.55834051    0.58270262 F F T
    0.87222927    0.55386656    0.58311393 F F T
    0.20410601    0.88986229    0.58320234 F F T
    0.53986331    0.88686111    0.58383170 F F T
    0.87441992    0.88613314    0.58382980 F F T
    0.31874968    0.00061451    0.66706915 F F T
    0.65065423    0.00267671    0.66699311 F F T
    0.98217673    0.00097487    0.66712821 F F T
    0.31619955    0.33406699    0.66694720 F F T
    0.65333472    0.33107139    0.66678084 F F T
    0.98624473    0.33246058    0.66641432 F F T
    0.31553960    0.66812819    0.66726879 F F T
    0.64831744    0.66615590    0.66733346 F F T
    0.98524523    0.66797405    0.66648015 F F T
    0.42988198    0.11082694    0.74953399 F F T
    0.75851570    0.11235233    0.74970916 F F T
    0.09482077    0.11374497    0.75042338 F F T
    0.42970577    0.44379383    0.74990946 F F T
    0.75945496    0.44516641    0.75035690 F F T
    0.09601216    0.44150763    0.74957199 F F T
    0.42785956    0.77496773    0.74927334 F F T
    0.76145775    0.77579932    0.74943863 F F T
    0.09486692    0.78049221    0.75019009 F F T
    0.20655147    0.21925638    0.83311115 F F T
    0.54143515    0.21981869    0.83294038 F F T
    0.87217856    0.22150636    0.83297796 F F T
    0.20215398    0.55783734    0.83325968 F F T
    0.53877848    0.55540430    0.83387960 F F T
    0.87199424    0.55544711    0.83277077 F F T
    0.20342986    0.88799521    0.83357770 F F T
    0.54021089    0.88717814    0.83341341 F F T
    0.87438724    0.88711547    0.83258967 F F T
    0.31618219    0.99906317    0.91738404 F F T
    0.65030583    0.99842806    0.91644095 F F T
    0.98173188    0.00272777    0.91655329 F F T
    0.32027255    0.33070843    0.91684394 F F T
    0.65212253    0.33239018    0.91587614 F F T
    0.98220653    0.33283389    0.91655855 F F T
    0.31412143    0.66854600    0.91664710 F F T
    0.64896118    0.66868966    0.91710033 F F T
    0.98222267    0.66880288    0.91599767 F F T
