Generated generic
1.0
    7.66857304    0.00000000    0.00000000
    3.83428652    6.64117907    0.00000000
    0.00000000    0.00000000   25.04545468
 Cu
 108
Selective dynamics
Direct
    0.10986487    0.11076596   -0.00023378 F F F
    0.44511630    0.11059892   -0.00002548 F F F
    0.77982463    0.11157999    0.00031856 F F F
    0.11273146    0.44356879   -0.00077973 F F F
    0.44546216    0.44488304    0.00061059 F F F
    0.77970835    0.44465413    0.00038198 F F F
    0.10947588    0.78049754    0.00043916 F F F
    0.44292026    0.77620777   -0.00068260 F F F
    0.77611289    0.77974087    0.00077816 F F F
    0.88988315    0.22085115    0.08286843 F F F
    0.21899647    0.22437965    0.08366245 F F F
    0.55600059    0.22469129    0.08381861 F F F
    0.88912416    0.55350150    0.08258537 F F F
    0.22281104    0.55817830    0.08400664 F F F
    0.55878256    0.55383205    0.08285887 F F F
    0.88990375    0.88823300    0.08363770 F F F
    0.22082641    0.89022618    0.08285700 F F F
    0.55597331    0.89018100    0.08307997 F F F
    0.00142692    0.99887056    0.16709340 F F F
    0.33409688    0.00035649    0.16668904 F F F
    0.66408134    0.00219585    0.16698063 F F F
    0.99874514    0.33612902    0.16741096 F F F
    0.33389516    0.33582445    0.16625604 F F F
    0.66800135    0.33106624    0.16616363 F F F
    0.00231333    0.66543349    0.16709408 F F F
    0.33295794    0.66692027    0.16683191 F F F
    0.66659761    0.66591243    0.16596276 F F F
    0.11222190    0.11108998    0.24945650 F F F
    0.44231183    0.11217047    0.25009200 F F F
    0.77922162    0.11041838    0.24935331 F F F
    0.10828310    0.44719316    0.24936166 F F F
    0.44666791    0.44303864    0.24967526 F F F
    0.77624363    0.44332266    0.24923803 F F F
    0.11221117    0.77526185    0.25026140 F F F
    0.44284803    0.77864399    0.24941995 F F F
    0.78055566    0.77739915    0.25051323 F F F
    0.88870953    0.22092203    0.33294648 F F F
    0.22601028    0.21968580    0.33292721 F F F
    0.55414161    0.22165407    0.33283104 F F F
    0.88629002    0.55831036    0.33333715 F F F
    0.22149196    0.55537298    0.33382977 F F F
    0.55673618    0.55690198    0.33352667 F F F
    0.89235413    0.88590019    0.33274079 F F F
    0.22264772    0.88897864    0.33351618 F F F
    0.55851020    0.88782964    0.33329846 F F F
    0.00120397    0.99922891    0.41663480 F F F
    0.33003332    0.00265629    0.41626063 F F F
    0.66732040    0.99779193    0.41647263 F F F
    0.99622240    0.33586235    0.41647659 F F F
    0.33382924    0.33197047    0.41698697 F F F
    0.66439187    0.33541741    0.41624951 F F F
    0.99898868    0.66837785    0.41715051 F F F
    0.33226420    0.66430997    0.41660805 F F F
    0.66540152    0.66643779    0.41592286 F F F
    0.11409947    0.37517629    0.50035711 F F T
    0.44534064    0.37682698    0.50010850 F F T
    0.77835798    0.37509291    0.49978053 F F T
    0.10726100    0.71367143    0.49953426 F F T
    0.44260798    0.71406964    0.50046130 F F T
    0.77769975    0.71150493    0.49920330 F F T
    0.11013578    0.04311135    0.49964848 F F T
    0.44420977    0.04344497    0.50041621 F F T
    0.77917075    0.04667030    0.49943260 F F T
    0.89132517    0.48732921    0.58411132 F F T
    0.22332083    0.48776403    0.58372149 F F T
    0.55508462    0.48669673    0.58335056 F F T
    0.88762742    0.82086839    0.58375793 F F T
    0.22469814    0.82007459    0.58319198 F F T
    0.55916175    0.81961529    0.58272474 F F T
    0.88920636    0.15587707    0.58381850 F F T
    0.22266326    0.15612097    0.58362794 F F T
    0.55783119    0.15357444    0.58377939 F F T
    0.99681314    0.26846786    0.66615428 F F T
    0.33546019    0.26499517    0.66700172 F F T
    0.66475660    0.26628048    0.66663512 F F T
    0.99622576    0.60239102    0.66657913 F F T
    0.33099786    0.60242622    0.66741744 F F T
    0.66775469    0.60172838    0.66745652 F F T
    0.99971317    0.93182236    0.66689349 F F T
    0.33204904    0.93472091    0.66589029 F F T
    0.66863337    0.93349820    0.66697782 F F T
    0.10750807    0.38019532    0.75050511 F F T
    0.44496855    0.37924792    0.75075065 F F T
    0.77888157    0.37709905    0.75018733 F F T
    0.10994948    0.70867328    0.74936140 F F T
    0.44120523    0.71352628    0.75050321 F F T
    0.77827899    0.71118129    0.75017007 F F T
    0.10981125    0.04428339    0.75078358 F F T
    0.44554036    0.04259752    0.74938921 F F T
    0.77639350    0.04260736    0.75027446 F F T
    0.89103164    0.48823458    0.83272029 F F T
    0.22173082    0.49033112    0.83401276 F F T
    0.55467083    0.48917671    0.83321785 F F T
    0.88903611    0.82346949    0.83256993 F F T
    0.22282133    0.82220718    0.83372320 F F T
    0.55712505    0.82319917    0.83264463 F F T
    0.88848507    0.15514008    0.83268011 F F T
    0.22214162    0.15825693    0.83381510 F F T
    0.55877074    0.15417406    0.83360410 F F T
    0.00094310    0.26790777    0.91677749 F F T
    0.33508134    0.26606713    0.91642916 F F T
    0.66862237    0.26454081    0.91606060 F F T
    0.99974415    0.60101191    0.91616847 F F T
    0.33555396    0.59920842    0.91634145 F F T
    0.66755919    0.60097085    0.91713837 F F T
    0.00001476    0.93218015    0.91743862 F F T
    0.33251638    0.93390203    0.91700704 F F T
    0.66435457    0.93426880    0.91656307 F F T
