Generated generic
1.0
    7.66857304    0.00000000    0.00000000
    3.83428652    6.64117907    0.00000000
    0.00000000    0.00000000   25.04545468
 Cu
 108
Selective dynamics
Direct
    0.11142373    0.11362017   -0.00043711 F F F
    0.44495116    0.11073337   -0.00024735 F F F
    0.77633781    0.11106717   -0.00014685 F F F
    0.11199652    0.44310645   -0.00052627 F F F
    0.44674676    0.44290279   -0.00007485 F F F
    0.77660805    0.44733003    0.00046419 F F F
    0.11020561    0.78074529   -0.00018565 F F F
    0.44376871    0.77547562    0.00020325 F F F
    0.77774080    0.77527433    0.00037379 F F F
    0.88741670    0.22407813    0.08372609 F F F
    0.22377549    0.22101615    0.08287967 F F F
    0.55380535    0.22264651    0.08362201 F F F
    0.88864525    0.55298292    0.08360190 F F F
    0.21974985    0.55549472    0.08306550 F F F
    0.55586654    0.55522147    0.08368129 F F F
    0.88873863    0.88753798    0.08404726 F F F
    0.22255403    0.89079112    0.08292845 F F F
    0.55789105    0.88588309    0.08365738 F F F
    0.00014311    0.99795798    0.16669779 F F F
    0.33573829    0.99750653    0.16593725 F F F
    0.66783186    0.99785768    0.16603532 F F F
    0.00133520    0.33056652    0.16636173 F F F
    0.33312946    0.33142956    0.16632207 F F F
    0.66914060    0.33139259    0.16667309 F F F
    0.00071368    0.66497585    0.16721646 F F F
    0.33500128    0.66572294    0.16603983 F F F
    0.66808104    0.66762171    0.16678878 F F F
    0.11442506    0.10880245    0.24941589 F F F
    0.44191038    0.11257835    0.24971782 F F F
    0.77661611    0.11056465    0.25009917 F F F
    0.11110068    0.44270581    0.25066991 F F F
    0.44722655    0.44171405    0.24968887 F F F
    0.77739246    0.44241669    0.25063457 F F F
    0.11139217    0.77914306    0.25010033 F F F
    0.44372077    0.77718712    0.25032885 F F F
    0.77655559    0.77628731    0.24997574 F F F
    0.88872815    0.22191348    0.33268901 F F F
    0.22196972    0.22269473    0.33391159 F F F
    0.55438540    0.22197322    0.33345465 F F F
    0.88982390    0.55561713    0.33293891 F F F
    0.22027812    0.55454425    0.33262678 F F F
    0.55493794    0.55623974    0.33283085 F F F
    0.88689555    0.89098958    0.33268103 F F F
    0.22104445    0.89018650    0.33319684 F F F
    0.55298859    0.89029239    0.33327778 F F F
    0.99817953    0.00221676    0.41713748 F F F
    0.33438191    0.99974438    0.41658738 F F F
    0.66837222    0.99820516    0.41625753 F F F
    0.00122769    0.33387794    0.41694091 F F F
    0.33472775    0.33254767    0.41643973 F F F
    0.66527659    0.33493997    0.41611248 F F F
    0.99705049    0.66818974    0.41604218 F F F
    0.33374150    0.66803601    0.41711467 F F F
    0.66789025    0.66810796    0.41638009 F F F
    0.24311619    0.37568406    0.50066994 F F T
    0.57781439    0.37770684    0.49937470 F F T
    0.91192825    0.37574168    0.50019424 F F T
    0.24528731    0.71338110    0.50031508 F F T
    0.57896613    0.71132719    0.50016931 F F T
    0.90895156    0.71209716    0.49978597 F F T
    0.24598861    0.04421846    0.50026685 F F T
    0.57977270    0.04234225    0.50063590 F F T
    0.91044216    0.04183288    0.50011681 F F T
    0.01944213    0.48933561    0.58278973 F F T
    0.35219620    0.49093648    0.58318034 F F T
    0.68728718    0.48829844    0.58409311 F F T
    0.02205776    0.82324811    0.58330478 F F T
    0.35444727    0.82269864    0.58385668 F F T
    0.68976837    0.82149921    0.58376753 F F T
    0.02496390    0.15349093    0.58328915 F F T
    0.35613191    0.15815679    0.58371748 F F T
    0.68950752    0.15764581    0.58308052 F F T
    0.13517580    0.26654562    0.66658829 F F T
    0.46657496    0.26522092    0.66600438 F F T
    0.79699264    0.26947401    0.66690730 F F T
    0.13177885    0.59957835    0.66708767 F F T
    0.46559579    0.60212797    0.66714878 F F T
    0.79723409    0.60031675    0.66744413 F F T
    0.13447896    0.93489360    0.66677266 F F T
    0.46372645    0.93505162    0.66661310 F F T
    0.80271208    0.93271103    0.66605064 F F T
    0.24084825    0.38038361    0.75040175 F F T
    0.58055734    0.37643661    0.74955471 F F T
    0.91278571    0.37540691    0.75001249 F F T
    0.24624337    0.71134959    0.75042452 F F T
    0.57751793    0.71082250    0.74922391 F F T
    0.90939137    0.70974367    0.75070375 F F T
    0.24524280    0.04578342    0.75045627 F F T
    0.57686768    0.04684661    0.74931798 F F T
    0.91115545    0.04400207    0.75031687 F F T
    0.02219963    0.49187663    0.83301834 F F T
    0.35540084    0.49036902    0.83334438 F F T
    0.68598776    0.49172488    0.83264928 F F T
    0.02239111    0.81978997    0.83254967 F F T
    0.35520320    0.81938428    0.83285675 F F T
    0.69012159    0.82138039    0.83268128 F F T
    0.02277137    0.15619978    0.83333977 F F T
    0.35758370    0.15622637    0.83279528 F F T
    0.69134143    0.15540637    0.83279129 F F T
    0.13171653    0.26891615    0.91589559 F F T
    0.46757844    0.26801278    0.91618022 F F T
    0.80115223    0.26663072    0.91701458 F F T
    0.13194677    0.60147375    0.91630619 F F T
    0.46861782    0.60067799    0.91726256 F F T
    0.79903191    0.59772486    0.91699000 F F T
    0.13471170    0.93340360    0.91620418 F F T
    0.46696596    0.93549765    0.91683136 F F T
    0.80049558    0.93419318    0.91680056 F F T
