Generated generic
1.0
    7.66857304    0.00000000    0.00000000
    3.83428652    6.64117907    0.00000000
    0.00000000    0.00000000   25.04545468
 Cu
 108
Selective dynamics
Direct
    0.11229547    0.11101397    0.00048724 F F F
    0.44797180    0.10820072    0.00014644 F F F
    0.77726397    0.11221314   -0.00079309 F F F
    0.10968257    0.44578782   -0.00005402 F F F
    0.44445141    0.44543511    0.00064768 F F F
    0.77958620    0.44260454    0.00071712 F F F
    0.11374230    0.77568726   -0.00018741 F F F
    0.44523638    0.77688598    0.00028889 F F F
    0.77981111    0.77592356    0.00046418 F F F
    0.89174271    0.22110669    0.08351904 F F F
    0.22386819    0.22299483    0.08271122 F F F
    0.55308519    0.22304489    0.08401650 F F F
    0.89163038    0.55400019    0.08280175 F F F
    0.22242562    0.55430286    0.08406895 F F F
    0.55404496    0.55443055    0.08350849 F F F
    0.88919137    0.88825735    0.08381305 F F F
    0.21959694    0.89120325    0.08312284 F F F
    0.55509942    0.89162817    0.08356285 F F F
    0.00072699    0.00047673    0.16725930 F F F
    0.33505943    0.99813710    0.16672649 F F F
    0.66908479    0.99939463    0.16620417 F F F
    0.99981300    0.33177862    0.16669067 F F F
    0.33374928    0.33221719    0.16610278 F F F
    0.66996011    0.33112817    0.16690558 F F F
    0.99967462    0.66587993    0.16598107 F F F
    0.33431250    0.66747191    0.16680267 F F F
    0.66805739    0.66733128    0.16742397 F F F
    0.10983490    0.10893584    0.25074058 F F F
    0.44206917    0.11388722    0.24981823 F F F
    0.77705282    0.10816998    0.24967678 F F F
    0.11377431    0.44147095    0.24977009 F F F
    0.44817941    0.44189545    0.24943148 F F F
    0.77997559    0.44375913    0.25002886 F F F
    0.11150863    0.77901915    0.25057288 F F F
    0.44675330    0.77478747    0.25064856 F F F
    0.77549867    0.77823932    0.24933207 F F F
    0.88833172    0.22227318    0.33281108 F F F
    0.21905088    0.22418918    0.33266952 F F F
    0.55663050    0.22368105    0.33330989 F F F
    0.88981041    0.55738991    0.33297340 F F F
    0.22223985    0.55268830    0.33399210 F F F
    0.55721444    0.55603547    0.33350647 F F F
    0.89146806    0.88628625    0.33374896 F F F
    0.22136977    0.88901484    0.33306976 F F F
    0.55237635    0.89080173    0.33348170 F F F
    0.00256496    0.99917318    0.41635477 F F F
    0.33424671    0.00259960    0.41653573 F F F
    0.66792978    0.99977276    0.41662027 F F F
    0.00112221    0.33304856    0.41682047 F F F
    0.33105637    0.33449176    0.41745698 F F F
    0.66672486    0.33581691    0.41603938 F F F
    0.00120135    0.66569814    0.41635058 F F F
    0.33100196    0.66734060    0.41616901 F F F
    0.66593289    0.66513510    0.41620120 F F F
    0.11042654    0.44381903    0.49972065 F F T
    0.44378077    0.44429182    0.50028724 F F T
    0.77645701    0.44414799    0.49954268 F F T
    0.11204984    0.77900489    0.50055242 F F T
    0.44678931    0.77752772    0.50042100 F F T
    0.78026566    0.77740030    0.50000435 F F T
    0.10918312    0.11394646    0.50009207 F F T
    0.44828103    0.10846354    0.49957103 F F T
    0.77511552    0.11303262    0.50015672 F F T
    0.88919962    0.55761861    0.58387586 F F T
    0.22323042    0.55778380    0.58366468 F F T
    0.55729020    0.55507302    0.58398721 F F T
    0.89168141    0.88824266    0.58264302 F F T
    0.22419292    0.88803692    0.58302360 F F T
    0.55469930    0.88818512    0.58360347 F F T
    0.88852410    0.22474122    0.58339843 F F T
    0.22494441    0.22040611    0.58342196 F F T
    0.55454453    0.22483640    0.58380292 F F T
    0.99877670    0.33492659    0.66707946 F F T
    0.33461387    0.33536786    0.66700147 F F T
    0.66382502    0.33583462    0.66726032 F F T
    0.99902278    0.66645220    0.66701372 F F T
    0.33384612    0.66738898    0.66718907 F F T
    0.66489284    0.66821013    0.66732255 F F T
    0.99901596    0.00179880    0.66708735 F F T
    0.33107635    0.00040301    0.66682209 F F T
    0.66854118    0.99942810    0.66645895 F F T
    0.11128776    0.44454617    0.75045877 F F T
    0.44453916    0.44190722    0.74954794 F F T
    0.77451879    0.44629500    0.74942710 F F T
    0.11146626    0.77801926    0.75026471 F F T
    0.44631093    0.77777026    0.74999896 F F T
    0.77515187    0.77796520    0.74997969 F F T
    0.11383830    0.10964102    0.74986067 F F T
    0.44541341    0.11089306    0.75034800 F F T
    0.77584505    0.11281574    0.74998033 F F T
    0.88919216    0.55763186    0.83347262 F F T
    0.22151591    0.55299259    0.83323377 F F T
    0.55638994    0.55797161    0.83283035 F F T
    0.89083402    0.88780340    0.83314780 F F T
    0.22342244    0.89015727    0.83279260 F F T
    0.55368158    0.89092637    0.83342218 F F T
    0.88784940    0.22300278    0.83340817 F F T
    0.22520638    0.21923798    0.83258165 F F T
    0.55592275    0.22272127    0.83384209 F F T
    0.99872827    0.33348954    0.91665045 F F T
    0.33478555    0.33419705    0.91655397 F F T
    0.66627734    0.33272198    0.91693966 F F T
    0.99742136    0.66666707    0.91730094 F F T
    0.33633670    0.66391068    0.91631764 F F T
    0.66654419    0.66625196    0.91601720 F F T
    0.00210097    0.00079461    0.91599852 F F T
    0.33420360    0.00184026    0.91614171 F F T
    0.66807837    0.99916345    0.91637914 F F T
