Generated generic
1.0
    7.66857304    0.00000000    0.00000000
    0.00000000    8.85490542    0.00000000
    0.00000000    0.00000000   25.04545468
 Cu
 144
Selective dynamics
Direct
    0.16738107    0.08229340   -0.00073311 F F F
    0.49747816    0.08474846    0.00065921 F F F
    0.83388956    0.08437003    0.00006967 F F F
    0.00226938    0.33476013   -0.00079417 F F F
    0.33519759    0.33122641    0.00036678 F F F
    0.66497486    0.33497391    0.00006622 F F F
    0.16562195    0.58298409   -0.00075332 F F F
    0.49804023    0.58410409    0.00023508 F F F
    0.83393519    0.58280787    0.00079409 F F F
    0.00250808    0.83417148    0.00024030 F F F
    0.33431629    0.83283156   -0.00058279 F F F
    0.66782197    0.83344787   -0.00030306 F F F
    0.99992612    0.16842609    0.08402654 F F F
    0.33259158    0.16698979    0.08304884 F F F
    0.66715854    0.16593447    0.08316024 F F F
    0.16870237    0.41543416    0.08353008 F F F
    0.49783018    0.41816931    0.08379186 F F F
    0.83197386    0.41836735    0.08262832 F F F
    0.99914517    0.66508688    0.08325402 F F F
    0.33487899    0.66544990    0.08261787 F F F
    0.66616880    0.66530477    0.08267973 F F F
    0.16708569    0.91575732    0.08360803 F F F
    0.49843264    0.91866381    0.08311790 F F F
    0.83127556    0.91724988    0.08401554 F F F
    0.99968900    0.00205351    0.16666650 F F F
    0.33294332    0.00054304    0.16745738 F F F
    0.66900840    0.99981951    0.16707828 F F F
    0.16665322    0.25013241    0.16712309 F F F
    0.49955484    0.25105923    0.16700388 F F F
    0.83558700    0.24826055    0.16703243 F F F
    0.00222948    0.50211375    0.16589161 F F F
    0.33523011    0.50217369    0.16739688 F F F
    0.66483459    0.50213499    0.16728943 F F F
    0.16834820    0.74990960    0.16623924 F F F
    0.50157464    0.75191320    0.16629315 F F F
    0.83353642    0.74974140    0.16735504 F F F
    0.16426993    0.08438137    0.25018267 F F F
    0.49753991    0.08432361    0.24922699 F F F
    0.83467883    0.08339097    0.25068532 F F F
    0.99773665    0.33487516    0.24930796 F F F
    0.33252124    0.33301847    0.25074435 F F F
    0.66699127    0.33224406    0.24958743 F F F
    0.16869113    0.58209501    0.24940038 F F F
    0.49889591    0.58372237    0.25008639 F F F
    0.83494881    0.58360652    0.24966209 F F F
    0.99954566    0.83477037    0.25020204 F F F
    0.33572793    0.83274340    0.25008403 F F F
    0.66715658    0.83490666    0.24943379 F F F
    0.99951235    0.16851856    0.33260357 F F F
    0.33501660    0.16628443    0.33386006 F F F
    0.66411054    0.16605704    0.33266036 F F F
    0.16746272    0.41564508    0.33365699 F F F
    0.50231491    0.41498090    0.33391592 F F F
    0.83103546    0.41612807    0.33322118 F F F
    0.99994184    0.66881898    0.33377364 F F F
    0.33233632    0.66562696    0.33391327 F F F
    0.66865560    0.66671503    0.33308466 F F F
    0.16924820    0.91583523    0.33282659 F F F
    0.50198263    0.91807757    0.33360147 F F F
    0.83572446    0.91858973    0.33372981 F F F
    0.00188145    0.99885779    0.41609370 F F F
    0.33422039    0.00096949    0.41613492 F F F
    0.66612188    0.00185324    0.41676473 F F F
    0.16707527    0.24861830    0.41670823 F F F
    0.50012224    0.24814311    0.41743638 F F F
    0.83370574    0.24777032    0.41710211 F F F
    0.00249468    0.50040597    0.41637868 F F F
    0.33170334    0.50077935    0.41617972 F F F
    0.66707189    0.50046184    0.41740520 F F F
    0.16443556    0.74999988    0.41705651 F F F
    0.49831638    0.74949437    0.41596857 F F F
    0.83451155    0.74813784    0.41649912 F F F
    0.30194833    0.08320821    0.50065900 F F T
    0.63472038    0.08520946    0.49940493 F F T
    0.96444233    0.08139238    0.50058910 F F T
    0.13403265    0.33331785    0.49946265 F F T
    0.46757288    0.33251127    0.50033680 F F T
    0.79979321    0.33336708    0.50046262 F F T
    0.29787572    0.58368911    0.49951646 F F T
    0.63494060    0.58328295    0.50078049 F F T
    0.96501287    0.58542492    0.50048059 F F T
    0.13323559    0.83474965    0.50016426 F F T
    0.46747579    0.83520209    0.49930570 F F T
    0.80174733    0.83279946    0.49972138 F F T
    0.13591022    0.16793688    0.58331023 F F T
    0.46626309    0.16837207    0.58267344 F F T
    0.80108713    0.16797286    0.58381118 F F T
    0.29907303    0.41800667    0.58289466 F F T
    0.63261512    0.41629376    0.58339947 F F T
    0.96464602    0.41624632    0.58253527 F F T
    0.13460805    0.66825619    0.58275667 F F T
    0.46772963    0.66811718    0.58410286 F F T
    0.80179324    0.66632384    0.58409944 F F T
    0.30247235    0.91668328    0.58373811 F F T
    0.63549195    0.91655892    0.58391433 F F T
    0.96771807    0.91573577    0.58376080 F F T
    0.13370203    0.99816529    0.66649319 F F T
    0.46444326    0.99989234    0.66655254 F F T
    0.79960221    0.00038984    0.66606407 F F T
    0.30226258    0.25083141    0.66718378 F F T
    0.63540309    0.25037638    0.66593235 F F T
    0.96776980    0.25031181    0.66718725 F F T
    0.13350109    0.50141501    0.66746044 F F T
    0.46588715    0.49851391    0.66649366 F F T
    0.80131993    0.49972548    0.66680782 F F T
    0.29805627    0.75102146    0.66631544 F F T
    0.63171957    0.75163954    0.66676954 F F T
    0.96658581    0.75180159    0.66600549 F F T
    0.30102316    0.08255628    0.74948160 F F T
    0.63424510    0.08271366    0.74972833 F F T
    0.96898093    0.08197498    0.75001944 F F T
    0.13085054    0.33181268    0.75061236 F F T
    0.46817541    0.33359007    0.74955673 F F T
    0.80030122    0.33112957    0.75034017 F F T
    0.30113059    0.58399306    0.75017782 F F T
    0.63110980    0.58218778    0.75011879 F F T
    0.96611473    0.58555594    0.75067676 F F T
    0.13151817    0.83373971    0.75031337 F F T
    0.46477084    0.83248678    0.75034484 F F T
    0.80209222    0.83261844    0.74958307 F F T
    0.13501183    0.16705056    0.83329594 F F T
    0.46539472    0.16473625    0.83256336 F F T
    0.80041713    0.16527133    0.83409281 F F T
    0.29795256    0.41645024    0.83316509 F F T
    0.63193704    0.41779036    0.83356284 F F T
    0.96784424    0.41478210    0.83309815 F F T
    0.13343678    0.66633565    0.83259966 F F T
    0.46507069    0.66867696    0.83279442 F F T
    0.80183634    0.66812185    0.83315972 F F T
    0.29982674    0.91813027    0.83362191 F F T
    0.63509086    0.91783030    0.83363881 F F T
    0.96882078    0.91812487    0.83282077 F F T
    0.13462809    0.99813293    0.91654825 F F T
    0.46612811    0.99865461    0.91736604 F F T
    0.79788632    0.99776350    0.91638385 F F T
    0.30255977    0.24893706    0.91719482 F F T
    0.63162826    0.25039019    0.91739879 F F T
    0.96779602    0.25217058    0.91678574 F F T
    0.13585445    0.50152253    0.91711106 F F T
    0.46869307    0.50059398    0.91643727 F F T
    0.80014752    0.49876453    0.91710993 F F T
    0.29827910    0.75034872    0.91672400 F F T
    0.63422999    0.75117669    0.91604352 F F T
    0.96731837    0.74961132    0.91684906 F F T
