Generated generic
1.0
    7.66857304    0.00000000    0.00000000
    0.00000000    8.85490542    0.00000000
    0.00000000    0.00000000   25.04545468
 Cu
 144
Selective dynamics
Direct
    0.16593591    0.08381699    0.00022568 F F F
    0.49787671    0.08121243   -0.00056440 F F F
    0.83255838    0.08420908   -0.00029943 F F F
    0.99908447    0.33223410   -0.00059390 F F F
    0.33564152    0.33432338    0.00031854 F F F
    0.66763804    0.33377596   -0.00056842 F F F
    0.16833156    0.58488451    0.00019746 F F F
    0.49848083    0.58402537    0.00062943 F F F
    0.83578087    0.58225406    0.00023078 F F F
    0.99900813    0.83466870    0.00020836 F F F
    0.33534380    0.83554425    0.00076220 F F F
    0.66553887    0.83223488    0.00046021 F F F
    0.00158426    0.16785381    0.08360292 F F F
    0.33092550    0.16737952    0.08290045 F F F
    0.66500951    0.16507038    0.08365623 F F F
    0.16869808    0.41641178    0.08341970 F F F
    0.50213770    0.41807817    0.08368145 F F F
    0.83112704    0.41888905    0.08362048 F F F
    0.99818374    0.66671456    0.08333711 F F F
    0.33135715    0.66870081    0.08361306 F F F
    0.66905178    0.66693561    0.08304729 F F F
    0.16611747    0.91846982    0.08274849 F F F
    0.50250380    0.91751553    0.08263468 F F F
    0.83273507    0.91711804    0.08258386 F F F
    0.99955458    0.00104885    0.16690531 F F F
    0.33590725    0.99877986    0.16710409 F F F
    0.66591101    0.00011905    0.16670474 F F F
    0.16633129    0.25059043    0.16700063 F F F
    0.49975726    0.25083742    0.16645581 F F F
    0.83304213    0.25139294    0.16661153 F F F
    0.99973385    0.49972899    0.16664068 F F F
    0.33281131    0.50185739    0.16728714 F F F
    0.66538888    0.49909747    0.16716146 F F F
    0.16569135    0.74901391    0.16655813 F F F
    0.49968924    0.74826637    0.16691110 F F F
    0.83109741    0.74784681    0.16623778 F F F
    0.16728368    0.08328365    0.25057053 F F F
    0.50097357    0.08511752    0.24995346 F F F
    0.83477393    0.08264973    0.24970587 F F F
    0.00013740    0.33281939    0.24952225 F F F
    0.33367124    0.33272675    0.25002886 F F F
    0.66731386    0.33516266    0.24921623 F F F
    0.16698195    0.58145822    0.25042297 F F F
    0.49841200    0.58155798    0.25055288 F F F
    0.83491756    0.58382364    0.25061309 F F F
    0.00049172    0.83478554    0.24986717 F F F
    0.33245699    0.83119734    0.25055681 F F F
    0.66686825    0.83117407    0.24949501 F F F
    0.00130318    0.16628167    0.33308044 F F F
    0.33548322    0.16544134    0.33329446 F F F
    0.66915704    0.16839461    0.33376659 F F F
    0.16912115    0.41503663    0.33254245 F F F
    0.50000441    0.41878646    0.33410451 F F F
    0.83106429    0.41622350    0.33264724 F F F
    0.99804386    0.66752382    0.33355698 F F F
    0.33164033    0.66546978    0.33278851 F F F
    0.66842483    0.66514276    0.33270892 F F F
    0.16553528    0.91617187    0.33411259 F F F
    0.49935921    0.91705929    0.33282069 F F F
    0.83484288    0.91568181    0.33290254 F F F
    0.00002225    0.99938453    0.41715740 F F F
    0.33190850    0.99999304    0.41638559 F F F
    0.66901793    0.99795294    0.41598297 F F F
    0.16708968    0.24814363    0.41642982 F F F
    0.50123991    0.25188871    0.41609033 F F F
    0.83158455    0.25139821    0.41699520 F F F
    0.99861423    0.49948092    0.41638538 F F F
    0.33378784    0.49805589    0.41725451 F F F
    0.66678738    0.50164544    0.41601082 F F F
    0.16522313    0.74855194    0.41616732 F F F
    0.50051503    0.75095051    0.41660385 F F F
    0.83207018    0.75147880    0.41714101 F F F
    0.16860382    0.27244941    0.49975781 F F T
    0.50227394    0.27290144    0.50056448 F F T
    0.83324950    0.27071336    0.49933495 F F T
    0.00085926    0.51959609    0.49949091 F F T
    0.33079922    0.51868299    0.49940883 F F T
    0.66608845    0.52276725    0.49978450 F F T
    0.16442834    0.77223615    0.50069662 F F T
    0.49994786    0.77212494    0.50013535 F F T
    0.83536353    0.77064679    0.49993157 F F T
    0.99804658    0.02191300    0.49964016 F F T
    0.33480518    0.01948774    0.49929202 F F T
    0.66590359    0.02001018    0.49931787 F F T
    0.99815779    0.35362456    0.58387333 F F T
    0.33431845    0.35561678    0.58288392 F F T
    0.66686550    0.35208108    0.58255044 F F T
    0.16615349    0.60497889    0.58313905 F F T
    0.50255221    0.60338044    0.58331420 F F T
    0.83482063    0.60603671    0.58372065 F F T
    0.00006020    0.85333420    0.58311832 F F T
    0.33262454    0.85289740    0.58361361 F F T
    0.66892881    0.85625682    0.58311242 F F T
    0.16880815    0.10272813    0.58390714 F F T
    0.50136628    0.10436892    0.58396652 F F T
    0.83472051    0.10551982    0.58260218 F F T
    0.99756815    0.18870955    0.66630828 F F T
    0.33368971    0.18582614    0.66682513 F F T
    0.66897206    0.18533839    0.66653626 F F T
    0.16792410    0.43572247    0.66620890 F F T
    0.49984942    0.43549145    0.66689099 F F T
    0.83466113    0.43567464    0.66693497 F F T
    0.00180771    0.68897403    0.66664284 F F T
    0.33584307    0.68832639    0.66676453 F F T
    0.66478807    0.68942659    0.66712016 F F T
    0.16845301    0.93865287    0.66686998 F F T
    0.50071866    0.93823989    0.66667098 F F T
    0.83207666    0.93722085    0.66643986 F F T
    0.16617642    0.27103709    0.74957328 F F T
    0.49958586    0.27007280    0.75020631 F F T
    0.83300321    0.27243782    0.75051694 F F T
    0.99795562    0.51990440    0.74978037 F F T
    0.33540831    0.51925844    0.75022234 F F T
    0.66843534    0.52210497    0.75035361 F F T
    0.16823300    0.76982046    0.75074262 F F T
    0.49821043    0.77076715    0.75056973 F F T
    0.83112026    0.76901192    0.74957232 F F T
    0.00111052    0.01931010    0.75039342 F F T
    0.33317171    0.02097965    0.74986834 F F T
    0.66724892    0.02062903    0.75075883 F F T
    0.00193160    0.35231003    0.83333391 F F T
    0.33496072    0.35553046    0.83262758 F F T
    0.66612497    0.35230304    0.83322174 F F T
    0.16698962    0.60488331    0.83352286 F F T
    0.50040144    0.60419706    0.83350311 F F T
    0.83075877    0.60282153    0.83372146 F F T
    0.00067365    0.85504309    0.83394858 F F T
    0.33347067    0.85493845    0.83409835 F F T
    0.66774757    0.85444668    0.83347819 F F T
    0.16697748    0.10603231    0.83397356 F F T
    0.50161224    0.10575414    0.83382165 F F T
    0.83529380    0.10330815    0.83286275 F F T
    0.00022357    0.18848665    0.91710442 F F T
    0.33588670    0.18836482    0.91689884 F F T
    0.66630754    0.18827618    0.91738576 F F T
    0.16633416    0.43613729    0.91726476 F F T
    0.49791064    0.43534539    0.91673611 F F T
    0.83073724    0.43946365    0.91686552 F F T
    0.00093575    0.68869186    0.91587521 F F T
    0.33500842    0.68759130    0.91700984 F F T
    0.66775246    0.68775212    0.91678627 F F T
    0.16792870    0.93919822    0.91605030 F F T
    0.49985740    0.93643212    0.91720958 F F T
    0.83116159    0.93746898    0.91616951 F F T
