Generated generic
1.0
    7.66857304    0.00000000    0.00000000
    0.00000000    8.85490542    0.00000000
    0.00000000    0.00000000   25.04545468
 Cu
 144
Selective dynamics
Direct
    0.16427014    0.08117093    0.00053685 F F F
    0.50117360    0.08233186   -0.00029820 F F F
    0.83246106    0.08329972    0.00051509 F F F
    0.99808187    0.33464866    0.00060169 F F F
    0.33535903    0.33442533   -0.00055671 F F F
    0.66492767    0.33328460   -0.00052571 F F F
    0.16896010    0.58417650    0.00067254 F F F
    0.50054331    0.58535575    0.00025364 F F F
    0.83094527    0.58461277   -0.00074330 F F F
    0.99814485    0.83368905    0.00043096 F F F
    0.33377965    0.83334406    0.00054291 F F F
    0.66861977    0.83513242   -0.00002827 F F F
    0.99758585    0.16650609    0.08313441 F F F
    0.33097020    0.16846281    0.08318925 F F F
    0.66666397    0.16545391    0.08364108 F F F
    0.16457402    0.41795764    0.08287504 F F F
    0.49818227    0.41668054    0.08351393 F F F
    0.83298045    0.41823548    0.08349773 F F F
    0.99916771    0.66476218    0.08387166 F F F
    0.33564934    0.66745932    0.08359356 F F F
    0.66457934    0.66854147    0.08391415 F F F
    0.16795419    0.91497431    0.08282294 F F F
    0.50152445    0.91538167    0.08273050 F F F
    0.83179420    0.91772243    0.08406970 F F F
    0.99872445    0.99903089    0.16746376 F F F
    0.33442287    0.99784753    0.16595379 F F F
    0.66469374    0.99866376    0.16615298 F F F
    0.16530932    0.24916125    0.16721068 F F F
    0.50102532    0.25048007    0.16676886 F F F
    0.83569733    0.24826893    0.16735672 F F F
    0.99740494    0.50098813    0.16706514 F F F
    0.33546106    0.49919350    0.16618387 F F F
    0.66742865    0.50081290    0.16719746 F F F
    0.16652663    0.75143868    0.16669552 F F F
    0.50150339    0.74926382    0.16601884 F F F
    0.83180648    0.75182171    0.16733550 F F F
    0.16858152    0.08248402    0.24956288 F F F
    0.49871877    0.08421000    0.24973995 F F F
    0.83187280    0.08160581    0.24985013 F F F
    0.99914257    0.33487384    0.25036636 F F F
    0.33304485    0.33277318    0.24964918 F F F
    0.66459371    0.33425988    0.24957171 F F F
    0.16692006    0.58248499    0.25002025 F F F
    0.49856006    0.58485428    0.24961988 F F F
    0.83208124    0.58232523    0.24931070 F F F
    0.00040633    0.83509141    0.25029646 F F F
    0.33090687    0.83374108    0.25060639 F F F
    0.66529973    0.83486241    0.24994699 F F F
    0.00083973    0.16464462    0.33366681 F F F
    0.33294398    0.16698829    0.33407235 F F F
    0.66668737    0.16780885    0.33338752 F F F
    0.16881840    0.41794445    0.33303340 F F F
    0.50119439    0.41600867    0.33271105 F F F
    0.83122372    0.41707237    0.33338927 F F F
    0.99991310    0.66511229    0.33273333 F F F
    0.33415839    0.66789114    0.33346001 F F F
    0.66641241    0.66837842    0.33299527 F F F
    0.16764203    0.91715554    0.33368182 F F F
    0.50001416    0.91716008    0.33334682 F F F
    0.83457092    0.91848715    0.33395417 F F F
    0.00069394    0.00128259    0.41698296 F F F
    0.33422201    0.00094787    0.41729792 F F F
    0.66662126    0.99905733    0.41736586 F F F
    0.16536564    0.25192965    0.41660934 F F F
    0.49998435    0.24879773    0.41623377 F F F
    0.83456700    0.25000558    0.41624021 F F F
    0.99790578    0.50185434    0.41743741 F F F
    0.33140936    0.50118322    0.41725739 F F F
    0.66430279    0.50013498    0.41690498 F F F
    0.16874664    0.75218673    0.41621267 F F F
    0.50172267    0.75050740    0.41641953 F F F
    0.83351444    0.75062357    0.41591720 F F F
    0.50059687    0.33230258    0.50033210 F F T
    0.83588330    0.33379277    0.50003682 F F T
    0.16453662    0.33532061    0.50055746 F F T
    0.33319216    0.58361581    0.49938548 F F T
    0.66621836    0.58534196    0.50016921 F F T
    0.00188868    0.58185859    0.50023738 F F T
    0.50177504    0.83402937    0.50019967 F F T
    0.83255036    0.83412039    0.49957136 F F T
    0.16646981    0.83196075    0.49967899 F F T
    0.33322917    0.08121795    0.50038062 F F T
    0.66693450    0.08249401    0.49936435 F F T
    0.99806738    0.08389740    0.49929647 F F T
    0.33559834    0.41876439    0.58377847 F F T
    0.66523759    0.41789902    0.58357528 F F T
    0.99747153    0.41640363    0.58358819 F F T
    0.50063683    0.66528088    0.58340874 F F T
    0.83577849    0.66690587    0.58280728 F F T
    0.16724470    0.66585936    0.58274734 F F T
    0.33261008    0.91837314    0.58307852 F F T
    0.66676375    0.91846893    0.58410353 F F T
    0.00076939    0.91643654    0.58337571 F F T
    0.49868506    0.16758171    0.58385507 F F T
    0.83313318    0.16869893    0.58398075 F F T
    0.16753115    0.16623500    0.58331624 F F T
    0.33164131    0.24912780    0.66633456 F F T
    0.66559967    0.25218172    0.66622697 F F T
    0.99743441    0.24921779    0.66697252 F F T
    0.49977179    0.49858222    0.66639865 F F T
    0.83531289    0.49789141    0.66726249 F F T
    0.16670398    0.49914715    0.66642757 F F T
    0.33445461    0.75199712    0.66637884 F F T
    0.66524428    0.74894195    0.66619474 F F T
    0.99929710    0.75204977    0.66630467 F F T
    0.49746167    0.00208079    0.66610174 F F T
    0.83111389    0.00213715    0.66600208 F F T
    0.16810984    0.99884928    0.66693200 F F T
    0.49929694    0.33412361    0.75076915 F F T
    0.83518834    0.33493876    0.75041253 F F T
    0.16859198    0.33289688    0.75014750 F F T
    0.33359945    0.58440349    0.75042218 F F T
    0.66791806    0.58491734    0.74956034 F F T
    0.00004397    0.58371051    0.74972970 F F T
    0.50205077    0.83163201    0.74984250 F F T
    0.83096563    0.83152406    0.74965358 F F T
    0.16479861    0.83141692    0.74962889 F F T
    0.33114629    0.08496544    0.75002100 F F T
    0.66734307    0.08229543    0.75078611 F F T
    0.00085676    0.08409562    0.74942336 F F T
    0.33366515    0.41637663    0.83267418 F F T
    0.66839192    0.41489743    0.83296289 F F T
    0.99796647    0.41833755    0.83358013 F F T
    0.50166639    0.66844037    0.83319062 F F T
    0.83583507    0.66714302    0.83382334 F F T
    0.16764370    0.66860691    0.83275176 F F T
    0.33174164    0.91692447    0.83361391 F F T
    0.66791415    0.91806638    0.83356597 F F T
    0.00108960    0.91633566    0.83351255 F F T
    0.49811393    0.16490447    0.83355619 F F T
    0.83236797    0.16655730    0.83299271 F F T
    0.16666412    0.16578831    0.83399801 F F T
    0.33216810    0.25184058    0.91600989 F F T
    0.66472979    0.25033433    0.91614636 F F T
    0.99795651    0.24775398    0.91734737 F F T
    0.49956421    0.50205988    0.91718526 F F T
    0.83532481    0.49822187    0.91636982 F F T
    0.16427642    0.49965742    0.91664983 F F T
    0.33423154    0.75106478    0.91643726 F F T
    0.66634545    0.74810999    0.91742135 F F T
    0.00019985    0.74975736    0.91702147 F F T
    0.49847353    0.00170536    0.91674948 F F T
    0.83445154    0.99872686    0.91612884 F F T
    0.16644246    0.99950995    0.91732408 F F T
