Generated generic
1.0
    7.66857304    0.00000000    0.00000000
    0.00000000    8.85490542    0.00000000
    0.00000000    0.00000000   25.04545468
 Cu
 144
Selective dynamics
Direct
    0.16649176    0.08212332   -0.00018448 F F F
    0.50218838    0.08167733   -0.00075980 F F F
    0.83302763    0.08314959   -0.00010799 F F F
    0.00012867    0.33177729    0.00007563 F F F
    0.33520903    0.33290046   -0.00001704 F F F
    0.66907336    0.33454662    0.00010928 F F F
    0.16631964    0.58147264   -0.00045335 F F F
    0.49934126    0.58260010    0.00049982 F F F
    0.83536227    0.58403723   -0.00064409 F F F
    0.99982318    0.83409587    0.00021849 F F F
    0.33341310    0.83429200   -0.00007988 F F F
    0.66567312    0.83321606   -0.00018092 F F F
    0.00128614    0.16876012    0.08352152 F F F
    0.33363396    0.16467061    0.08269657 F F F
    0.66705255    0.16632158    0.08383643 F F F
    0.16723023    0.41569860    0.08257728 F F F
    0.49995995    0.41763499    0.08302603 F F F
    0.83343214    0.41599750    0.08313915 F F F
    0.00167702    0.66616042    0.08350775 F F F
    0.33313733    0.66563926    0.08352768 F F F
    0.66921331    0.66533598    0.08321765 F F F
    0.16601592    0.91782678    0.08266728 F F F
    0.49742123    0.91445144    0.08398494 F F F
    0.83283713    0.91493127    0.08268857 F F F
    0.00242873    0.99838333    0.16647847 F F F
    0.33247476    0.99906153    0.16679533 F F F
    0.66607514    0.00122392    0.16594025 F F F
    0.16516346    0.24979539    0.16676416 F F F
    0.49945851    0.24950107    0.16734872 F F F
    0.83342913    0.25073594    0.16742292 F F F
    0.99946086    0.49909899    0.16628848 F F F
    0.33566225    0.49861996    0.16592139 F F F
    0.66776836    0.50121785    0.16587368 F F F
    0.16893887    0.75144915    0.16743060 F F F
    0.49777169    0.75110820    0.16595663 F F F
    0.83511716    0.74931052    0.16588768 F F F
    0.16513652    0.08140447    0.25015244 F F F
    0.49793442    0.08448370    0.25043625 F F F
    0.83581703    0.08508483    0.25072005 F F F
    0.00231619    0.33520136    0.25074343 F F F
    0.33498122    0.33133788    0.25003169 F F F
    0.66894370    0.33505512    0.24982409 F F F
    0.16919295    0.58184861    0.24975673 F F F
    0.50092610    0.58199158    0.24943758 F F F
    0.83499567    0.58427345    0.25033181 F F F
    0.00190684    0.83491407    0.24953135 F F F
    0.33191829    0.83554259    0.24989935 F F F
    0.66463060    0.83541098    0.24973477 F F F
    0.99837133    0.16549310    0.33263922 F F F
    0.33426004    0.16491845    0.33344806 F F F
    0.66717663    0.16444404    0.33301002 F F F
    0.16742857    0.41542403    0.33351956 F F F
    0.49746415    0.41482828    0.33379268 F F F
    0.83257114    0.41695529    0.33295135 F F F
    0.00142606    0.66716644    0.33404945 F F F
    0.33485989    0.66494901    0.33346247 F F F
    0.66565579    0.66651945    0.33318840 F F F
    0.16588945    0.91458988    0.33394847 F F F
    0.50207026    0.91499338    0.33388564 F F F
    0.83090819    0.91656718    0.33293284 F F F
    0.00079266    0.99874642    0.41652557 F F F
    0.33472708    0.00179063    0.41679365 F F F
    0.66694420    0.99826613    0.41682678 F F F
    0.16520869    0.24927804    0.41652214 F F F
    0.49960760    0.24956120    0.41622357 F F F
    0.83105197    0.25141969    0.41619575 F F F
    0.99810301    0.50199334    0.41601756 F F F
    0.33319308    0.50155878    0.41652537 F F F
    0.66832746    0.49850461    0.41745612 F F F
    0.16686238    0.75149840    0.41698357 F F F
    0.49740547    0.75172017    0.41616667 F F F
    0.83370603    0.74844978    0.41627189 F F F
    0.49993036    0.13481017    0.49968929 F F T
    0.83092592    0.13496034    0.49946310 F F T
    0.16791206    0.13192613    0.50003703 F F T
    0.33306443    0.38119638    0.50008680 F F T
    0.66587099    0.38401997    0.50049700 F F T
    0.99899012    0.38270994    0.49947527 F F T
    0.49790181    0.63142228    0.49999639 F F T
    0.83085312    0.63276549    0.50071946 F F T
    0.16757580    0.63554638    0.49942564 F F T
    0.33124666    0.88549010    0.49964692 F F T
    0.66647946    0.88438605    0.50058795 F F T
    0.99760465    0.88225393    0.50073272 F F T
    0.33507253    0.21799916    0.58280409 F F T
    0.66438174    0.21448094    0.58305271 F F T
    0.99952962    0.21843650    0.58328716 F F T
    0.49997134    0.46765358    0.58347584 F F T
    0.83582155    0.46858877    0.58289126 F F T
    0.16478470    0.46653209    0.58347258 F F T
    0.33593872    0.71869880    0.58358677 F F T
    0.66729960    0.71638580    0.58386154 F F T
    0.99982048    0.71696908    0.58396710 F F T
    0.49877834    0.96625563    0.58357052 F F T
    0.83483114    0.96547613    0.58359470 F F T
    0.16585896    0.96623755    0.58307744 F F T
    0.33230749    0.05052527    0.66651840 F F T
    0.66750537    0.05165989    0.66722923 F F T
    0.99843993    0.05060994    0.66597256 F F T
    0.50135738    0.29776648    0.66706940 F F T
    0.83415843    0.30082945    0.66598206 F F T
    0.16636570    0.29795685    0.66589586 F F T
    0.33404605    0.55060813    0.66626628 F F T
    0.66798131    0.55089907    0.66639156 F F T
    0.00040244    0.55208887    0.66710227 F F T
    0.50148070    0.79924836    0.66725883 F F T
    0.83166293    0.80125276    0.66730433 F F T
    0.16597384    0.80107031    0.66669874 F F T
    0.50253061    0.13397604    0.75057411 F F T
    0.83487640    0.13188293    0.74974468 F F T
    0.16923714    0.13327360    0.75046133 F F T
    0.33546294    0.38318216    0.74966820 F F T
    0.66639293    0.38485784    0.74930678 F F T
    0.99933386    0.38507721    0.74942116 F F T
    0.49741563    0.63247417    0.75006071 F F T
    0.83147553    0.63202451    0.75051048 F F T
    0.16765876    0.63521958    0.75075585 F F T
    0.33083822    0.88544022    0.74928729 F F T
    0.66858549    0.88558945    0.75008300 F F T
    0.99807269    0.88434297    0.75008579 F F T
    0.33094961    0.21465192    0.83372391 F F T
    0.66579954    0.21756310    0.83316407 F F T
    0.00157455    0.21544890    0.83382064 F F T
    0.50094604    0.46467794    0.83292629 F F T
    0.83144778    0.46702205    0.83409621 F F T
    0.16413195    0.46654327    0.83357416 F F T
    0.33306522    0.71751559    0.83340749 F F T
    0.66697717    0.71816456    0.83328024 F F T
    0.00004276    0.71795150    0.83293597 F F T
    0.50148399    0.96839913    0.83262909 F F T
    0.83510051    0.96793515    0.83375460 F F T
    0.16493471    0.96871570    0.83286605 F F T
    0.33469643    0.05096423    0.91586945 F F T
    0.66750385    0.04788878    0.91617358 F F T
    0.99930108    0.04987335    0.91740042 F F T
    0.50003300    0.30204439    0.91601709 F F T
    0.83348426    0.30137004    0.91606276 F F T
    0.16882866    0.30000607    0.91727884 F F T
    0.33368624    0.54949620    0.91668032 F F T
    0.66426182    0.54863871    0.91610874 F F T
    0.00100615    0.54888582    0.91745856 F F T
    0.50163711    0.80164467    0.91592609 F F T
    0.83282755    0.80073398    0.91640459 F F T
    0.16749131    0.79844817    0.91596847 F F T
