Generated generic
1.0
    7.66857304    0.00000000    0.00000000
    5.11238203    8.85490542    0.00000000
    0.00000000    0.00000000   70.96212159
 Cu
 408
Selective dynamics
Direct
    0.00000000    0.00000000    0.00000000 T T T
    0.33333333    0.00000000    0.00000000 T T T
    0.66666667    0.00000000    0.00000000 T T T
    0.00000000    0.25000000    0.00000000 T T T
    0.33333333    0.25000000    0.00000000 T T T
    0.66666667    0.25000000    0.00000000 T T T
    0.00000000    0.50000000    0.00000000 T T T
    0.33333333    0.50000000    0.00000000 T T T
    0.66666667    0.50000000    0.00000000 T T T
    0.00000000    0.75000000    0.00000000 T T T
    0.33333333    0.75000000    0.00000000 T T T
    0.66666667    0.75000000    0.00000000 T T T
    0.11111111    0.08333333    0.02941176 T T T
    0.44444444    0.08333333    0.02941176 T T T
    0.77777778    0.08333333    0.02941176 T T T
    0.11111111    0.33333333    0.02941176 T T T
    0.44444444    0.33333333    0.02941176 T T T
    0.77777778    0.33333333    0.02941176 T T T
    0.11111111    0.58333333    0.02941176 T T T
    0.44444444    0.58333333    0.02941176 T T T
    0.77777778    0.58333333    0.02941176 T T T
    0.11111111    0.83333333    0.02941176 T T T
    0.44444444    0.83333333    0.02941176 T T T
    0.77777778    0.83333333    0.02941176 T T T
    0.22222222    0.16666667    0.05882353 T T T
    0.55555556    0.16666667    0.05882353 T T T
    0.88888889    0.16666667    0.05882353 T T T
    0.22222222    0.41666667    0.05882353 T T T
    0.55555556    0.41666667    0.05882353 T T T
    0.88888889    0.41666667    0.05882353 T T T
    0.22222222    0.66666667    0.05882353 T T T
    0.55555556    0.66666667    0.05882353 T T T
    0.88888889    0.66666667    0.05882353 T T T
    0.22222222    0.91666667    0.05882353 T T T
    0.55555556    0.91666667    0.05882353 T T T
    0.88888889    0.91666667    0.05882353 T T T
    0.00000000    0.00000000    0.08823529 T T T
    0.33333333    0.00000000    0.08823529 T T T
    0.66666667    0.00000000    0.08823529 T T T
    0.00000000    0.25000000    0.08823529 T T T
    0.33333333    0.25000000    0.08823529 T T T
    0.66666667    0.25000000    0.08823529 T T T
    0.00000000    0.50000000    0.08823529 T T T
    0.33333333    0.50000000    0.08823529 T T T
    0.66666667    0.50000000    0.08823529 T T T
    0.00000000    0.75000000    0.08823529 T T T
    0.33333333    0.75000000    0.08823529 T T T
    0.66666667    0.75000000    0.08823529 T T T
    0.11111111    0.08333333    0.11764706 T T T
    0.44444444    0.08333333    0.11764706 T T T
    0.77777778    0.08333333    0.11764706 T T T
    0.11111111    0.33333333    0.11764706 T T T
    0.44444444    0.33333333    0.11764706 T T T
    0.77777778    0.33333333    0.11764706 T T T
    0.11111111    0.58333333    0.11764706 T T T
    0.44444444    0.58333333    0.11764706 T T T
    0.77777778    0.58333333    0.11764706 T T T
    0.11111111    0.83333333    0.11764706 T T T
    0.44444444    0.83333333    0.11764706 T T T
    0.77777778    0.83333333    0.11764706 T T T
    0.22222222    0.16666667    0.14705882 T T T
    0.55555556    0.16666667    0.14705882 T T T
    0.88888889    0.16666667    0.14705882 T T T
    0.22222222    0.41666667    0.14705882 T T T
    0.55555556    0.41666667    0.14705882 T T T
    0.88888889    0.41666667    0.14705882 T T T
    0.22222222    0.66666667    0.14705882 T T T
    0.55555556    0.66666667    0.14705882 T T T
    0.88888889    0.66666667    0.14705882 T T T
    0.22222222    0.91666667    0.14705882 T T T
    0.55555556    0.91666667    0.14705882 T T T
    0.88888889    0.91666667    0.14705882 T T T
    0.00000000    0.00000000    0.17647059 T T T
    0.33333333    0.00000000    0.17647059 T T T
    0.66666667    0.00000000    0.17647059 T T T
    0.00000000    0.25000000    0.17647059 T T T
    0.33333333    0.25000000    0.17647059 T T T
    0.66666667    0.25000000    0.17647059 T T T
    0.00000000    0.50000000    0.17647059 T T T
    0.33333333    0.50000000    0.17647059 T T T
    0.66666667    0.50000000    0.17647059 T T T
    0.00000000    0.75000000    0.17647059 T T T
    0.33333333    0.75000000    0.17647059 T T T
    0.66666667    0.75000000    0.17647059 T T T
    0.11111111    0.08333333    0.20588235 T T T
    0.44444444    0.08333333    0.20588235 T T T
    0.77777778    0.08333333    0.20588235 T T T
    0.11111111    0.33333333    0.20588235 T T T
    0.44444444    0.33333333    0.20588235 T T T
    0.77777778    0.33333333    0.20588235 T T T
    0.11111111    0.58333333    0.20588235 T T T
    0.44444444    0.58333333    0.20588235 T T T
    0.77777778    0.58333333    0.20588235 T T T
    0.11111111    0.83333333    0.20588235 T T T
    0.44444444    0.83333333    0.20588235 T T T
    0.77777778    0.83333333    0.20588235 T T T
    0.22222222    0.16666667    0.23529412 T T T
    0.55555556    0.16666667    0.23529412 T T T
    0.88888889    0.16666667    0.23529412 T T T
    0.22222222    0.41666667    0.23529412 T T T
    0.55555556    0.41666667    0.23529412 T T T
    0.88888889    0.41666667    0.23529412 T T T
    0.22222222    0.66666667    0.23529412 T T T
    0.55555556    0.66666667    0.23529412 T T T
    0.88888889    0.66666667    0.23529412 T T T
    0.22222222    0.91666667    0.23529412 T T T
    0.55555556    0.91666667    0.23529412 T T T
    0.88888889    0.91666667    0.23529412 T T T
    0.00000000    0.00000000    0.26470588 T T T
    0.33333333    0.00000000    0.26470588 T T T
    0.66666667    0.00000000    0.26470588 T T T
    0.00000000    0.25000000    0.26470588 T T T
    0.33333333    0.25000000    0.26470588 T T T
    0.66666667    0.25000000    0.26470588 T T T
    0.00000000    0.50000000    0.26470588 T T T
    0.33333333    0.50000000    0.26470588 T T T
    0.66666667    0.50000000    0.26470588 T T T
    0.00000000    0.75000000    0.26470588 T T T
    0.33333333    0.75000000    0.26470588 T T T
    0.66666667    0.75000000    0.26470588 T T T
    0.22222222    0.16666667    0.29411765 T T T
    0.55555556    0.16666667    0.29411765 T T T
    0.88888889    0.16666667    0.29411765 T T T
    0.22222222    0.41666667    0.29411765 T T T
    0.55555556    0.41666667    0.29411765 T T T
    0.88888889    0.41666667    0.29411765 T T T
    0.22222222    0.66666667    0.29411765 T T T
    0.55555556    0.66666667    0.29411765 T T T
    0.88888889    0.66666667    0.29411765 T T T
    0.22222222    0.91666667    0.29411765 T T T
    0.55555556    0.91666667    0.29411765 T T T
    0.88888889    0.91666667    0.29411765 T T T
    0.11111111    0.08333333    0.32352941 T T T
    0.44444444    0.08333333    0.32352941 T T T
    0.77777778    0.08333333    0.32352941 T T T
    0.11111111    0.33333333    0.32352941 T T T
    0.44444444    0.33333333    0.32352941 T T T
    0.77777778    0.33333333    0.32352941 T T T
    0.11111111    0.58333333    0.32352941 T T T
    0.44444444    0.58333333    0.32352941 T T T
    0.77777778    0.58333333    0.32352941 T T T
    0.11111111    0.83333333    0.32352941 T T T
    0.44444444    0.83333333    0.32352941 T T T
    0.77777778    0.83333333    0.32352941 T T T
    0.00000000    0.00000000    0.35294118 T T T
    0.33333333    0.00000000    0.35294118 T T T
    0.66666667    0.00000000    0.35294118 T T T
    0.00000000    0.25000000    0.35294118 T T T
    0.33333333    0.25000000    0.35294118 T T T
    0.66666667    0.25000000    0.35294118 T T T
    0.00000000    0.50000000    0.35294118 T T T
    0.33333333    0.50000000    0.35294118 T T T
    0.66666667    0.50000000    0.35294118 T T T
    0.00000000    0.75000000    0.35294118 T T T
    0.33333333    0.75000000    0.35294118 T T T
    0.66666667    0.75000000    0.35294118 T T T
    0.22222222    0.16666667    0.38235294 T T T
    0.55555556    0.16666667    0.38235294 T T T
    0.88888889    0.16666667    0.38235294 T T T
    0.22222222    0.41666667    0.38235294 T T T
    0.55555556    0.41666667    0.38235294 T T T
    0.88888889    0.41666667    0.38235294 T T T
    0.22222222    0.66666667    0.38235294 T T T
    0.55555556    0.66666667    0.38235294 T T T
    0.88888889    0.66666667    0.38235294 T T T
    0.22222222    0.91666667    0.38235294 T T T
    0.55555556    0.91666667    0.38235294 T T T
    0.88888889    0.91666667    0.38235294 T T T
    0.11111111    0.08333333    0.41176471 T T T
    0.44444444    0.08333333    0.41176471 T T T
    0.77777778    0.08333333    0.41176471 T T T
    0.11111111    0.33333333    0.41176471 T T T
    0.44444444    0.33333333    0.41176471 T T T
    0.77777778    0.33333333    0.41176471 T T T
    0.11111111    0.58333333    0.41176471 T T T
    0.44444444    0.58333333    0.41176471 T T T
    0.77777778    0.58333333    0.41176471 T T T
    0.11111111    0.83333333    0.41176471 T T T
    0.44444444    0.83333333    0.41176471 T T T
    0.77777778    0.83333333    0.41176471 T T T
    0.00000000    0.00000000    0.44117647 T T T
    0.33333333    0.00000000    0.44117647 T T T
    0.66666667    0.00000000    0.44117647 T T T
    0.00000000    0.25000000    0.44117647 T T T
    0.33333333    0.25000000    0.44117647 T T T
    0.66666667    0.25000000    0.44117647 T T T
    0.00000000    0.50000000    0.44117647 T T T
    0.33333333    0.50000000    0.44117647 T T T
    0.66666667    0.50000000    0.44117647 T T T
    0.00000000    0.75000000    0.44117647 T T T
    0.33333333    0.75000000    0.44117647 T T T
    0.66666667    0.75000000    0.44117647 T T T
    0.22222222    0.16666667    0.47058824 T T T
    0.55555556    0.16666667    0.47058824 T T T
    0.88888889    0.16666667    0.47058824 T T T
    0.22222222    0.41666667    0.47058824 T T T
    0.55555556    0.41666667    0.47058824 T T T
    0.88888889    0.41666667    0.47058824 T T T
    0.22222222    0.66666667    0.47058824 T T T
    0.55555556    0.66666667    0.47058824 T T T
    0.88888889    0.66666667    0.47058824 T T T
    0.22222222    0.91666667    0.47058824 T T T
    0.55555556    0.91666667    0.47058824 T T T
    0.88888889    0.91666667    0.47058824 T T T
    0.11111111    0.08333333    0.50000000 T T T
    0.44444444    0.08333333    0.50000000 T T T
    0.77777778    0.08333333    0.50000000 T T T
    0.11111111    0.33333333    0.50000000 T T T
    0.44444444    0.33333333    0.50000000 T T T
    0.77777778    0.33333333    0.50000000 T T T
    0.11111111    0.58333333    0.50000000 T T T
    0.44444444    0.58333333    0.50000000 T T T
    0.77777778    0.58333333    0.50000000 T T T
    0.11111111    0.83333333    0.50000000 T T T
    0.44444444    0.83333333    0.50000000 T T T
    0.77777778    0.83333333    0.50000000 T T T
    0.00000000    0.00000000    0.52941176 T T T
    0.33333333    0.00000000    0.52941176 T T T
    0.66666667    0.00000000    0.52941176 T T T
    0.00000000    0.25000000    0.52941176 T T T
    0.33333333    0.25000000    0.52941176 T T T
    0.66666667    0.25000000    0.52941176 T T T
    0.00000000    0.50000000    0.52941176 T T T
    0.33333333    0.50000000    0.52941176 T T T
    0.66666667    0.50000000    0.52941176 T T T
    0.00000000    0.75000000    0.52941176 T T T
    0.33333333    0.75000000    0.52941176 T T T
    0.66666667    0.75000000    0.52941176 T T T
    0.22222222    0.16666667    0.55882353 T T T
    0.55555556    0.16666667    0.55882353 T T T
    0.88888889    0.16666667    0.55882353 T T T
    0.22222222    0.41666667    0.55882353 T T T
    0.55555556    0.41666667    0.55882353 T T T
    0.88888889    0.41666667    0.55882353 T T T
    0.22222222    0.66666667    0.55882353 T T T
    0.55555556    0.66666667    0.55882353 T T T
    0.88888889    0.66666667    0.55882353 T T T
    0.22222222    0.91666667    0.55882353 T T T
    0.55555556    0.91666667    0.55882353 T T T
    0.88888889    0.91666667    0.55882353 T T T
    0.11111111    0.08333333    0.58823529 T T T
    0.44444444    0.08333333    0.58823529 T T T
    0.77777778    0.08333333    0.58823529 T T T
    0.11111111    0.33333333    0.58823529 T T T
    0.44444444    0.33333333    0.58823529 T T T
    0.77777778    0.33333333    0.58823529 T T T
    0.11111111    0.58333333    0.58823529 T T T
    0.44444444    0.58333333    0.58823529 T T T
    0.77777778    0.58333333    0.58823529 T T T
    0.11111111    0.83333333    0.58823529 T T T
    0.44444444    0.83333333    0.58823529 T T T
    0.77777778    0.83333333    0.58823529 T T T
    0.00000000    0.00000000    0.61764706 T T T
    0.33333333    0.00000000    0.61764706 T T T
    0.66666667    0.00000000    0.61764706 T T T
    0.00000000    0.25000000    0.61764706 T T T
    0.33333333    0.25000000    0.61764706 T T T
    0.66666667    0.25000000    0.61764706 T T T
    0.00000000    0.50000000    0.61764706 T T T
    0.33333333    0.50000000    0.61764706 T T T
    0.66666667    0.50000000    0.61764706 T T T
    0.00000000    0.75000000    0.61764706 T T T
    0.33333333    0.75000000    0.61764706 T T T
    0.66666667    0.75000000    0.61764706 T T T
    0.22222222    0.16666667    0.64705882 T T T
    0.55555556    0.16666667    0.64705882 T T T
    0.88888889    0.16666667    0.64705882 T T T
    0.22222222    0.41666667    0.64705882 T T T
    0.55555556    0.41666667    0.64705882 T T T
    0.88888889    0.41666667    0.64705882 T T T
    0.22222222    0.66666667    0.64705882 T T T
    0.55555556    0.66666667    0.64705882 T T T
    0.88888889    0.66666667    0.64705882 T T T
    0.22222222    0.91666667    0.64705882 T T T
    0.55555556    0.91666667    0.64705882 T T T
    0.88888889    0.91666667    0.64705882 T T T
    0.11111111    0.08333333    0.67647059 T T T
    0.44444444    0.08333333    0.67647059 T T T
    0.77777778    0.08333333    0.67647059 T T T
    0.11111111    0.33333333    0.67647059 T T T
    0.44444444    0.33333333    0.67647059 T T T
    0.77777778    0.33333333    0.67647059 T T T
    0.11111111    0.58333333    0.67647059 T T T
    0.44444444    0.58333333    0.67647059 T T T
    0.77777778    0.58333333    0.67647059 T T T
    0.11111111    0.83333333    0.67647059 T T T
    0.44444444    0.83333333    0.67647059 T T T
    0.77777778    0.83333333    0.67647059 T T T
    0.22222222    0.16666667    0.70588235 T T T
    0.55555556    0.16666667    0.70588235 T T T
    0.88888889    0.16666667    0.70588235 T T T
    0.22222222    0.41666667    0.70588235 T T T
    0.55555556    0.41666667    0.70588235 T T T
    0.88888889    0.41666667    0.70588235 T T T
    0.22222222    0.66666667    0.70588235 T T T
    0.55555556    0.66666667    0.70588235 T T T
    0.88888889    0.66666667    0.70588235 T T T
    0.22222222    0.91666667    0.70588235 T T T
    0.55555556    0.91666667    0.70588235 T T T
    0.88888889    0.91666667    0.70588235 T T T
    0.00000000    0.00000000    0.73529412 T T T
    0.33333333    0.00000000    0.73529412 T T T
    0.66666667    0.00000000    0.73529412 T T T
    0.00000000    0.25000000    0.73529412 T T T
    0.33333333    0.25000000    0.73529412 T T T
    0.66666667    0.25000000    0.73529412 T T T
    0.00000000    0.50000000    0.73529412 T T T
    0.33333333    0.50000000    0.73529412 T T T
    0.66666667    0.50000000    0.73529412 T T T
    0.00000000    0.75000000    0.73529412 T T T
    0.33333333    0.75000000    0.73529412 T T T
    0.66666667    0.75000000    0.73529412 T T T
    0.11111111    0.08333333    0.76470588 T T T
    0.44444444    0.08333333    0.76470588 T T T
    0.77777778    0.08333333    0.76470588 T T T
    0.11111111    0.33333333    0.76470588 T T T
    0.44444444    0.33333333    0.76470588 T T T
    0.77777778    0.33333333    0.76470588 T T T
    0.11111111    0.58333333    0.76470588 T T T
    0.44444444    0.58333333    0.76470588 T T T
    0.77777778    0.58333333    0.76470588 T T T
    0.11111111    0.83333333    0.76470588 T T T
    0.44444444    0.83333333    0.76470588 T T T
    0.77777778    0.83333333    0.76470588 T T T
    0.22222222    0.16666667    0.79411765 T T T
    0.55555556    0.16666667    0.79411765 T T T
    0.88888889    0.16666667    0.79411765 T T T
    0.22222222    0.41666667    0.79411765 T T T
    0.55555556    0.41666667    0.79411765 T T T
    0.88888889    0.41666667    0.79411765 T T T
    0.22222222    0.66666667    0.79411765 T T T
    0.55555556    0.66666667    0.79411765 T T T
    0.88888889    0.66666667    0.79411765 T T T
    0.22222222    0.91666667    0.79411765 T T T
    0.55555556    0.91666667    0.79411765 T T T
    0.88888889    0.91666667    0.79411765 T T T
    0.00000000    0.00000000    0.82352941 T T T
    0.33333333    0.00000000    0.82352941 T T T
    0.66666667    0.00000000    0.82352941 T T T
    0.00000000    0.25000000    0.82352941 T T T
    0.33333333    0.25000000    0.82352941 T T T
    0.66666667    0.25000000    0.82352941 T T T
    0.00000000    0.50000000    0.82352941 T T T
    0.33333333    0.50000000    0.82352941 T T T
    0.66666667    0.50000000    0.82352941 T T T
    0.00000000    0.75000000    0.82352941 T T T
    0.33333333    0.75000000    0.82352941 T T T
    0.66666667    0.75000000    0.82352941 T T T
    0.11111111    0.08333333    0.85294118 T T T
    0.44444444    0.08333333    0.85294118 T T T
    0.77777778    0.08333333    0.85294118 T T T
    0.11111111    0.33333333    0.85294118 T T T
    0.44444444    0.33333333    0.85294118 T T T
    0.77777778    0.33333333    0.85294118 T T T
    0.11111111    0.58333333    0.85294118 T T T
    0.44444444    0.58333333    0.85294118 T T T
    0.77777778    0.58333333    0.85294118 T T T
    0.11111111    0.83333333    0.85294118 T T T
    0.44444444    0.83333333    0.85294118 T T T
    0.77777778    0.83333333    0.85294118 T T T
    0.22222222    0.16666667    0.88235294 T T T
    0.55555556    0.16666667    0.88235294 T T T
    0.88888889    0.16666667    0.88235294 T T T
    0.22222222    0.41666667    0.88235294 T T T
    0.55555556    0.41666667    0.88235294 T T T
    0.88888889    0.41666667    0.88235294 T T T
    0.22222222    0.66666667    0.88235294 T T T
    0.55555556    0.66666667    0.88235294 T T T
    0.88888889    0.66666667    0.88235294 T T T
    0.22222222    0.91666667    0.88235294 T T T
    0.55555556    0.91666667    0.88235294 T T T
    0.88888889    0.91666667    0.88235294 T T T
    0.00000000    0.00000000    0.91176471 T T T
    0.33333333    0.00000000    0.91176471 T T T
    0.66666667    0.00000000    0.91176471 T T T
    0.00000000    0.25000000    0.91176471 T T T
    0.33333333    0.25000000    0.91176471 T T T
    0.66666667    0.25000000    0.91176471 T T T
    0.00000000    0.50000000    0.91176471 T T T
    0.33333333    0.50000000    0.91176471 T T T
    0.66666667    0.50000000    0.91176471 T T T
    0.00000000    0.75000000    0.91176471 T T T
    0.33333333    0.75000000    0.91176471 T T T
    0.66666667    0.75000000    0.91176471 T T T
    0.11111111    0.08333333    0.94117647 T T T
    0.44444444    0.08333333    0.94117647 T T T
    0.77777778    0.08333333    0.94117647 T T T
    0.11111111    0.33333333    0.94117647 T T T
    0.44444444    0.33333333    0.94117647 T T T
    0.77777778    0.33333333    0.94117647 T T T
    0.11111111    0.58333333    0.94117647 T T T
    0.44444444    0.58333333    0.94117647 T T T
    0.77777778    0.58333333    0.94117647 T T T
    0.11111111    0.83333333    0.94117647 T T T
    0.44444444    0.83333333    0.94117647 T T T
    0.77777778    0.83333333    0.94117647 T T T
    0.22222222    0.16666667    0.97058824 T T T
    0.55555556    0.16666667    0.97058824 T T T
    0.88888889    0.16666667    0.97058824 T T T
    0.22222222    0.41666667    0.97058824 T T T
    0.55555556    0.41666667    0.97058824 T T T
    0.88888889    0.41666667    0.97058824 T T T
    0.22222222    0.66666667    0.97058824 T T T
    0.55555556    0.66666667    0.97058824 T T T
    0.88888889    0.66666667    0.97058824 T T T
    0.22222222    0.91666667    0.97058824 T T T
    0.55555556    0.91666667    0.97058824 T T T
    0.88888889    0.91666667    0.97058824 T T T
