Cu
 1.0000000000000000
     7.6685730419681093    0.0000000000000000    0.0000000000000000
     3.8342865209840546    6.6411790651208911    0.0000000000000000
     0.0000000000000000    0.0000000000000000   25.0454546774459672
 Cu 
 108
Direct
  0.1111111111111111  0.1111111111111111  0.0000000000000000
  0.0476190476190477  0.9999999999999999  0.6666666666666667
  0.7142857142857141  0.6666666666666666  0.6666666666666667
  0.3809523809523809  0.6666666666666666  0.6666666666666667
  0.0476190476190476  0.6666666666666666  0.6666666666666667
  0.7142857142857142  0.3333333333333333  0.6666666666666667
  0.3809523809523809  0.3333333333333333  0.6666666666666667
  0.0476190476190476  0.3333333333333333  0.6666666666666667
  0.6031746031746031  1.2222222222222221  0.5833333333333334
  0.2698412698412699  1.2222222222222221  0.5833333333333334
 -0.0634920634920634  1.2222222222222221  0.5833333333333334
  0.6031746031746031  0.8888888888888887  0.5833333333333334
  0.2698412698412699  0.8888888888888887  0.5833333333333334
 -0.0634920634920634  0.8888888888888887  0.5833333333333334
  0.6031746031746034  0.5555555555555555  0.5833333333333334
  0.2698412698412698  0.5555555555555555  0.5833333333333334
 -0.0634920634920635  0.5555555555555555  0.5833333333333334
  0.8253968253968251  1.1111111111111112  0.5000000000000000
  0.4920634920634918  1.1111111111111112  0.5000000000000000
  0.1587301587301587  1.1111111111111112  0.5000000000000000
  0.8253968253968252  0.7777777777777777  0.5000000000000000
  0.4920634920634921  0.7777777777777777  0.5000000000000000
  0.1587301587301588  0.7777777777777777  0.5000000000000000
  0.8253968253968252  0.4444444444444444  0.5000000000000000
  0.3809523809523810  0.9999999999999999  0.6666666666666667
  0.4920634920634921  0.4444444444444444  0.5000000000000000
  0.7142857142857141  0.9999999999999999  0.6666666666666667
  0.4920634920634921  0.4444444444444444  0.7500000000000001
  0.0476190476190477  0.9999999999999999  0.9166666666666669
  0.7142857142857141  0.6666666666666666  0.9166666666666669
  0.3809523809523809  0.6666666666666666  0.9166666666666669
  0.0476190476190476  0.6666666666666666  0.9166666666666669
  0.7142857142857142  0.3333333333333333  0.9166666666666669
  0.3809523809523809  0.3333333333333333  0.9166666666666669
  0.0476190476190476  0.3333333333333333  0.9166666666666669
  0.6031746031746031  1.2222222222222221  0.8333333333333335
  0.2698412698412699  1.2222222222222221  0.8333333333333335
 -0.0634920634920634  1.2222222222222221  0.8333333333333335
  0.6031746031746031  0.8888888888888887  0.8333333333333335
  0.2698412698412699  0.8888888888888887  0.8333333333333335
 -0.0634920634920634  0.8888888888888887  0.8333333333333335
  0.6031746031746034  0.5555555555555555  0.8333333333333335
  0.2698412698412698  0.5555555555555555  0.8333333333333335
 -0.0634920634920635  0.5555555555555555  0.8333333333333335
  0.8253968253968251  1.1111111111111112  0.7500000000000001
  0.4920634920634918  1.1111111111111112  0.7500000000000001
  0.1587301587301587  1.1111111111111112  0.7500000000000001
  0.8253968253968252  0.7777777777777777  0.7500000000000001
  0.4920634920634921  0.7777777777777777  0.7500000000000001
  0.1587301587301588  0.7777777777777777  0.7500000000000001
  0.8253968253968252  0.4444444444444444  0.7500000000000001
  0.1587301587301588  0.4444444444444444  0.7500000000000001
  0.1587301587301588  0.4444444444444444  0.5000000000000000
  0.6666666666666666  0.6666666666666666  0.4166666666666667
  0.3333333333333333  0.6666666666666666  0.4166666666666667
  0.6666666666666666  0.3333333333333333  0.1666666666666667
  0.3333333333333333  0.3333333333333333  0.1666666666666667
  0.0000000000000000  0.3333333333333333  0.1666666666666667
  0.6666666666666666  0.0000000000000000  0.1666666666666667
  0.3333333333333333  0.0000000000000000  0.1666666666666667
  0.0000000000000000  0.0000000000000000  0.1666666666666667
  0.5555555555555556  0.8888888888888887  0.0833333333333333
  0.2222222222222223  0.8888888888888887  0.0833333333333333
 -0.1111111111111110  0.8888888888888887  0.0833333333333333
  0.5555555555555556  0.5555555555555555  0.0833333333333333
  0.2222222222222222  0.5555555555555555  0.0833333333333333
 -0.1111111111111111  0.5555555555555555  0.0833333333333333
  0.5555555555555556  0.2222222222222222  0.0833333333333333
  0.2222222222222222  0.2222222222222222  0.0833333333333333
 -0.1111111111111111  0.2222222222222222  0.0833333333333333
  0.7777777777777776  0.7777777777777778  0.0000000000000000
  0.4444444444444444  0.7777777777777778  0.0000000000000000
  0.1111111111111111  0.7777777777777778  0.0000000000000000
  0.7777777777777778  0.4444444444444444  0.0000000000000000
  0.4444444444444444  0.4444444444444444  0.0000000000000000
  0.1111111111111111  0.4444444444444444  0.0000000000000000
  0.7777777777777778  0.1111111111111111  0.0000000000000000
  0.4444444444444444  0.1111111111111111  0.0000000000000000
  0.0000000000000000  0.6666666666666666  0.1666666666666667
  0.3333333333333333  0.6666666666666666  0.1666666666666667
  0.6666666666666666  0.6666666666666666  0.1666666666666667
  0.1111111111111111  0.1111111111111111  0.2500000000000000
  0.0000000000000000  0.6666666666666666  0.4166666666666667
  0.6666666666666666  0.3333333333333333  0.4166666666666667
  0.3333333333333333  0.3333333333333333  0.4166666666666667
  0.0000000000000000  0.3333333333333333  0.4166666666666667
  0.6666666666666666  0.0000000000000000  0.4166666666666667
  0.3333333333333333  0.0000000000000000  0.4166666666666667
  0.0000000000000000  0.0000000000000000  0.4166666666666667
  0.5555555555555556  0.8888888888888887  0.3333333333333334
  0.2222222222222223  0.8888888888888887  0.3333333333333334
 -0.1111111111111110  0.8888888888888887  0.3333333333333334
  0.5555555555555556  0.5555555555555555  0.3333333333333334
  0.3809523809523810  0.9999999999999999  0.9166666666666669
  0.2222222222222222  0.5555555555555555  0.3333333333333334
  0.5555555555555556  0.2222222222222222  0.3333333333333334
  0.2222222222222222  0.2222222222222222  0.3333333333333334
 -0.1111111111111111  0.2222222222222222  0.3333333333333334
  0.7777777777777776  0.7777777777777778  0.2500000000000000
  0.4444444444444444  0.7777777777777778  0.2500000000000000
  0.1111111111111111  0.7777777777777778  0.2500000000000000
  0.7777777777777778  0.4444444444444444  0.2500000000000000
  0.4444444444444444  0.4444444444444444  0.2500000000000000
  0.1111111111111111  0.4444444444444444  0.2500000000000000
  0.7777777777777778  0.1111111111111111  0.2500000000000000
  0.4444444444444444  0.1111111111111111  0.2500000000000000
 -0.1111111111111111  0.5555555555555555  0.3333333333333334
  0.7142857142857141  0.9999999999999999  0.9166666666666669
