Cu
 1.0000000000000000
     7.6685730419681093    0.0000000000000000    0.0000000000000000
     3.8342865209840546    6.6411790651208911    0.0000000000000000
     0.0000000000000000    0.0000000000000000   25.0450909090909093
 Cu 
 108
Direct
  0.1109099400189868  0.1117365533465220 -0.0000464094185694
  0.1661912949734312  0.6678066474598215  0.6674179879898420
  0.8340662336373340  0.3338436617427055  0.6667785789657538
  0.5014771126724998  0.3343269122567276  0.6671417015363853
  0.1645596882209052  0.3324571016682146  0.6661944449291516
  0.8358980463445465 -0.0020682251535776  0.6670784253087402
  0.4993142660494247 -0.0027528063686235  0.6668092785433363
  0.1667439047977731  0.0010698007676228  0.6673398349450588
  0.7188325025624432  0.8917851543621046  0.5838023953857937
  0.3882099780122156  0.8903504869922769  0.5831909001816148
  0.0549125567162164  0.8878338438124674  0.5835350809002725
  0.7235569609559764  0.5575033065563291  0.5832899866802779
  0.3881233388484724  0.5542036991043710  0.5837917188656637
  0.0546856164335505  0.5569590421940492  0.5825595716007239
  0.7254361121477189  0.2201296035972091  0.5828806225226422
  0.3898529931631984  0.2219676532208723  0.5828331262649422
  0.0576721953185031  0.2198056663920400  0.5828845336142630
  0.9469075367963412  0.7772400098833998  0.5003822046346642
  0.6115609492164025  0.7780433831871388  0.4997840252077614
  0.2749434215678957  0.7802175559858455  0.5001083260429420
  0.9445174645841025  0.4422919822897052  0.4996716528107094
  0.6130202828367471  0.4444482642201365  0.5003391603417365
  0.2769971852229281  0.4430491747116089  0.4997702945111133
  0.9442403479911540  0.1133432069537641  0.5003443576700036
  0.5000257010207352  0.6671482143316736  0.6659415345602409
  0.6123412001957780  0.1103589502378260  0.4998660776320428
  0.8316689430439489  0.6696335485771953  0.6662667201613527
  0.6093667616050146  0.1108936988912598  0.7492725205890677
  0.1662325204099021  0.6693874059026379  0.9161961241544245
  0.8343728445341047  0.3317873187877027  0.9173248535813667
  0.4988760320785617  0.3308536382825506  0.9162497092709732
  0.1655797402158479  0.3305222870343551  0.9173837547437765
  0.8369310428631429 -0.0022411332752513  0.9169801180933412
  0.5008213688166400  0.0017279761372356  0.9174773778361601
  0.1655942200658496  0.0023445206431379  0.9159541175522918
  0.7231952192466070  0.8871422858723379  0.8334775693964327
  0.3877591652976506  0.8861124984755577  0.8328622043573106
  0.0536809299633002  0.8881606869778229  0.8338348460614519
  0.7246202190747307  0.5546764355336192  0.8337648543867873
  0.3876663304803610  0.5563273551791464  0.8339942086895301
  0.0553398080889675  0.5528604018732529  0.8338282028413398
  0.7211672731432741  0.2208397336656653  0.8331825931809045
  0.3899701596052719  0.2214518845673706  0.8326912567638712
  0.0555571096366165  0.2236977905031621  0.8326437104263824
  0.9419185581569361  0.7779586850279299  0.7504286632832701
  0.6106556040743590  0.7755323731192625  0.7505444008373944
  0.2776434375601180  0.7754822022351481  0.7502442884931756
  0.9427819431888599  0.4473411971444097  0.7494736902970726
  0.6083519707638901  0.4461117930524642  0.7501995933453194
  0.2791377375009177  0.4429236253005636  0.7500628462843340
  0.9442918795555097  0.1133231835177314  0.7507836626728922
  0.2764956497234914  0.1128900244029323  0.7492860238643209
  0.2747876537993591  0.1139281721894443  0.4993190377534329
  0.6668020610682803  0.6670149540308931  0.4171549568486496
  0.3352978538797519  0.6645480662160275  0.4168171725942498
  0.6653584818624720  0.3341007696228280  0.1665594695309509
  0.3329145790271627  0.3330529812121826  0.1663085930172381
  0.0026238689375298  0.3314641351975874  0.1674364706273929
  0.6648081614253205  0.0009527740827507  0.1666958088619956
  0.3360335784389337 -0.0019002258723926  0.1661640016020502
  0.0009811924083433 -0.0017574780537703  0.1663479714188804
  0.5553084244721762  0.8918305841428135  0.0839609992674530
  0.2228158103947544  0.8881640217584003  0.0835013224684289
  0.8905114784224955  0.8902396955126290  0.0839037220646318
  0.5558443799488739  0.5528680755958209  0.0834426187894417
  0.2218059822870829  0.5559090288467121  0.0825405975157623
  0.8875448179536145  0.5574107544896354  0.0825511687728006
  0.5550491637232777  0.2195680290184507  0.0830381449217735
  0.2207980907901139  0.2212778662577365  0.0838328363368889
  0.8866226243899348  0.2248876806516495  0.0836582270604325
  0.7758904124914014  0.7765191151676796 -0.0001896793100096
  0.4420397630274324  0.7789768978341286 -0.0000842617074947
  0.1107060953785060  0.7801798062419278  0.0007582544338617
  0.7775239031867186  0.4426611058967407  0.0001997432325663
  0.4413691522659184  0.4473595628422246  0.0002715057678382
  0.1120886872037670  0.4462837095382570 -0.0004018788954805
  0.7758743336203977  0.1126390419180000  0.0000825259958828
  0.4428099495420746  0.1112843274953588 -0.0004934519440008
 -0.0009997020948072  0.6642491057287652  0.1659767001462185
  0.3331868054943403  0.6691270251998563  0.1665134355760944
  0.6674599648923840  0.6651120366167825  0.1669865037092671
  0.1118116427088876  0.1137336768079831  0.2495135829837250
 -0.0002622773139521  0.6659002612752855  0.4172820412659509
  0.6659662338399888  0.3335156357709424  0.4169440042008661
  0.3304533187034985  0.3352177693549673  0.4173285386610954
 -0.0005262462004419  0.3340683814897725  0.4168118060051043
  0.6667630927571273  0.0015206281301959  0.4168057833419331
  0.3330785666069156  0.0005422275963250  0.4169588385335561
  0.0014530764528789 -0.0022749036920355  0.4171055841823564
  0.5577786950294525  0.8863533422198815  0.3326757747657570
  0.2209265214403224  0.8880510556627487  0.3336250573471112
  0.8898324244981750  0.8861734979820454  0.3332371769655131
  0.5548393096253925  0.5547295710752478  0.3332471713199760
  0.4996202476162544  0.6651083462928605  0.9171092950898244
  0.2186011385488702  0.5583028509827795  0.3328581274573875
  0.5535076584160762  0.2225083211342002  0.3328660080628393
  0.2207846663606045  0.2216799727526441  0.3332931460469608
  0.8904575981336980  0.2207237467395619  0.3339540246884043
  0.7804019384943586  0.7767852714839962  0.2494488950786528
  0.4433302139634748  0.7770751872551077  0.2504851122317541
  0.1119811741045913  0.7754164132430028  0.2501106127005353
  0.7780100021433703  0.4430927569808701  0.2499452641567592
  0.4457309217157168  0.4456927080305275  0.2497601792813813
  0.1110476717363824  0.4462391446232495  0.2494163072361409
  0.7770724771376104  0.1118338517850755  0.2500509839862670
  0.4463121344024334  0.1121651025311856  0.2503880580639735
  0.8901992416339622  0.5558354395369437  0.3335543076292359
  0.8301075015734589  0.6683789856853792  0.9173144272379370
