Cu
 1.0000000000000000
     7.6685730419681093    0.0000000000000000    0.0000000000000000
     3.8342865209840546    6.6411790651208911    0.0000000000000000
     0.0000000000000000    0.0000000000000000   25.0450909090909093
 Cu 
 108
Direct
  0.1139151229020150  0.1085752931528999  0.0002757579789564
  0.0034650443628382  0.8805405080343680  0.6661944931420736
  0.6643941891989860  0.5516361493330270  0.6666039954463500
  0.3309809518086945  0.5513397168512716  0.6668542555307903
  0.0024514100214047  0.5474567450012164  0.6671051771751241
  0.6679321969663294  0.2165398572460022  0.6669956480393726
  0.3304790979179496  0.2177247457896387  0.6661132979424432
 -0.0030014277112038  0.2187891716242854  0.6671695986691577
  0.5579655272558850  0.1038162937053022  0.5834339868385624
  0.2187282278063828  0.1085163034560944  0.5831036033220079
  0.8893404803438710  0.1041512495621723  0.5825927504420425
  0.5543429213988834  0.7733158512831354  0.5834216925119542
  0.2228358518485915  0.7709519855877704  0.5835357834030064
  0.8870987782952705  0.7735250643017099  0.5839651220247704
  0.5549007464828672  0.4414283422248561  0.5836722187823317
  0.2222717278088013  0.4382448620596232  0.5831562401643668
  0.8892394836548898  0.4378001337867756  0.5826028529492990
  0.7747284960838517  0.9958273351953391  0.5001310462168466
  0.4420446984795803  0.9963535449192835  0.5004494443909351
  0.1088911061406389  0.9942324302850096  0.4996789008520882
  0.7802064076747502  0.6598512838717099  0.5006538178405162
  0.4424641032452549  0.6613782883995118  0.5004973266094037
  0.1105996979675107  0.6628577456405046  0.5005230161169947
  0.7759327131541146  0.3267678109389239  0.4998797107755633
  0.3306426716497841  0.8846907201757072  0.6672253518542565
  0.4477407072166107  0.3247737090561444  0.5004416721591081
  0.6643169767440850  0.8856141838194114  0.6662126617459060
  0.4428241455117788  0.3279258086983744  0.7495468667924131
 -0.0037091689132479  0.8856013637761326  0.9172417747045224
  0.6680960319619429  0.5485386250260156  0.9167844540814507
  0.3328024575458059  0.5506045587006775  0.9172945239815837
  0.0003013069156749  0.5519254559729337  0.9170260548918224
  0.6648070855906265  0.2188649001114965  0.9168650834257123
  0.3364161357690476  0.2156075120019587  0.9159921656548828
 -0.0019424517216938  0.2171230864016595  0.9167634782628818
  0.5538779107754200  0.1044202701288326  0.8327316484948876
  0.2209771854517147  0.1070282843442535  0.8331321288885249
  0.8910207608430684  0.1046897877156648  0.8340988223202010
  0.5578618063795551  0.7709995790488571  0.8338588035628787
  0.2234726291664549  0.7749204631236593  0.8336672676642478
  0.8918255015103499  0.7704501465872242  0.8332774548380084
  0.5566147652907618  0.4384955002219296  0.8334016622213247
  0.2231360667954243  0.4380355087779914  0.8334621203623824
  0.8870870477921605  0.4405721881461589  0.8326943251760355
  0.7747051990879465  0.9962826854375095  0.7494323828924070
  0.4455368755808731  0.9924137968174417  0.7498958103754888
  0.1086071571209861  0.9949816453245316  0.7505363297730938
  0.7800528075604098  0.6596753276682027  0.7506314053590828
  0.4419812887285005  0.6624738865764512  0.7495636147438652
  0.1112427592619539  0.6587354951690254  0.7503660177376297
  0.7746429726326037  0.3304987643392764  0.7492394683207797
  0.1135480413607867  0.3262564129572483  0.7505833668600993
  0.1127461184297677  0.3278607521183525  0.4993598593548611
  0.6658283252161863  0.6660803702443390  0.4163077217392965
  0.3344165869350887  0.6639405325528568  0.4159632249622350
  0.6627759450128937  0.3362666475762921  0.1666700199173926
  0.3307708776166352  0.3361379773254007  0.1662505549967793
  0.0029515275805925  0.3318617102760163  0.1662191141712944
  0.6663831838611056  0.0001279343784394  0.1666829505167351
  0.3306158214040570  0.0023748955722365  0.1663061387875023
  0.0007179778142069  0.0020051742873743  0.1667032229446104
  0.5527974531968188  0.8896133952285887  0.0832372498518730
  0.2194358166826459  0.8917064641993119  0.0825849431632378
  0.8881717225361715  0.8902109049208798  0.0834614741189577
  0.5561231577666383  0.5567128538679370  0.0836872835341108
  0.2239844403632097  0.5553557723918814  0.0837122566534352
  0.8896216107642857  0.5532119051082075  0.0828276792823870
  0.5572536534240786  0.2208818012309150  0.0827928754992108
  0.2217273661767643  0.2194463121844134  0.0828778300481016
  0.8903358402705198  0.2222262152411782  0.0834147544906758
  0.7780233919542489  0.7807094662933087  0.0004008331409070
  0.4446856179708688  0.7784202122406314 -0.0004808298352272
  0.1090147506825203  0.7790704723727385  0.0005149489109411
  0.7782296479225589  0.4471216891093576  0.0001528930244961
  0.4462656938842642  0.4459256945346461  0.0004894443550695
  0.1113818969650706  0.4444201592676486 -0.0006660079615153
  0.7776922199281356  0.1115318599808316  0.0004208582625969
  0.4435321741987667  0.1123886763847330 -0.0004160167507213
  0.0008544002415585  0.6638479468282796  0.1663840293143351
  0.3353556108400947  0.6674561817248464  0.1665502983592025
  0.6694289732187035  0.6654449148890023  0.1660294817300390
  0.1149132069600865  0.1083889301056639  0.2507296954388381
 -0.0013383809460479  0.6653490080257976  0.4162885188652468
  0.6650713890948114  0.3322994946937607  0.4165785495817193
  0.3349691058489312  0.3352169800903972  0.4169086522159897
  0.0007421087715457  0.3350215936296984  0.4166550788285547
  0.6683712997787259  0.0008863863571631  0.4164356179599358
  0.3320645438138146  0.0020194363331604  0.4163792485145912
 -0.0024973551482709  0.0000026035120893  0.4169539896586980
  0.5531913071693071  0.8896138701236121  0.3329628143480185
  0.2204236604164086  0.8899899277248715  0.3338330153372956
  0.8904659154832423  0.8869473811052146  0.3332458159615508
  0.5550911349372648  0.5566515211264969  0.3331493977269660
  0.3319396098543181  0.8830867553057434  0.9169024240317278
  0.2234444673230806  0.5540615738591785  0.3327880276188606
  0.5526397914859239  0.2239310385726673  0.3333425430078426
  0.2238608861370006  0.2206272778548245  0.3329649015784025
  0.8905287152213784  0.2215937919714187  0.3333895627406068
  0.7762236891372530  0.7757612284728020  0.2502749088581762
  0.4433530908584159  0.7765421039425463  0.2503955791565052
  0.1105178105196168  0.7785791422214722  0.2506650977000061
  0.7761009844796788  0.4466546326151579  0.2498728250984379
  0.4457637948648032  0.4437523042933052  0.2492391860883810
  0.1124735529259327  0.4443347869475096  0.2492716940346138
  0.7790454324884463  0.1088937509526549  0.2500409242765872
  0.4456957391879549  0.1125252014009021  0.2494203364144001
  0.8878611949970148  0.5545165463175955  0.3339465955407057
  0.6691897687296989  0.8820236442276979  0.9169703058012005
