Cu
1.0
    7.668573041968    0.000000000000    0.000000000000
    3.834286520984    6.641179065121    0.000000000000
    0.000000000000    0.000000000000   29.219697123687
 Cu
 126
Selective dynamics
Direct
    0.000000000000    0.000000000000    0.000000000000   T  T  T
    0.333333333333    0.000000000000    0.000000000000   T  T  T
    0.666666666667    0.000000000000    0.000000000000   T  T  T
    0.000000000000    0.333333333333    0.000000000000   T  T  T
    0.333333333333    0.333333333333    0.000000000000   T  T  T
    0.666666666667    0.333333333333    0.000000000000   T  T  T
    0.000000000000    0.666666666667    0.000000000000   T  T  T
    0.333333333333    0.666666666667    0.000000000000   T  T  T
    0.666666666667    0.666666666667    0.000000000000   T  T  T
    0.111111111111    0.111111111111    0.071428571429   T  T  T
    0.444444444444    0.111111111111    0.071428571429   T  T  T
    0.777777777778    0.111111111111    0.071428571429   T  T  T
    0.111111111111    0.444444444444    0.071428571429   T  T  T
    0.444444444444    0.444444444444    0.071428571429   T  T  T
    0.777777777778    0.444444444444    0.071428571429   T  T  T
    0.111111111111    0.777777777778    0.071428571429   T  T  T
    0.444444444444    0.777777777778    0.071428571429   T  T  T
    0.777777777778    0.777777777778    0.071428571429   T  T  T
    0.222222222222    0.222222222222    0.142857142857   T  T  T
    0.555555555556    0.222222222222    0.142857142857   T  T  T
    0.888888888889    0.222222222222    0.142857142857   T  T  T
    0.222222222222    0.555555555556    0.142857142857   T  T  T
    0.555555555556    0.555555555556    0.142857142857   T  T  T
    0.888888888889    0.555555555556    0.142857142857   T  T  T
    0.222222222222    0.888888888889    0.142857142857   T  T  T
    0.555555555556    0.888888888889    0.142857142857   T  T  T
    0.888888888889    0.888888888889    0.142857142857   T  T  T
    0.111111111111    0.111111111111    0.214285714286   T  T  T
    0.444444444444    0.111111111111    0.214285714286   T  T  T
    0.777777777778    0.111111111111    0.214285714286   T  T  T
    0.111111111111    0.444444444444    0.214285714286   T  T  T
    0.444444444444    0.444444444444    0.214285714286   T  T  T
    0.777777777778    0.444444444444    0.214285714286   T  T  T
    0.111111111111    0.777777777778    0.214285714286   T  T  T
    0.444444444444    0.777777777778    0.214285714286   T  T  T
    0.777777777778    0.777777777778    0.214285714286   T  T  T
    0.000000000000    0.000000000000    0.285714285714   T  T  T
    0.333333333333    0.000000000000    0.285714285714   T  T  T
    0.666666666667    0.000000000000    0.285714285714   T  T  T
    0.000000000000    0.333333333333    0.285714285714   T  T  T
    0.333333333333    0.333333333333    0.285714285714   T  T  T
    0.666666666667    0.333333333333    0.285714285714   T  T  T
    0.000000000000    0.666666666667    0.285714285714   T  T  T
    0.333333333333    0.666666666667    0.285714285714   T  T  T
    0.666666666667    0.666666666667    0.285714285714   T  T  T
    0.222222222222    0.222222222222    0.357142857143   T  T  T
    0.555555555556    0.222222222222    0.357142857143   T  T  T
    0.888888888889    0.222222222222    0.357142857143   T  T  T
    0.222222222222    0.555555555556    0.357142857143   T  T  T
    0.555555555556    0.555555555556    0.357142857143   T  T  T
    0.888888888889    0.555555555556    0.357142857143   T  T  T
    0.222222222222    0.888888888889    0.357142857143   T  T  T
    0.555555555556    0.888888888889    0.357142857143   T  T  T
    0.888888888889    0.888888888889    0.357142857143   T  T  T
    0.111111111111    0.111111111111    0.428571428571   T  T  T
    0.444444444444    0.111111111111    0.428571428571   T  T  T
    0.777777777778    0.111111111111    0.428571428571   T  T  T
    0.111111111111    0.444444444444    0.428571428571   T  T  T
    0.444444444444    0.444444444444    0.428571428571   T  T  T
    0.777777777778    0.444444444444    0.428571428571   T  T  T
    0.111111111111    0.777777777778    0.428571428571   T  T  T
    0.444444444444    0.777777777778    0.428571428571   T  T  T
    0.777777777778    0.777777777778    0.428571428571   T  T  T
    0.000000000000    0.000000000000    0.500000000000   T  T  T
    0.333333333333    0.000000000000    0.500000000000   T  T  T
    0.666666666667    0.000000000000    0.500000000000   T  T  T
    0.000000000000    0.333333333333    0.500000000000   T  T  T
    0.333333333333    0.333333333333    0.500000000000   T  T  T
    0.666666666667    0.333333333333    0.500000000000   T  T  T
    0.000000000000    0.666666666667    0.500000000000   T  T  T
    0.333333333333    0.666666666667    0.500000000000   T  T  T
    0.666666666667    0.666666666667    0.500000000000   T  T  T
    0.222222222222    0.222222222222    0.571428571429   T  T  T
    0.555555555556    0.222222222222    0.571428571429   T  T  T
    0.888888888889    0.222222222222    0.571428571429   T  T  T
    0.222222222222    0.555555555556    0.571428571429   T  T  T
    0.555555555556    0.555555555556    0.571428571429   T  T  T
    0.888888888889    0.555555555556    0.571428571429   T  T  T
    0.222222222222    0.888888888889    0.571428571429   T  T  T
    0.555555555556    0.888888888889    0.571428571429   T  T  T
    0.888888888889    0.888888888889    0.571428571429   T  T  T
    0.111111111111    0.111111111111    0.642857142857   T  T  T
    0.444444444444    0.111111111111    0.642857142857   T  T  T
    0.777777777778    0.111111111111    0.642857142857   T  T  T
    0.111111111111    0.444444444444    0.642857142857   T  T  T
    0.444444444444    0.444444444444    0.642857142857   T  T  T
    0.777777777778    0.444444444444    0.642857142857   T  T  T
    0.111111111111    0.777777777778    0.642857142857   T  T  T
    0.444444444444    0.777777777778    0.642857142857   T  T  T
    0.777777777778    0.777777777778    0.642857142857   T  T  T
    0.000000000000    0.000000000000    0.714285714286   T  T  T
    0.333333333333    0.000000000000    0.714285714286   T  T  T
    0.666666666667    0.000000000000    0.714285714286   T  T  T
    0.000000000000    0.333333333333    0.714285714286   T  T  T
    0.333333333333    0.333333333333    0.714285714286   T  T  T
    0.666666666667    0.333333333333    0.714285714286   T  T  T
    0.000000000000    0.666666666667    0.714285714286   T  T  T
    0.333333333333    0.666666666667    0.714285714286   T  T  T
    0.666666666667    0.666666666667    0.714285714286   T  T  T
    0.111111111111    0.111111111111    0.785714285714   T  T  T
    0.444444444444    0.111111111111    0.785714285714   T  T  T
    0.777777777778    0.111111111111    0.785714285714   T  T  T
    0.111111111111    0.444444444444    0.785714285714   T  T  T
    0.444444444444    0.444444444444    0.785714285714   T  T  T
    0.777777777778    0.444444444444    0.785714285714   T  T  T
    0.111111111111    0.777777777778    0.785714285714   T  T  T
    0.444444444444    0.777777777778    0.785714285714   T  T  T
    0.777777777778    0.777777777778    0.785714285714   T  T  T
    0.222222222222    0.222222222222    0.857142857143   T  T  T
    0.555555555556    0.222222222222    0.857142857143   T  T  T
    0.888888888889    0.222222222222    0.857142857143   T  T  T
    0.222222222222    0.555555555556    0.857142857143   T  T  T
    0.555555555556    0.555555555556    0.857142857143   T  T  T
    0.888888888889    0.555555555556    0.857142857143   T  T  T
    0.222222222222    0.888888888889    0.857142857143   T  T  T
    0.555555555556    0.888888888889    0.857142857143   T  T  T
    0.888888888889    0.888888888889    0.857142857143   T  T  T
    0.000000000000    0.000000000000    0.928571428571   T  T  T
    0.333333333333    0.000000000000    0.928571428571   T  T  T
    0.666666666667    0.000000000000    0.928571428571   T  T  T
    0.000000000000    0.333333333333    0.928571428571   T  T  T
    0.333333333333    0.333333333333    0.928571428571   T  T  T
    0.666666666667    0.333333333333    0.928571428571   T  T  T
    0.000000000000    0.666666666667    0.928571428571   T  T  T
    0.333333333333    0.666666666667    0.928571428571   T  T  T
    0.666666666667    0.666666666667    0.928571428571   T  T  T
