Cu
 1.0000000000000000
    17.0466579229179374    0.0000000000000000    0.0000000000000000
     0.0000000000000000   13.4200526594957399    0.0000000000000000
     0.0000000000000000    0.0000000000000000   14.7108450848768406
 Cu 
 268
Cartesian
  4.1824863069892633  1.1291787151241213  7.3663354229276603
  2.7149466066742631  3.2162999451241205  7.5224274735906596
  4.1824863069892633  7.3905423851241210  7.3663354229276603
  2.7149466066742631  9.4776636051241212  7.5224274735906596
  6.7893348866832621  1.1291787151241213  0.9449773415656604
  5.3217951863682629  3.2162999451241205  1.1010693922286596
  6.7893348866832621  7.3905423851241210  0.9449773415656604
  6.1907447129322630  5.3034211651241217  2.2939500317746599
  5.3217951863682629  9.4776636051241212  1.1010693922286596
  6.1907447129322630 11.5647848351241187  2.2939500317746599
  2.9853059616822639  3.2162999451241205  0.0642807893756596
  2.3867157879312639  1.1291787151241213  1.4132534795846601
  2.9853059616822639  9.4776636051241212  0.0642807893756596
  2.3867157879312639  7.3905423851241210  1.4132534795846601
  5.5921545413762637  3.2162999451241205  3.6429227080136597
  4.7232050148112643  1.1291787151241213  2.4500420684676598
  4.9935643676252646  1.1291787151241213  4.9918953982226615
  3.2556653144962642  3.2162999451241205  2.6061341191306600
  3.8542554882472642  5.3034211651241217  1.2571614289216604
  5.5921545413762637  9.4776636051241212  3.6429227080136597
  4.7232050148112643  7.3905423851241210  2.4500420684676598
  4.1246148410602625  5.3034211651241217  3.7990147586766621
  4.9935643676252646  7.3905423851241210  4.9918953982226615
  3.2556653144962642  9.4776636051241212  2.6061341191306600
  3.8542554882472642 11.5647848351241187  1.2571614289216604
  4.1246148410602625 11.5647848351241187  3.7990147586766621
  3.5260246695042632  3.2162999451241205  5.1479874349146595
  3.5260246695042632  9.4776636051241212  5.1479874349146595
  4.3949741960692643  5.3034211651241217  6.3408680744606611
  4.3949741960692643 11.5647848351241187  6.3408680744606611
  4.6793969081272628  1.1291787151241213  6.2260787790256593
  5.8784804275472631  5.3034211651241217  7.0864485910126600
  4.6793969081272628  7.3905423851241210  6.2260787790256593
  5.8784804275472631 11.5647848351241187  7.0864485910126600
  0.9659352111652630  5.3034211651241217  7.5906844520206596
  0.9659352111652630 11.5647848351241187  7.5906844520206596
  6.0240407816642643  3.2162999451241205  5.6178269045216593
  7.2231243010842636  1.1291787151241213  6.4781967165076590
  6.0240407816642643  9.4776636051241212  5.6178269045216593
  7.2231243010842636  7.3905423851241210  6.4781967165076590
  7.3686846529072625  5.3034211651241217  5.0095750160626613
  7.3686846529072625 11.5647848351241187  5.0095750160626613
  1.1114955652832634  3.2162999451241205  6.1220627655306608
  2.3105790847032637  1.1291787151241213  6.9824325775166596
  1.2570559171062641  1.1291787151241213  4.6534410650856612
  1.1114955652832634  9.4776636051241212  6.1220627655306608
  2.3105790847032637  7.3905423851241210  6.9824325775166596
  2.4561394365252625  5.3034211651241217  5.5138108770716601
  1.2570559171062641  7.3905423851241210  4.6534410650856612
  2.4561394365252625 11.5647848351241187  5.5138108770716601
  0.0579723976862629  3.2162999451241205  3.7930712530986606
  0.0579723976862629  9.4776636051241212  3.7930712530986606
  2.6016997906432628  3.2162999451241205  4.0451891905806594
  2.6016997906432628  9.4776636051241212  4.0451891905806594
  0.2035327518042624  1.1291787151241213  2.3244495666086600
  1.5481766230462632  3.2162999451241205  1.7161976781496606
  1.4026162712232644  5.3034211651241217  3.1848193785946606
  0.2035327518042624  7.3905423851241210  2.3244495666086600
  0.3490931036262630  5.3034211651241217  0.8558278661636596
  1.5481766230462632  9.4776636051241212  1.7161976781496606
  1.4026162712232644 11.5647848351241187  3.1848193785946606
  0.3490931036262630 11.5647848351241187  0.8558278661636596
  1.6937369771642627  1.1291787151241213  0.2475759916586595
  1.6937369771642627  7.3905423851241210  0.2475759916586595
  6.5189755316752631  1.1291787151241213  8.4031240257816595
  6.5189755316752631  7.3905423851241210  8.4031240257816595
  7.3879250582402634  3.2162999451241205  9.5960046653276603
  7.3879250582402634  9.4776636051241212  9.5960046653276603
  5.0514358335542626  3.2162999451241205  8.5592160624736593
  4.4528456598032635  1.1291787151241213  9.9081887526826602
  5.0514358335542626  9.4776636051241212  8.5592160624736593
  3.5838961332382642  5.3034211651241217  8.7153081131366594
  4.4528456598032635  7.3905423851241210  9.9081887526826602
  3.5838961332382642 11.5647848351241187  8.7153081131366594
  6.7893348866832621  1.1291787151241213 10.9449773415656608
  5.3217951863682629  3.2162999451241205 11.1010693922286592
  5.9203853601192638  5.3034211651241217  9.7520967020196601
  6.7893348866832621  7.3905423851241210 10.9449773415656608
  6.1907447129322630  5.3034211651241217 12.2939500317746599
  5.3217951863682629  9.4776636051241212 11.1010693922286592
  5.9203853601192638 11.5647848351241187  9.7520967020196601
  6.1907447129322630 11.5647848351241187 12.2939500317746599
  2.9853059616822639  3.2162999451241205 10.0642807893756601
  2.1163564351172628  1.1291787151241213  8.8714001498296593
  2.3867157879312639  1.1291787151241213 11.4132534795846592
  2.9853059616822639  9.4776636051241212 10.0642807893756601
  2.1163564351172628  7.3905423851241210  8.8714001498296593
  2.3867157879312639  7.3905423851241210 11.4132534795846592
  5.5921545413762637  3.2162999451241205 13.6429227080136588
  4.7232050148112643  1.1291787151241213 12.4500420684676598
  3.2556653144962642  3.2162999451241205 12.6061341191306600
  3.8542554882472642  5.3034211651241217 11.2571614289216608
  5.5921545413762637  9.4776636051241212 13.6429227080136588
  4.7232050148112643  7.3905423851241210 12.4500420684676598
  4.1246148410602625  5.3034211651241217 13.7990147586766607
  3.2556653144962642  9.4776636051241212 12.6061341191306600
  3.8542554882472642 11.5647848351241187 11.2571614289216608
  4.1246148410602625 11.5647848351241187 13.7990147586766607
  1.2570559171062641  1.1291787151241213 14.6534410650856604
  1.2570559171062641  7.3905423851241210 14.6534410650856604
  0.0579723976862629  3.2162999451241205 13.7930712530986614
  0.0579723976862629  9.4776636051241212 13.7930712530986614
  2.6016997906432628  3.2162999451241205 14.0451891905806594
  2.6016997906432628  9.4776636051241212 14.0451891905806594
  0.2035327518042624  1.1291787151241213 12.3244495666086600
  1.5481766230462632  3.2162999451241205 11.7161976781496602
  1.4026162712232644  5.3034211651241217 13.1848193785946606
  0.2035327518042624  7.3905423851241210 12.3244495666086600
  0.3490931036262630  5.3034211651241217 10.8558278661636596
  1.5481766230462632  9.4776636051241212 11.7161976781496602
  1.4026162712232644 11.5647848351241187 13.1848193785946606
  0.3490931036262630 11.5647848351241187 10.8558278661636596
  0.4946534577442634  3.2162999451241205  9.3872061796726598
  1.6937369771642627  1.1291787151241213 10.2475759916586586
  0.4946534577442634  9.4776636051241212  9.3872061796726598
  1.6937369771642627  7.3905423851241210 10.2475759916586586
  1.8392973289862633  5.3034211651241217  8.7789542912136600
  1.8392973289862633 11.5647848351241187  8.7789542912136600
  9.4540549301122638  3.2162999451241205  8.0909399384266596
  9.4540549301122638  9.4776636051241212  8.0909399384266596
  8.2568745848042635  5.3034211651241217  0.7888853048736597
  8.2568745848042635 11.5647848351241187  0.7888853048736597
 14.1824863069892633  1.1291787151241213  7.3663354229276603
 12.7149466066742640  3.2162999451241205  7.5224274735906596
 14.1824863069892633  7.3905423851241210  7.3663354229276603
 12.7149466066742640  9.4776636051241212  7.5224274735906596
  7.6582844132482633  3.2162999451241205  2.1378579811116598
 16.7893348866832639  1.1291787151241213  0.9449773415656604
 15.3217951863682629  3.2162999451241205  1.1010693922286596
  7.6582844132482633  9.4776636051241212  2.1378579811116598
 16.7893348866832639  7.3905423851241210  0.9449773415656604
 16.1907447129322648  5.3034211651241217  2.2939500317746599
 15.3217951863682629  9.4776636051241212  1.1010693922286596
 16.1907447129322648 11.5647848351241187  2.2939500317746599
 12.9853059616822648  3.2162999451241205  0.0642807893756596
 12.3867157879312639  1.1291787151241213  1.4132534795846601
 12.9853059616822648  9.4776636051241212  0.0642807893756596
 12.3867157879312639  7.3905423851241210  1.4132534795846601
 15.5921545413762637  3.2162999451241205  3.6429227080136597
 14.7232050148112634  1.1291787151241213  2.4500420684676598
 14.9935643676252646  1.1291787151241213  4.9918953982226615
 13.2556653144962642  3.2162999451241205  2.6061341191306600
 13.8542554882472650  5.3034211651241217  1.2571614289216604
 15.5921545413762637  9.4776636051241212  3.6429227080136597
 14.7232050148112634  7.3905423851241210  2.4500420684676598
 14.1246148410602625  5.3034211651241217  3.7990147586766621
 14.9935643676252646  7.3905423851241210  4.9918953982226615
 13.2556653144962642  9.4776636051241212  2.6061341191306600
 13.8542554882472650 11.5647848351241187  1.2571614289216604
 14.1246148410602625 11.5647848351241187  3.7990147586766621
 13.5260246695042632  3.2162999451241205  5.1479874349146595
 13.5260246695042632  9.4776636051241212  5.1479874349146595
 14.3949741960692634  5.3034211651241217  6.3408680744606611
 14.3949741960692634 11.5647848351241187  6.3408680744606611
 14.6793969081272628  1.1291787151241213  6.2260787790256593
 15.8784804275472631  5.3034211651241217  7.0864485910126600
 14.6793969081272628  7.3905423851241210  6.2260787790256593
 15.8784804275472631 11.5647848351241187  7.0864485910126600
  9.7668516917462629  1.1291787151241213  6.7303146400346616
 10.9659352111652630  5.3034211651241217  7.5906844520206596
  9.7668516917462629  7.3905423851241210  6.7303146400346616
 10.9659352111652630 11.5647848351241187  7.5906844520206596
 16.0240407816642616  3.2162999451241205  5.6178269045216593
  8.5677681723262626  3.2162999451241205  5.8699448280486592
  8.4222078205042621  5.3034211651241217  7.3385665284936596
 16.0240407816642616  9.4776636051241212  5.6178269045216593
  8.5677681723262626  9.4776636051241212  5.8699448280486592
  8.4222078205042621 11.5647848351241187  7.3385665284936596
 11.1114955652832617  3.2162999451241205  6.1220627655306608
 12.3105790847032655  1.1291787151241213  6.9824325775166596
 11.2570559171062641  1.1291787151241213  4.6534410650856612
 11.1114955652832617  9.4776636051241212  6.1220627655306608
 12.3105790847032655  7.3905423851241210  6.9824325775166596
 12.4561394365252625  5.3034211651241217  5.5138108770716601
 11.2570559171062641  7.3905423851241210  4.6534410650856612
 12.4561394365252625 11.5647848351241187  5.5138108770716601
  7.5142450070242628  3.2162999451241205  3.5409533295716606
  8.7133285264442630  1.1291787151241213  4.4013231415576595
 10.0579723976862638  3.2162999451241205  3.7930712530986606
  9.9124120458632632  5.3034211651241217  5.2616929535446593
  7.5142450070242628  9.4776636051241212  3.5409533295716606
  8.7133285264442630  7.3905423851241210  4.4013231415576595
  8.8588888782672637  5.3034211651241217  2.9327014411126600
 10.0579723976862638  9.4776636051241212  3.7930712530986606
  9.9124120458632632 11.5647848351241187  5.2616929535446593
  8.8588888782672637 11.5647848351241187  2.9327014411126600
 12.6016997906432628  3.2162999451241205  4.0451891905806594
 12.6016997906432628  9.4776636051241212  4.0451891905806594
  9.0044492323842640  3.2162999451241205  1.4640797546226607
 10.2035327518042624  1.1291787151241213  2.3244495666086600
 11.5481766230462632  3.2162999451241205  1.7161976781496606
 11.4026162712232644  5.3034211651241217  3.1848193785946606
  9.0044492323842640  9.4776636051241212  1.4640797546226607
 10.2035327518042624  7.3905423851241210  2.3244495666086600
 10.3490931036262630  5.3034211651241217  0.8558278661636596
 11.5481766230462632  9.4776636051241212  1.7161976781496606
 11.4026162712232644 11.5647848351241187  3.1848193785946606
 10.3490931036262630 11.5647848351241187  0.8558278661636596
 11.6937369771642636  1.1291787151241213  0.2475759916586595
 11.6937369771642636  7.3905423851241210  0.2475759916586595
 16.5189755316752631  1.1291787151241213  8.4031240257816595
 16.5189755316752631  7.3905423851241210  8.4031240257816595
  8.8554647585552608  1.1291787151241213  9.4399126146646601
  7.9865152319912625  5.3034211651241217  8.2470319751186594
  8.8554647585552608  7.3905423851241210  9.4399126146646601
  8.2568745848042635  5.3034211651241217 10.7888853048736593
  7.9865152319912625 11.5647848351241187  8.2470319751186594
  8.2568745848042635 11.5647848351241187 10.7888853048736593
 15.0514358335542617  3.2162999451241205  8.5592160624736593
 14.4528456598032626  1.1291787151241213  9.9081887526826602
 15.0514358335542617  9.4776636051241212  8.5592160624736593
 13.5838961332382642  5.3034211651241217  8.7153081131366594
 14.4528456598032626  7.3905423851241210  9.9081887526826602
 13.5838961332382642 11.5647848351241187  8.7153081131366594
  7.6582844132482633  3.2162999451241205 12.1378579811116598
 16.7893348866832639  1.1291787151241213 10.9449773415656608
 15.3217951863682629  3.2162999451241205 11.1010693922286592
 15.9203853601192638  5.3034211651241217  9.7520967020196601
  7.6582844132482633  9.4776636051241212 12.1378579811116598
 16.7893348866832639  7.3905423851241210 10.9449773415656608
 16.1907447129322648  5.3034211651241217 12.2939500317746599
 15.3217951863682629  9.4776636051241212 11.1010693922286592
 15.9203853601192638 11.5647848351241187  9.7520967020196601
 16.1907447129322648 11.5647848351241187 12.2939500317746599
 12.9853059616822648  3.2162999451241205 10.0642807893756601
 12.1163564351172628  1.1291787151241213  8.8714001498296593
 12.3867157879312639  1.1291787151241213 11.4132534795846592
 12.9853059616822648  9.4776636051241212 10.0642807893756601
 12.1163564351172628  7.3905423851241210  8.8714001498296593
 12.3867157879312639  7.3905423851241210 11.4132534795846592
 15.5921545413762637  3.2162999451241205 13.6429227080136588
 14.7232050148112634  1.1291787151241213 12.4500420684676598
 13.2556653144962642  3.2162999451241205 12.6061341191306600
 13.8542554882472650  5.3034211651241217 11.2571614289216608
 15.5921545413762637  9.4776636051241212 13.6429227080136588
 14.7232050148112634  7.3905423851241210 12.4500420684676598
 14.1246148410602625  5.3034211651241217 13.7990147586766607
 13.2556653144962642  9.4776636051241212 12.6061341191306600
 13.8542554882472650 11.5647848351241187 11.2571614289216608
 14.1246148410602625 11.5647848351241187 13.7990147586766607
 11.2570559171062641  1.1291787151241213 14.6534410650856604
 11.2570559171062641  7.3905423851241210 14.6534410650856604
  7.5142450070242628  3.2162999451241205 13.5409533295716606
  8.7133285264442630  1.1291787151241213 14.4013231415576595
 10.0579723976862638  3.2162999451241205 13.7930712530986614
  7.5142450070242628  9.4776636051241212 13.5409533295716606
  8.7133285264442630  7.3905423851241210 14.4013231415576595
  8.8588888782672637  5.3034211651241217 12.9327014411126608
 10.0579723976862638  9.4776636051241212 13.7930712530986614
  8.8588888782672637 11.5647848351241187 12.9327014411126608
 12.6016997906432628  3.2162999451241205 14.0451891905806594
 12.6016997906432628  9.4776636051241212 14.0451891905806594
  9.0044492323842640  3.2162999451241205 11.4640797546226612
 10.2035327518042624  1.1291787151241213 12.3244495666086600
 11.5481766230462632  3.2162999451241205 11.7161976781496602
 11.4026162712232644  5.3034211651241217 13.1848193785946606
  9.0044492323842640  9.4776636051241212 11.4640797546226612
 10.2035327518042624  7.3905423851241210 12.3244495666086600
 10.3490931036262630  5.3034211651241217 10.8558278661636596
 11.5481766230462632  9.4776636051241212 11.7161976781496602
 11.4026162712232644 11.5647848351241187 13.1848193785946606
 10.3490931036262630 11.5647848351241187 10.8558278661636596
 10.4946534577442634  3.2162999451241205  9.3872061796726598
 11.6937369771642636  1.1291787151241213 10.2475759916586586
 10.4946534577442634  9.4776636051241212  9.3872061796726598
 11.6937369771642636  7.3905423851241210 10.2475759916586586
 11.8392973289862624  5.3034211651241217  8.7789542912136600
 11.8392973289862624 11.5647848351241187  8.7789542912136600
