Cu
 1.0000000000000000
    17.5855178048793093    0.0000000000000000    0.0000000000000000
     0.0000000000000000   13.6561643321984967    0.0000000000000000
     0.0000000000000000    0.0000000000000000   14.4165725502691089
 Cu 
 268
Cartesian
  4.3857097244383878  1.7749972079537475  5.7872913728751945
  2.9181700241233877  3.8621184379537468  5.9433834235381955
  4.3857097244383878  8.0363608779537472  5.7872913728751945
  2.9181700241233877 10.1234820979537474  5.9433834235381955
  6.3939681303813876  5.9492396579537470  0.7149059817221932
  6.3939681303813876 12.2106033279537449  0.7149059817221932
  5.7953779588253882  3.8621184379537468  2.0638786579611930
  4.9264284322603888  1.7749972079537475  0.8709980184151933
  5.1967877850743900  1.7749972079537475  3.4128513481701948
  3.4588887319453887  3.8621184379537468  1.0270900690781937
  5.7953779588253882 10.1234820979537474  2.0638786579611930
  4.9264284322603888  8.0363608779537472  0.8709980184151933
  4.3278382585093871  5.9492396579537470  2.2199707086241949
  5.1967877850743900  8.0363608779537472  3.4128513481701948
  3.4588887319453887 10.1234820979537474  1.0270900690781937
  4.3278382585093871 12.2106033279537449  2.2199707086241949
  3.7292480869533877  3.8621184379537468  3.5689433848621936
  3.7292480869533877 10.1234820979537474  3.5689433848621936
  4.5981976135183888  5.9492396579537470  4.7618240244081935
  4.5981976135183888 12.2106033279537449  4.7618240244081935
  4.8826203255763883  1.7749972079537475  4.6470347289731926
  6.0817038449963876  5.9492396579537470  5.5074045409601933
  4.8826203255763883  8.0363608779537472  4.6470347289731926
  6.0817038449963876 12.2106033279537449  5.5074045409601933
  1.1691586286143878  5.9492396579537470  6.0116404019681955
  1.1691586286143878 12.2106033279537449  6.0116404019681955
  6.2272641991133879  3.8621184379537468  4.0387828544691926
  7.4263477185333882  1.7749972079537475  4.8991526664551941
  6.2272641991133879 10.1234820979537474  4.0387828544691926
  7.4263477185333882  8.0363608779537472  4.8991526664551941
  7.5719080703563888  5.9492396579537470  3.4305309660101955
  7.5719080703563888 12.2106033279537449  3.4305309660101955
  1.3147189827323880  3.8621184379537468  4.5430187154781940
  2.5138025021523882  1.7749972079537475  5.4033885274641946
  1.4602793345553888  1.7749972079537475  3.0743970150331945
  1.3147189827323880 10.1234820979537474  4.5430187154781940
  2.5138025021523882  8.0363608779537472  5.4033885274641946
  2.6593628539743870  5.9492396579537470  3.9347668270191947
  1.4602793345553888  8.0363608779537472  3.0743970150331945
  2.6593628539743870 12.2106033279537449  3.9347668270191947
  0.2611958151353875  3.8621184379537468  2.2140272030461947
  0.1156354633123877  5.9492396579537470  3.6826489034921925
  0.2611958151353875 10.1234820979537474  2.2140272030461947
  0.1156354633123877 12.2106033279537449  3.6826489034921925
  2.8049232080923883  3.8621184379537468  2.4661451405281927
  2.8049232080923883 10.1234820979537474  2.4661451405281927
  0.4067561692533871  1.7749972079537475  0.7454055165561935
  1.7514000404953878  3.8621184379537468  0.1371536280971935
  1.6058396886723889  5.9492396579537470  1.6057753285421943
  0.4067561692533871  8.0363608779537472  0.7454055165561935
  1.7514000404953878 10.1234820979537474  0.1371536280971935
  1.6058396886723889 12.2106033279537449  1.6057753285421943
  6.7221989491243885  1.7749972079537475  6.8240799757291946
  6.7221989491243885  8.0363608779537472  6.8240799757291946
  7.5911484756893879  3.8621184379537468  8.0169606152751953
  7.5911484756893879 10.1234820979537474  8.0169606152751953
  5.2546592510033872  3.8621184379537468  6.9801720124211935
  4.6560690772523881  1.7749972079537475  8.3291447026301935
  5.2546592510033872 10.1234820979537474  6.9801720124211935
  3.7871195506873887  5.9492396579537470  7.1362640630841927
  4.6560690772523881  8.0363608779537472  8.3291447026301935
  3.7871195506873887 12.2106033279537449  7.1362640630841927
  6.9925583041323867  1.7749972079537475  9.3659332915131941
  5.5250186038173874  3.8621184379537468  9.5220253421761960
  6.1236087775683901  5.9492396579537470  8.1730526519671933
  6.9925583041323867  8.0363608779537472  9.3659332915131941
  6.3939681303813876  5.9492396579537470 10.7149059817221950
  5.5250186038173874 10.1234820979537474  9.5220253421761960
  6.1236087775683901 12.2106033279537449  8.1730526519671933
  6.3939681303813876 12.2106033279537449 10.7149059817221950
  3.1885293791313885  3.8621184379537468  8.4852367393231933
  2.3195798525663873  1.7749972079537475  7.2923560997771926
  2.5899392053803894  1.7749972079537475  9.8342094295321942
  3.1885293791313885 10.1234820979537474  8.4852367393231933
  2.3195798525663873  8.0363608779537472  7.2923560997771926
  2.5899392053803894  8.0363608779537472  9.8342094295321942
  5.7953779588253882  3.8621184379537468 12.0638786579611939
  4.9264284322603888  1.7749972079537475 10.8709980184151949
  5.1967877850743900  1.7749972079537475 13.4128513481701983
  3.4588887319453887  3.8621184379537468 11.0270900690781932
  4.0574789056963887  5.9492396579537470  9.6781173788691977
  5.7953779588253882 10.1234820979537474 12.0638786579611939
  4.9264284322603888  8.0363608779537472 10.8709980184151949
  4.3278382585093871  5.9492396579537470 12.2199707086241993
  5.1967877850743900  8.0363608779537472 13.4128513481701983
  3.4588887319453887 10.1234820979537474 11.0270900690781932
  4.0574789056963887 12.2106033279537449  9.6781173788691977
  4.3278382585093871 12.2106033279537449 12.2199707086241993
  3.7292480869533877  3.8621184379537468 13.5689433848621945
  3.7292480869533877 10.1234820979537474 13.5689433848621945
  6.2272641991133879  3.8621184379537468 14.0387828544691935
  6.2272641991133879 10.1234820979537474 14.0387828544691935
  7.5719080703563888  5.9492396579537470 13.4305309660101955
  7.5719080703563888 12.2106033279537449 13.4305309660101955
  1.4602793345553888  1.7749972079537475 13.0743970150331990
  2.6593628539743870  5.9492396579537470 13.9347668270191960
  1.4602793345553888  8.0363608779537472 13.0743970150331990
  2.6593628539743870 12.2106033279537449 13.9347668270191960
  0.2611958151353875  3.8621184379537468 12.2140272030461929
  0.1156354633123877  5.9492396579537470 13.6826489034921970
  0.2611958151353875 10.1234820979537474 12.2140272030461929
  0.1156354633123877 12.2106033279537449 13.6826489034921970
  2.8049232080923883  3.8621184379537468 12.4661451405281962
  2.8049232080923883 10.1234820979537474 12.4661451405281962
  0.4067561692533871  1.7749972079537475 10.7454055165561932
  1.7514000404953878  3.8621184379537468 10.1371536280971934
  1.6058396886723889  5.9492396579537470 11.6057753285421938
  0.4067561692533871  8.0363608779537472 10.7454055165561932
  0.5523165210753876  5.9492396579537470  9.2767838161111964
  1.7514000404953878 10.1234820979537474 10.1371536280971934
  1.6058396886723889 12.2106033279537449 11.6057753285421938
  0.5523165210753876 12.2106033279537449  9.2767838161111964
  0.6978768751933879  3.8621184379537468  7.8081621296201957
  1.8969603946133873  1.7749972079537475  8.6685319416061954
  0.6978768751933879 10.1234820979537474  7.8081621296201957
  1.8969603946133873  8.0363608779537472  8.6685319416061954
  2.0425207464353878  5.9492396579537470  7.1999102411611950
  2.0425207464353878 12.2106033279537449  7.1999102411611950
  9.6572783475613893  3.8621184379537468  6.5118958883741946
  9.6572783475613893 10.1234820979537474  6.5118958883741946
 14.3857097244383922  1.7749972079537475  5.7872913728751945
 12.9181700241233877  3.8621184379537468  5.9433834235381955
 14.3857097244383922  8.0363608779537472  5.7872913728751945
 12.9181700241233877 10.1234820979537474  5.9433834235381955
  7.8615078306973878  3.8621184379537468  0.5588139310591931
  7.8615078306973878 10.1234820979537474  0.5588139310591931
 16.3939681303813884  5.9492396579537470  0.7149059817221932
 16.3939681303813884 12.2106033279537449  0.7149059817221932
 15.7953779588253891  3.8621184379537468  2.0638786579611930
 14.9264284322603888  1.7749972079537475  0.8709980184151933
 15.1967877850743900  1.7749972079537475  3.4128513481701948
 13.4588887319453896  3.8621184379537468  1.0270900690781937
 15.7953779588253891 10.1234820979537474  2.0638786579611930
 14.9264284322603888  8.0363608779537472  0.8709980184151933
 14.3278382585093915  5.9492396579537470  2.2199707086241949
 15.1967877850743900  8.0363608779537472  3.4128513481701948
 13.4588887319453896 10.1234820979537474  1.0270900690781937
 14.3278382585093915 12.2106033279537449  2.2199707086241949
 13.7292480869533868  3.8621184379537468  3.5689433848621936
 13.7292480869533868 10.1234820979537474  3.5689433848621936
 14.5981976135183924  5.9492396579537470  4.7618240244081935
 14.5981976135183924 12.2106033279537449  4.7618240244081935
 14.8826203255763883  1.7749972079537475  4.6470347289731926
 16.0817038449963867  5.9492396579537470  5.5074045409601933
 14.8826203255763883  8.0363608779537472  4.6470347289731926
 16.0817038449963867 12.2106033279537449  5.5074045409601933
  9.9700751091953919  1.7749972079537475  5.1512705899821949
 11.1691586286143867  5.9492396579537470  6.0116404019681955
  9.9700751091953919  8.0363608779537472  5.1512705899821949
 11.1691586286143867 12.2106033279537449  6.0116404019681955
 16.2272641991133888  3.8621184379537468  4.0387828544691926
 17.4263477185333890  1.7749972079537475  4.8991526664551941
  8.7709915897753881  3.8621184379537468  4.2909007779961943
  8.6254312379533875  5.9492396579537470  5.7595224784411929
 16.2272641991133888 10.1234820979537474  4.0387828544691926
 17.4263477185333890  8.0363608779537472  4.8991526664551941
 17.5719080703563861  5.9492396579537470  3.4305309660101955
  8.7709915897753881 10.1234820979537474  4.2909007779961943
  8.6254312379533875 12.2106033279537449  5.7595224784411929
 17.5719080703563861 12.2106033279537449  3.4305309660101955
 11.3147189827323889  3.8621184379537468  4.5430187154781940
 12.5138025021523873  1.7749972079537475  5.4033885274641946
 11.4602793345553877  1.7749972079537475  3.0743970150331945
 11.3147189827323889 10.1234820979537474  4.5430187154781940
 12.5138025021523873  8.0363608779537472  5.4033885274641946
 12.6593628539743861  5.9492396579537470  3.9347668270191947
 11.4602793345553877  8.0363608779537472  3.0743970150331945
 12.6593628539743861 12.2106033279537449  3.9347668270191947
  7.7174684244733873  3.8621184379537468  1.9619092795191941
  8.9165519438933885  1.7749972079537475  2.8222790915051927
 10.2611958151353875  3.8621184379537468  2.2140272030461947
 10.1156354633123868  5.9492396579537470  3.6826489034921925
  7.7174684244733873 10.1234820979537474  1.9619092795191941
  8.9165519438933885  8.0363608779537472  2.8222790915051927
  9.0621122957163873  5.9492396579537470  1.3536573910601937
 10.2611958151353875 10.1234820979537474  2.2140272030461947
 10.1156354633123868 12.2106033279537449  3.6826489034921925
  9.0621122957163873 12.2106033279537449  1.3536573910601937
 12.8049232080923865  3.8621184379537468  2.4661451405281927
 12.8049232080923865 10.1234820979537474  2.4661451405281927
 10.4067561692533879  1.7749972079537475  0.7454055165561935
 11.7514000404953904  3.8621184379537468  0.1371536280971935
 11.6058396886723916  5.9492396579537470  1.6057753285421943
 10.4067561692533879  8.0363608779537472  0.7454055165561935
 11.7514000404953904 10.1234820979537474  0.1371536280971935
 11.6058396886723916 12.2106033279537449  1.6057753285421943
 16.7221989491243868  1.7749972079537475  6.8240799757291946
 16.7221989491243868  8.0363608779537472  6.8240799757291946
  9.0586881760043880  1.7749972079537475  7.8608685646121934
  8.1897386494403879  5.9492396579537470  6.6679879250661935
  9.0586881760043880  8.0363608779537472  7.8608685646121934
  8.4600980022533872  5.9492396579537470  9.2098412548211925
  8.1897386494403879 12.2106033279537449  6.6679879250661935
  8.4600980022533872 12.2106033279537449  9.2098412548211925
 15.2546592510033907  3.8621184379537468  6.9801720124211935
 14.6560690772523916  1.7749972079537475  8.3291447026301935
 15.2546592510033907 10.1234820979537474  6.9801720124211935
 13.7871195506873931  5.9492396579537470  7.1362640630841927
 14.6560690772523916  8.0363608779537472  8.3291447026301935
 13.7871195506873931 12.2106033279537449  7.1362640630841927
  7.8615078306973878  3.8621184379537468 10.5588139310591966
 16.9925583041323875  1.7749972079537475  9.3659332915131941
 15.5250186038173901  3.8621184379537468  9.5220253421761960
 16.1236087775683892  5.9492396579537470  8.1730526519671933
  7.8615078306973878 10.1234820979537474 10.5588139310591966
 16.9925583041323875  8.0363608779537472  9.3659332915131941
 16.3939681303813884  5.9492396579537470 10.7149059817221950
 15.5250186038173901 10.1234820979537474  9.5220253421761960
 16.1236087775683892 12.2106033279537449  8.1730526519671933
 16.3939681303813884 12.2106033279537449 10.7149059817221950
 13.1885293791313885  3.8621184379537468  8.4852367393231933
 12.3195798525663882  1.7749972079537475  7.2923560997771926
 12.5899392053803894  1.7749972079537475  9.8342094295321942
 13.1885293791313885 10.1234820979537474  8.4852367393231933
 12.3195798525663882  8.0363608779537472  7.2923560997771926
 12.5899392053803894  8.0363608779537472  9.8342094295321942
 15.7953779588253891  3.8621184379537468 12.0638786579611939
 14.9264284322603888  1.7749972079537475 10.8709980184151949
 15.1967877850743900  1.7749972079537475 13.4128513481701983
 13.4588887319453896  3.8621184379537468 11.0270900690781932
 14.0574789056963887  5.9492396579537470  9.6781173788691977
 15.7953779588253891 10.1234820979537474 12.0638786579611939
 14.9264284322603888  8.0363608779537472 10.8709980184151949
 14.3278382585093915  5.9492396579537470 12.2199707086241993
 15.1967877850743900  8.0363608779537472 13.4128513481701983
 13.4588887319453896 10.1234820979537474 11.0270900690781932
 14.0574789056963887 12.2106033279537449  9.6781173788691977
 14.3278382585093915 12.2106033279537449 12.2199707086241993
 13.7292480869533868  3.8621184379537468 13.5689433848621945
 13.7292480869533868 10.1234820979537474 13.5689433848621945
 16.2272641991133888  3.8621184379537468 14.0387828544691935
  8.7709915897753881  3.8621184379537468 14.2909007779961961
 16.2272641991133888 10.1234820979537474 14.0387828544691935
 17.5719080703563861  5.9492396579537470 13.4305309660101955
  8.7709915897753881 10.1234820979537474 14.2909007779961961
 17.5719080703563861 12.2106033279537449 13.4305309660101955
 11.4602793345553877  1.7749972079537475 13.0743970150331990
 12.6593628539743861  5.9492396579537470 13.9347668270191960
 11.4602793345553877  8.0363608779537472 13.0743970150331990
 12.6593628539743861 12.2106033279537449 13.9347668270191960
  7.7174684244733873  3.8621184379537468 11.9619092795191939
  8.9165519438933885  1.7749972079537475 12.8222790915051927
 10.2611958151353875  3.8621184379537468 12.2140272030461929
 10.1156354633123868  5.9492396579537470 13.6826489034921970
  7.7174684244733873 10.1234820979537474 11.9619092795191939
  8.9165519438933885  8.0363608779537472 12.8222790915051927
  9.0621122957163873  5.9492396579537470 11.3536573910601941
 10.2611958151353875 10.1234820979537474 12.2140272030461929
 10.1156354633123868 12.2106033279537449 13.6826489034921970
  9.0621122957163873 12.2106033279537449 11.3536573910601941
 12.8049232080923865  3.8621184379537468 12.4661451405281962
 12.8049232080923865 10.1234820979537474 12.4661451405281962
  9.2076726498333876  3.8621184379537468  9.8850357045701980
 10.4067561692533879  1.7749972079537475 10.7454055165561932
 11.7514000404953904  3.8621184379537468 10.1371536280971934
 11.6058396886723916  5.9492396579537470 11.6057753285421938
  9.2076726498333876 10.1234820979537474  9.8850357045701980
 10.4067561692533879  8.0363608779537472 10.7454055165561932
 10.5523165210753866  5.9492396579537470  9.2767838161111964
 11.7514000404953904 10.1234820979537474 10.1371536280971934
 11.6058396886723916 12.2106033279537449 11.6057753285421938
 10.5523165210753866 12.2106033279537449  9.2767838161111964
 10.6978768751933870  3.8621184379537468  7.8081621296201957
 11.8969603946133873  1.7749972079537475  8.6685319416061954
 10.6978768751933870 10.1234820979537474  7.8081621296201957
 11.8969603946133873  8.0363608779537472  8.6685319416061954
 12.0425207464353914  5.9492396579537470  7.1999102411611950
 12.0425207464353914 12.2106033279537449  7.1999102411611950
