Cu
 1.0000000000000000
    18.8090530145776498    0.0000000000000000    0.0000000000000000
     0.0000000000000000   12.3478004961023355    0.0000000000000000
     0.0000000000000000    0.0000000000000000   13.4519872767721935
 Cu 
 272
Cartesian
  2.9335700422593312  2.8731759134013650  7.1602338220460116
  1.4660303419443315  4.9602971334013652  7.3163258727090099
  2.9335700422593312 11.2216608134013640  7.1602338220460116
  1.4660303419443315  9.1345395934013638  7.3163258727090099
  5.5404186219533287  2.8731759134013650  0.7388757406840116
  4.9418284482023314  0.7860546934013648  2.0878484308930103
  4.0728789216383312  4.9602971334013652  0.8949677913470109
  4.9418284482023314  7.0474183634013636  2.0878484308930103
  5.5404186219533287 11.2216608134013640  0.7388757406840116
  4.0728789216383312  9.1345395934013638  0.8949677913470109
  1.1377995232013320  2.8731759134013650  1.2071518787030113
  1.1377995232013320 11.2216608134013640  1.2071518787030113
  2.6053392235173320  0.7860546934013648  1.0510598280400116
  4.3432382766463320  4.9602971334013652  3.4368211071320109
  3.4742887500813322  2.8731759134013650  2.2439404675860111
  2.8756985763303309  0.7860546934013648  3.5929131577950124
  3.7446481028953320  2.8731759134013650  4.7857937973410118
  2.0067490497663325  4.9602971334013652  2.4000325182490108
  2.6053392235173320  7.0474183634013636  1.0510598280400116
  2.8756985763303309  7.0474183634013636  3.5929131577950124
  4.3432382766463320  9.1345395934013638  3.4368211071320109
  3.4742887500813322 11.2216608134013640  2.2439404675860111
  3.7446481028953320 11.2216608134013640  4.7857937973410118
  2.0067490497663325  9.1345395934013638  2.4000325182490108
  2.2771084047743315  4.9602971334013652  4.9418858340330107
  2.2771084047743315  9.1345395934013638  4.9418858340330107
  3.1460579313393326  0.7860546934013648  6.1347664735790115
  3.1460579313393326  7.0474183634013636  6.1347664735790115
  4.6295641628173314  0.7860546934013648  6.8803469901310095
  3.4304806433973312  2.8731759134013650  6.0199771781440106
  4.6295641628173314  7.0474183634013636  6.8803469901310095
  3.4304806433973312 11.2216608134013640  6.0199771781440106
  4.7751245169343317  4.9602971334013652  5.4117253036400106
  5.9742080363543320  2.8731759134013650  6.2720951156260103
  6.1197683881773308  0.7860546934013648  4.8034734151810126
  6.1197683881773308  7.0474183634013636  4.8034734151810126
  4.7751245169343317  9.1345395934013638  5.4117253036400106
  5.9742080363543320 11.2216608134013640  6.2720951156260103
  1.0616628199733320  2.8731759134013650  6.7763309766350108
  1.2072231717953306  0.7860546934013648  5.3077092761900113
  0.0081396523763324  2.8731759134013650  4.4473394642040116
  1.2072231717953306  7.0474183634013636  5.3077092761900113
  1.0616628199733320 11.2216608134013640  6.7763309766350108
  0.0081396523763324 11.2216608134013640  4.4473394642040116
  1.3527835259133312  4.9602971334013652  3.8390875896990098
  1.3527835259133312  9.1345395934013638  3.8390875896990098
  0.1537000064933327  0.7860546934013648  2.9787177777130118
  0.2992603583163315  4.9602971334013652  1.5100960772680119
  0.1537000064933327  7.0474183634013636  2.9787177777130118
  0.2992603583163315  9.1345395934013638  1.5100960772680119
  0.4448207124343311  2.8731759134013650  0.0414743907770108
  0.4448207124343311 11.2216608134013640  0.0414743907770108
  5.2700592669453306  2.8731759134013650  8.1970224249000108
  5.2700592669453306 11.2216608134013640  8.1970224249000108
  6.1390087935103317  4.9602971334013652  9.3899030644460080
  6.1390087935103317  9.1345395934013638  9.3899030644460080
  3.8025195688243310  4.9602971334013652  8.3531144615920088
  2.3349798685083325  0.7860546934013648  8.5092065122550089
  3.2039293950733310  2.8731759134013650  9.7020871518010114
  2.3349798685083325  7.0474183634013636  8.5092065122550089
  3.8025195688243310  9.1345395934013638  8.3531144615920088
  3.2039293950733310 11.2216608134013640  9.7020871518010114
  4.6714690953893321  0.7860546934013648  9.5459951011380113
  5.5404186219533287  2.8731759134013650 10.7388757406840085
  4.9418284482023314  0.7860546934013648 12.0878484308930112
  4.0728789216383312  4.9602971334013652 10.8949677913470069
  4.6714690953893321  7.0474183634013636  9.5459951011380113
  4.9418284482023314  7.0474183634013636 12.0878484308930112
  5.5404186219533287 11.2216608134013640 10.7388757406840085
  4.0728789216383312  9.1345395934013638 10.8949677913470069
  1.7363896969523318  4.9602971334013652  9.8581791884940113
  0.8674401703873311  2.8731759134013650  8.6652985489480070
  1.1377995232013320  2.8731759134013650 11.2071518787030069
  1.7363896969523318  9.1345395934013638  9.8581791884940113
  0.8674401703873311 11.2216608134013640  8.6652985489480070
  1.1377995232013320 11.2216608134013640 11.2071518787030069
  2.6053392235173320  0.7860546934013648 11.0510598280400121
  4.3432382766463320  4.9602971334013652 13.4368211071320065
  3.4742887500813322  2.8731759134013650 12.2439404675860111
  2.0067490497663325  4.9602971334013652 12.4000325182490094
  2.6053392235173320  7.0474183634013636 11.0510598280400121
  4.3432382766463320  9.1345395934013638 13.4368211071320065
  3.4742887500813322 11.2216608134013640 12.2439404675860111
  2.0067490497663325  9.1345395934013638 12.4000325182490094
  0.1537000064933327  0.7860546934013648 12.9787177777130083
  0.2992603583163315  4.9602971334013652 11.5100960772680114
  0.1537000064933327  7.0474183634013636 12.9787177777130083
  0.2992603583163315  9.1345395934013638 11.5100960772680114
  0.4448207124343311  2.8731759134013650 10.0414743907770081
  0.5903810642563316  0.7860546934013648  8.5728526903320112
  0.5903810642563316  7.0474183634013636  8.5728526903320112
  0.4448207124343311 11.2216608134013640 10.0414743907770081
  8.2051386653823322  4.9602971334013652  7.8848383375450100
  8.2051386653823322  9.1345395934013638  7.8848383375450100
  7.0079583200743301  0.7860546934013648  0.5827837039920110
  7.0079583200743301  7.0474183634013636  0.5827837039920110
 12.9335700422593280  2.8731759134013650  7.1602338220460116
 11.4660303419443323  4.9602971334013652  7.3163258727090099
 12.9335700422593280 11.2216608134013640  7.1602338220460116
 11.4660303419443323  9.1345395934013638  7.3163258727090099
  6.4093681485183316  4.9602971334013652  1.9317563802300111
 15.5404186219533305  2.8731759134013650  0.7388757406840116
 14.9418284482023314  0.7860546934013648  2.0878484308930103
 14.0728789216383277  4.9602971334013652  0.8949677913470109
 14.9418284482023314  7.0474183634013636  2.0878484308930103
  6.4093681485183316  9.1345395934013638  1.9317563802300111
 15.5404186219533305 11.2216608134013640  0.7388757406840116
 14.0728789216383277  9.1345395934013638  0.8949677913470109
 11.1377995232013323  2.8731759134013650  1.2071518787030113
 11.1377995232013323 11.2216608134013640  1.2071518787030113
 12.6053392235173334  0.7860546934013648  1.0510598280400116
 14.3432382766463320  4.9602971334013652  3.4368211071320109
 13.4742887500813318  2.8731759134013650  2.2439404675860111
 12.8756985763303291  0.7860546934013648  3.5929131577950124
 13.7446481028953329  2.8731759134013650  4.7857937973410118
 12.0067490497663307  4.9602971334013652  2.4000325182490108
 12.6053392235173334  7.0474183634013636  1.0510598280400116
 12.8756985763303291  7.0474183634013636  3.5929131577950124
 14.3432382766463320  9.1345395934013638  3.4368211071320109
 13.4742887500813318 11.2216608134013640  2.2439404675860111
 13.7446481028953329 11.2216608134013640  4.7857937973410118
 12.0067490497663307  9.1345395934013638  2.4000325182490108
 12.2771084047743315  4.9602971334013652  4.9418858340330107
 12.2771084047743315  9.1345395934013638  4.9418858340330107
 13.1460579313393318  0.7860546934013648  6.1347664735790115
 13.1460579313393318  7.0474183634013636  6.1347664735790115
 14.6295641628173314  0.7860546934013648  6.8803469901310095
 13.4304806433973312  2.8731759134013650  6.0199771781440106
 14.6295641628173314  7.0474183634013636  6.8803469901310095
 13.4304806433973312 11.2216608134013640  6.0199771781440106
  9.7170189464353314  0.7860546934013648  7.3845828511390108
  8.5179354270163312  2.8731759134013650  6.5242130391530129
  9.7170189464353314  7.0474183634013636  7.3845828511390108
  8.5179354270163312 11.2216608134013640  6.5242130391530129
  7.1732915557743313  0.7860546934013648  7.1324649276120109
 14.7751245169343282  4.9602971334013652  5.4117253036400106
 15.9742080363543320  2.8731759134013650  6.2720951156260103
 16.1197683881773308  0.7860546934013648  4.8034734151810126
  7.3188519075963310  4.9602971334013652  5.6638432271670096
  7.1732915557743313  7.0474183634013636  7.1324649276120109
 16.1197683881773308  7.0474183634013636  4.8034734151810126
 14.7751245169343282  9.1345395934013638  5.4117253036400106
 15.9742080363543320 11.2216608134013640  6.2720951156260103
  7.3188519075963310  9.1345395934013638  5.6638432271670096
  9.8625793005533318  4.9602971334013652  5.9159611646490120
 11.0616628199733302  2.8731759134013650  6.7763309766350108
 11.2072231717953308  0.7860546934013648  5.3077092761900113
 10.0081396523763324  2.8731759134013650  4.4473394642040116
 11.2072231717953308  7.0474183634013636  5.3077092761900113
  9.8625793005533318  9.1345395934013638  5.9159611646490120
 11.0616628199733302 11.2216608134013640  6.7763309766350108
 10.0081396523763324 11.2216608134013640  4.4473394642040116
  8.6634957811333315  0.7860546934013648  5.0555913526630105
  6.2653287422943293  4.9602971334013652  3.3348517286900119
  7.4644122617143296  2.8731759134013650  4.1952215406760089
  7.6099726135373293  0.7860546934013648  2.7265998402310112
  8.8090561329563322  4.9602971334013652  3.5869696522170109
  8.6634957811333315  7.0474183634013636  5.0555913526630105
  7.6099726135373293  7.0474183634013636  2.7265998402310112
  6.2653287422943293  9.1345395934013638  3.3348517286900119
  7.4644122617143296 11.2216608134013640  4.1952215406760089
  8.8090561329563322  9.1345395934013638  3.5869696522170109
 11.3527835259133294  4.9602971334013652  3.8390875896990098
 11.3527835259133294  9.1345395934013638  3.8390875896990098
 10.1537000064933327  0.7860546934013648  2.9787177777130118
  7.7555329676543314  4.9602971334013652  1.2579781537410120
  8.9546164870743308  2.8731759134013650  2.1183479657270112
  9.1001768388963313  0.7860546934013648  0.6497262652820108
 10.2992603583163298  4.9602971334013652  1.5100960772680119
 10.1537000064933327  7.0474183634013636  2.9787177777130118
  9.1001768388963313  7.0474183634013636  0.6497262652820108
  7.7555329676543314  9.1345395934013638  1.2579781537410120
  8.9546164870743308 11.2216608134013640  2.1183479657270112
 10.2992603583163298  9.1345395934013638  1.5100960772680119
 10.4448207124343320  2.8731759134013650  0.0414743907770108
 10.4448207124343320 11.2216608134013640  0.0414743907770108
 15.2700592669453314  2.8731759134013650  8.1970224249000108
 15.2700592669453314 11.2216608134013640  8.1970224249000108
  6.7375989672613308  0.7860546934013648  8.0409303742370106
  7.6065484938253300  2.8731759134013650  9.2338110137830096
  7.0079583200743301  0.7860546934013648 10.5827837039920105
 16.1390087935103317  4.9602971334013652  9.3899030644460080
  6.7375989672613308  7.0474183634013636  8.0409303742370106
  7.0079583200743301  7.0474183634013636 10.5827837039920105
  7.6065484938253300 11.2216608134013640  9.2338110137830096
 16.1390087935103317  9.1345395934013638  9.3899030644460080
 13.8025195688243301  4.9602971334013652  8.3531144615920088
 12.3349798685083325  0.7860546934013648  8.5092065122550089
 13.2039293950733292  2.8731759134013650  9.7020871518010114
 12.3349798685083325  7.0474183634013636  8.5092065122550089
 13.8025195688243301  9.1345395934013638  8.3531144615920088
 13.2039293950733292 11.2216608134013640  9.7020871518010114
 14.6714690953893321  0.7860546934013648  9.5459951011380113
  6.4093681485183316  4.9602971334013652 11.9317563802300111
 15.5404186219533305  2.8731759134013650 10.7388757406840085
 14.9418284482023314  0.7860546934013648 12.0878484308930112
 14.0728789216383277  4.9602971334013652 10.8949677913470069
 14.6714690953893321  7.0474183634013636  9.5459951011380113
 14.9418284482023314  7.0474183634013636 12.0878484308930112
  6.4093681485183316  9.1345395934013638 11.9317563802300111
 15.5404186219533305 11.2216608134013640 10.7388757406840085
 14.0728789216383277  9.1345395934013638 10.8949677913470069
 11.7363896969523296  4.9602971334013652  9.8581791884940113
 10.8674401703873311  2.8731759134013650  8.6652985489480070
 11.1377995232013323  2.8731759134013650 11.2071518787030069
 11.7363896969523296  9.1345395934013638  9.8581791884940113
 10.8674401703873311 11.2216608134013640  8.6652985489480070
 11.1377995232013323 11.2216608134013640 11.2071518787030069
 12.6053392235173334  0.7860546934013648 11.0510598280400121
 14.3432382766463320  4.9602971334013652 13.4368211071320065
 13.4742887500813318  2.8731759134013650 12.2439404675860111
 12.0067490497663307  4.9602971334013652 12.4000325182490094
 12.6053392235173334  7.0474183634013636 11.0510598280400121
 14.3432382766463320  9.1345395934013638 13.4368211071320065
 13.4742887500813318 11.2216608134013640 12.2439404675860111
 12.0067490497663307  9.1345395934013638 12.4000325182490094
  6.2653287422943293  4.9602971334013652 13.3348517286900119
  7.6099726135373293  0.7860546934013648 12.7265998402310103
  7.6099726135373293  7.0474183634013636 12.7265998402310103
  6.2653287422943293  9.1345395934013638 13.3348517286900119
 10.1537000064933327  0.7860546934013648 12.9787177777130083
  7.7555329676543314  4.9602971334013652 11.2579781537410089
  8.9546164870743308  2.8731759134013650 12.1183479657270112
  9.1001768388963313  0.7860546934013648 10.6497262652820091
 10.2992603583163298  4.9602971334013652 11.5100960772680114
 10.1537000064933327  7.0474183634013636 12.9787177777130083
  9.1001768388963313  7.0474183634013636 10.6497262652820091
  7.7555329676543314  9.1345395934013638 11.2579781537410089
  8.9546164870743308 11.2216608134013640 12.1183479657270112
 10.2992603583163298  9.1345395934013638 11.5100960772680114
  9.2457371930143317  4.9602971334013652  9.1811045787910111
 10.4448207124343320  2.8731759134013650 10.0414743907770081
 10.5903810642563272  0.7860546934013648  8.5728526903320112
 10.5903810642563272  7.0474183634013636  8.5728526903320112
  9.2457371930143317  9.1345395934013638  9.1811045787910111
 10.4448207124343320 11.2216608134013640 10.0414743907770081
 18.2051386653823286  4.9602971334013652  7.8848383375450100
 18.2051386653823286  9.1345395934013638  7.8848383375450100
 17.0079583200743301  0.7860546934013648  0.5827837039920110
 17.0079583200743301  7.0474183634013636  0.5827837039920110
 16.4093681485183325  4.9602971334013652  1.9317563802300111
 16.4093681485183325  9.1345395934013638  1.9317563802300111
 18.5179354270163330  2.8731759134013650  6.5242130391530129
 18.5179354270163330 11.2216608134013640  6.5242130391530129
 17.1732915557743304  0.7860546934013648  7.1324649276120109
 17.3188519075963328  4.9602971334013652  5.6638432271670096
 17.1732915557743304  7.0474183634013636  7.1324649276120109
 17.3188519075963328  9.1345395934013638  5.6638432271670096
 18.6634957811333280  0.7860546934013648  5.0555913526630105
 16.2653287422943293  4.9602971334013652  3.3348517286900119
 17.4644122617143296  2.8731759134013650  4.1952215406760089
 17.6099726135373302  0.7860546934013648  2.7265998402310112
 18.6634957811333280  7.0474183634013636  5.0555913526630105
 17.6099726135373302  7.0474183634013636  2.7265998402310112
 16.2653287422943293  9.1345395934013638  3.3348517286900119
 17.4644122617143296 11.2216608134013640  4.1952215406760089
 17.7555329676543323  4.9602971334013652  1.2579781537410120
 17.7555329676543323  9.1345395934013638  1.2579781537410120
 16.7375989672613308  0.7860546934013648  8.0409303742370106
 17.6065484938253292  2.8731759134013650  9.2338110137830096
 17.0079583200743301  0.7860546934013648 10.5827837039920105
 16.7375989672613308  7.0474183634013636  8.0409303742370106
 17.0079583200743301  7.0474183634013636 10.5827837039920105
 17.6065484938253292 11.2216608134013640  9.2338110137830096
 16.4093681485183325  4.9602971334013652 11.9317563802300111
 16.4093681485183325  9.1345395934013638 11.9317563802300111
 16.2653287422943293  4.9602971334013652 13.3348517286900119
 17.6099726135373302  0.7860546934013648 12.7265998402310103
 17.6099726135373302  7.0474183634013636 12.7265998402310103
 16.2653287422943293  9.1345395934013638 13.3348517286900119
 17.7555329676543323  4.9602971334013652 11.2579781537410089
 17.7555329676543323  9.1345395934013638 11.2579781537410089
