Cu
 1.0000000000000000
    17.4887709208435922    0.0000000000000000    0.0000000000000000
     0.0000000000000000   12.0984214871088227    0.0000000000000000
     0.0000000000000000    0.0000000000000000   15.6345436947339724
 Cu 
 296
Cartesian
  2.1232391190957216  0.4252743313440081  0.2308427472607786
  1.4190903496867211  0.4252743313440081  2.1557700565347790
  1.6894497046947201  0.4252743313440081  4.6976233723187804
  2.1232391190957216  0.4252743313440081 10.2308427472607786
  1.4190903496867211  0.4252743313440081 12.1557700565347826
  1.6894497046947201  0.4252743313440081 14.6976233723187839
  0.7785952455587211  2.5123955513440110  0.8390946217657795
  0.7785952455587211  8.7737592213440116  0.8390946217657795
  2.1232391190957216  4.5995167713440113  0.2308427472607786
  2.1232391190957216 10.8608804413440119  0.2308427472607786
  1.4190903496867211  4.5995167713440113  2.1557700565347790
  1.4190903496867211 10.8608804413440119  2.1557700565347790
  2.2880398762517213  6.6866380013440114  3.3486506960807803
  0.8205001781307217  2.5123955513440110  3.5047427327727791
  1.6894497046947201  4.5995167713440113  4.6976233723187804
  1.0908595309437210  2.5123955513440110  6.0465960625277795
  0.2219100043797209  6.6866380013440114  4.8537154229817787
  0.8205001781307217  8.7737592213440116  3.5047427327727791
  1.6894497046947201 10.8608804413440119  4.6976233723187804
  1.0908595309437210  8.7737592213440116  6.0465960625277795
  0.4922693593877217  6.6866380013440114  7.3955687387667792
  0.7785952455587211  2.5123955513440110 10.8390946217657831
  0.7785952455587211  8.7737592213440116 10.8390946217657831
  0.9241555996757214  6.6866380013440114  9.3704729352747833
  2.1232391190957216  4.5995167713440113 10.2308427472607786
  2.2687994709187205  2.5123955513440110  8.7622210468157817
  2.1232391190957216 10.8608804413440119 10.2308427472607786
  2.2687994709187205  8.7737592213440116  8.7622210468157817
  1.4190903496867211  4.5995167713440113 12.1557700565347826
  1.4190903496867211 10.8608804413440119 12.1557700565347826
  2.2880398762517213  6.6866380013440114 13.3486506960807798
  0.8205001781307217  2.5123955513440110 13.5047427327727796
  1.6894497046947201  4.5995167713440113 14.6976233723187839
  0.2219100043797209  6.6866380013440114 14.8537154229817787
  0.8205001781307217  8.7737592213440116 13.5047427327727796
  1.6894497046947201 10.8608804413440119 14.6976233723187839
  9.0826011250007213  0.4252743313440081  1.1189814536807798
  4.6669665097577209  0.4252743313440081  0.4829606707877813
 12.1232391190957216  0.4252743313440081  0.2308427472607786
  7.2106939027147217  0.4252743313440081  0.7350786082697793
 11.4190903496867211  0.4252743313440081  2.1557700565347790
  3.7555795765667210  0.4252743313440081  3.1925586454177801
  9.0826011250007213  0.4252743313440081 11.1189814536807798
  9.3529604778147224  0.4252743313440081  3.6608347834357797
 11.6894497046947201  0.4252743313440081  4.6976233723187804
  7.0164712531287208  0.4252743313440081  2.6240461805827793
  7.2868306059427219  0.4252743313440081  5.1658995103377796
  9.6233198328227250  0.4252743313440081  6.2026880992207793
  9.8936791856367226  0.4252743313440081  8.7445414289757810
  9.5795117261387208  0.4252743313440081  9.9787248097787788
  4.6669665097577209  0.4252743313440081 10.4829606707877812
 12.1232391190957216  0.4252743313440081 10.2308427472607786
  7.2106939027147217  0.4252743313440081 10.7350786082697791
  6.1571707351177221  0.4252743313440081  8.4060870958387817
  3.6134433444557210  0.4252743313440081  8.1539691723107790
  5.1036475698157204  0.4252743313440081  6.0770955973617813
  6.5938517951757207  0.4252743313440081  4.0002220224117790
 11.4190903496867211  0.4252743313440081 12.1557700565347826
  3.7555795765667210  0.4252743313440081 13.1925586454177797
  9.3529604778147224  0.4252743313440081 13.6608347834357833
 11.6894497046947201  0.4252743313440081 14.6976233723187839
  7.0164712531287208  0.4252743313440081 12.6240461805827788
  7.2868306059427219  0.4252743313440081 15.1658995103377823
  6.5938517951757207  0.4252743313440081 14.0002220224117817
  4.3541697481237209  6.6866380013440114  1.8435859691797791
  9.0826011250007213  4.5995167713440113  1.1189814536807798
  7.6150614246857211  6.6866380013440114  1.2750735043437800
  9.0826011250007213 10.8608804413440119  1.1189814536807798
  9.2950890140807250  2.5123955513440110  0.0935141052137798
  9.2950890140807250  8.7737592213440116  0.0935141052137798
 10.7785952455587211  2.5123955513440110  0.8390946217657795
 10.7785952455587211  8.7737592213440116  0.8390946217657795
  5.8660500291767210  2.5123955513440110  1.3433304827737800
  4.6669665097577209  4.5995167713440113  0.4829606707877813
  5.8660500291767210  8.7737592213440116  1.3433304827737800
  4.6669665097577209 10.8608804413440119  0.4829606707877813
  3.3223226385157214  2.5123955513440110  1.0912125592467792
 12.1232391190957216  4.5995167713440113  0.2308427472607786
  3.3223226385157214  8.7737592213440116  1.0912125592467792
 12.1232391190957216 10.8608804413440119  0.2308427472607786
  7.2106939027147217  4.5995167713440113  0.7350786082697793
  7.2106939027147217 10.8608804413440119  0.7350786082697793
  4.3541697481237209  6.6866380013440114 11.8435859691797791
 11.4190903496867211  4.5995167713440113  2.1557700565347790
 11.4190903496867211 10.8608804413440119  2.1557700565347790
  2.8866300500027209  2.5123955513440110  1.9996780058717794
  3.7555795765667210  4.5995167713440113  3.1925586454177801
  3.1569894028157210  2.5123955513440110  4.5415313356267806
 12.2880398762517213  6.6866380013440114  3.3486506960807803
  2.8866300500027209  8.7737592213440116  1.9996780058717794
  3.7555795765667210 10.8608804413440119  3.1925586454177801
  3.1569894028157210  8.7737592213440116  4.5415313356267806
  9.9515506515657215  6.6866380013440114  2.3118620932267793
  9.0826011250007213  4.5995167713440113 11.1189814536807798
  8.4840109512497222  2.5123955513440110  2.4679541438897790
  9.3529604778147224  4.5995167713440113  3.6608347834357797
  7.6150614246857211  6.6866380013440114 11.2750735043437800
  9.0826011250007213 10.8608804413440119 11.1189814536807798
  8.4840109512497222  8.7737592213440116  2.4679541438897790
  9.3529604778147224 10.8608804413440119  3.6608347834357797
 10.8205001781307217  2.5123955513440110  3.5047427327727791
  2.5583992312597208  6.6866380013440114  5.8905040118647793
 11.6894497046947201  4.5995167713440113  4.6976233723187804
 11.0908595309437228  2.5123955513440110  6.0465960625277795
 10.2219100043797209  6.6866380013440114  4.8537154229817787
 10.8205001781307217  8.7737592213440116  3.5047427327727791
 11.6894497046947201 10.8608804413440119  4.6976233723187804
 11.0908595309437228  8.7737592213440116  6.0465960625277795
  7.8854207796937219  6.6866380013440114  3.8169268201287792
  7.0164712531287208  4.5995167713440113  2.6240461805827793
  7.2868306059427219  4.5995167713440113  5.1658995103377796
  7.0164712531287208 10.8608804413440119  2.6240461805827793
  7.2868306059427219 10.8608804413440119  5.1658995103377796
  8.7543703062587213  2.5123955513440110  5.0098074596747804
 10.4922693593877217  6.6866380013440114  7.3955687387667792
  9.6233198328227250  4.5995167713440113  6.2026880992207793
  9.0247296590717205  2.5123955513440110  7.5516607894297829
  9.8936791856367226  4.5995167713440113  8.7445414289757810
  8.1557801325077222  6.6866380013440114  6.3587801498837795
  8.7543703062587213  8.7737592213440116  5.0098074596747804
  9.6233198328227250 10.8608804413440119  6.2026880992207793
  9.0247296590717205  8.7737592213440116  7.5516607894297829
  9.8936791856367226 10.8608804413440119  8.7445414289757810
  8.4261394875157212  6.6866380013440114  8.9006334656677790
  9.2950890140807250  2.5123955513440110 10.0935141052137833
  9.2950890140807250  8.7737592213440116 10.0935141052137833
 10.7785952455587211  2.5123955513440110 10.8390946217657831
  9.5795117261387208  4.5995167713440113  9.9787248097787788
 10.7785952455587211  8.7737592213440116 10.8390946217657831
  9.5795117261387208 10.8608804413440119  9.9787248097787788
  5.8660500291767210  2.5123955513440110 11.3433304827737835
  4.6669665097577209  4.5995167713440113 10.4829606707877812
  5.8660500291767210  8.7737592213440116 11.3433304827737835
  4.6669665097577209 10.8608804413440119 10.4829606707877812
  3.3223226385157214  2.5123955513440110 11.0912125592467827
 10.9241555996757214  6.6866380013440114  9.3704729352747833
 12.1232391190957216  4.5995167713440113 10.2308427472607786
 12.2687994709187205  2.5123955513440110  8.7622210468157817
  3.4678829903377206  6.6866380013440114  9.6225908588017788
  3.3223226385157214  8.7737592213440116 11.0912125592467827
 12.1232391190957216 10.8608804413440119 10.2308427472607786
 12.2687994709187205  8.7737592213440116  8.7622210468157817
  6.0116103832947214  6.6866380013440114  9.8747087962837803
  7.2106939027147217  4.5995167713440113 10.7350786082697791
  7.3562542545367204  2.5123955513440110  9.2664569078247787
  6.1571707351177221  4.5995167713440113  8.4060870958387817
  7.2106939027147217 10.8608804413440119 10.7350786082697791
  7.3562542545367204  8.7737592213440116  9.2664569078247787
  6.1571707351177221 10.8608804413440119  8.4060870958387817
  4.8125268638747212  2.5123955513440110  9.0143389842977797
  2.4143598250357208  6.6866380013440114  7.2935993603247820
  3.6134433444557210  4.5995167713440113  8.1539691723107790
  3.7590036962787208  2.5123955513440110  6.6853474718657795
  4.9580872156977209  6.6866380013440114  7.5457172838517801
  4.8125268638747212  8.7737592213440116  9.0143389842977797
  3.6134433444557210 10.8608804413440119  8.1539691723107790
  3.7590036962787208  8.7737592213440116  6.6853474718657795
  7.5018146086547208  6.6866380013440114  7.7978352213337789
  6.3027310892347224  2.5123955513440110  6.9374654093477801
  3.9045640503957211  6.6866380013440114  5.2167257853757825
  5.1036475698157204  4.5995167713440113  6.0770955973617813
  5.2492079216377210  2.5123955513440110  4.6084738969167791
  6.4482914410577212  6.6866380013440114  5.4688437089027797
  6.3027310892347224  8.7737592213440116  6.9374654093477801
  5.1036475698157204 10.8608804413440119  6.0770955973617813
  5.2492079216377210  8.7737592213440116  4.6084738969167791
  5.3947682757557223  6.6866380013440114  3.1398522104257793
  6.5938517951757207  4.5995167713440113  4.0002220224117790
  6.7394121469977213  2.5123955513440110  2.5316003219667791
  6.5938517951757207 10.8608804413440119  4.0002220224117790
  6.7394121469977213  8.7737592213440116  2.5316003219667791
 11.4190903496867211  4.5995167713440113 12.1557700565347826
 11.4190903496867211 10.8608804413440119 12.1557700565347826
  2.8866300500027209  2.5123955513440110 11.9996780058717789
  3.7555795765667210  4.5995167713440113 13.1925586454177797
  3.1569894028157210  2.5123955513440110 14.5415313356267824
 12.2880398762517213  6.6866380013440114 13.3486506960807798
  2.8866300500027209  8.7737592213440116 11.9996780058717789
  3.7555795765667210 10.8608804413440119 13.1925586454177797
  3.1569894028157210  8.7737592213440116 14.5415313356267824
  9.9515506515657215  6.6866380013440114 12.3118620932267824
  8.4840109512497222  2.5123955513440110 12.4679541438897790
  9.3529604778147224  4.5995167713440113 13.6608347834357833
  8.4840109512497222  8.7737592213440116 12.4679541438897790
  9.3529604778147224 10.8608804413440119 13.6608347834357833
 10.8205001781307217  2.5123955513440110 13.5047427327727796
 11.6894497046947201  4.5995167713440113 14.6976233723187839
 10.2219100043797209  6.6866380013440114 14.8537154229817787
 10.8205001781307217  8.7737592213440116 13.5047427327727796
 11.6894497046947201 10.8608804413440119 14.6976233723187839
  7.8854207796937219  6.6866380013440114 13.8169268201287831
  7.0164712531287208  4.5995167713440113 12.6240461805827788
  7.2868306059427219  4.5995167713440113 15.1658995103377823
  7.0164712531287208 10.8608804413440119 12.6240461805827788
  7.2868306059427219 10.8608804413440119 15.1658995103377823
  8.7543703062587213  2.5123955513440110 15.0098074596747804
  8.7543703062587213  8.7737592213440116 15.0098074596747804
  3.9045640503957211  6.6866380013440114 15.2167257853757842
  5.2492079216377210  2.5123955513440110 14.6084738969167791
  6.4482914410577212  6.6866380013440114 15.4688437089027833
  5.2492079216377210  8.7737592213440116 14.6084738969167791
  5.3947682757557223  6.6866380013440114 13.1398522104257793
  6.5938517951757207  4.5995167713440113 14.0002220224117817
  6.7394121469977213  2.5123955513440110 12.5316003219667795
  6.5938517951757207 10.8608804413440119 14.0002220224117817
  6.7394121469977213  8.7737592213440116 12.5316003219667795
 14.6669665097577209  0.4252743313440081  0.4829606707877813
 17.2106939027147234  0.4252743313440081  0.7350786082697793
 13.7555795765667206  0.4252743313440081  3.1925586454177801
 17.0164712531287208  0.4252743313440081  2.6240461805827793
 17.2868306059427219  0.4252743313440081  5.1658995103377796
 14.6669665097577209  0.4252743313440081 10.4829606707877812
 17.2106939027147234  0.4252743313440081 10.7350786082697791
 16.1571707351177238  0.4252743313440081  8.4060870958387817
 13.6134433444557210  0.4252743313440081  8.1539691723107790
 15.1036475698157204  0.4252743313440081  6.0770955973617813
 16.5938517951757198  0.4252743313440081  4.0002220224117790
 13.7555795765667206  0.4252743313440081 13.1925586454177797
 17.0164712531287208  0.4252743313440081 12.6240461805827788
 17.2868306059427219  0.4252743313440081 15.1658995103377823
 16.5938517951757198  0.4252743313440081 14.0002220224117817
 14.3541697481237200  6.6866380013440114  1.8435859691797791
 15.8660500291767210  2.5123955513440110  1.3433304827737800
 14.6669665097577209  4.5995167713440113  0.4829606707877813
 15.8660500291767210  8.7737592213440116  1.3433304827737800
 14.6669665097577209 10.8608804413440119  0.4829606707877813
 13.3223226385157201  2.5123955513440110  1.0912125592467792
 13.3223226385157201  8.7737592213440116  1.0912125592467792
 17.2106939027147234  4.5995167713440113  0.7350786082697793
 17.2106939027147234 10.8608804413440119  0.7350786082697793
 14.3541697481237200  6.6866380013440114 11.8435859691797791
 12.8866300500027204  2.5123955513440110  1.9996780058717794
 13.7555795765667206  4.5995167713440113  3.1925586454177801
 13.1569894028157215  2.5123955513440110  4.5415313356267806
 12.8866300500027204  8.7737592213440116  1.9996780058717794
 13.7555795765667206 10.8608804413440119  3.1925586454177801
 13.1569894028157215  8.7737592213440116  4.5415313356267806
 12.5583992312597204  6.6866380013440114  5.8905040118647793
 17.0164712531287208  4.5995167713440113  2.6240461805827793
 17.2868306059427219  4.5995167713440113  5.1658995103377796
 17.0164712531287208 10.8608804413440119  2.6240461805827793
 17.2868306059427219 10.8608804413440119  5.1658995103377796
 15.8660500291767210  2.5123955513440110 11.3433304827737835
 14.6669665097577209  4.5995167713440113 10.4829606707877812
 15.8660500291767210  8.7737592213440116 11.3433304827737835
 14.6669665097577209 10.8608804413440119 10.4829606707877812
 13.3223226385157201  2.5123955513440110 11.0912125592467827
 13.4678829903377206  6.6866380013440114  9.6225908588017788
 13.3223226385157201  8.7737592213440116 11.0912125592467827
 16.0116103832947232  6.6866380013440114  9.8747087962837803
 17.2106939027147234  4.5995167713440113 10.7350786082697791
 17.3562542545367222  2.5123955513440110  9.2664569078247787
 16.1571707351177238  4.5995167713440113  8.4060870958387817
 17.2106939027147234 10.8608804413440119 10.7350786082697791
 17.3562542545367222  8.7737592213440116  9.2664569078247787
 16.1571707351177238 10.8608804413440119  8.4060870958387817
 14.8125268638747212  2.5123955513440110  9.0143389842977797
 12.4143598250357208  6.6866380013440114  7.2935993603247820
 13.6134433444557210  4.5995167713440113  8.1539691723107790
 13.7590036962787217  2.5123955513440110  6.6853474718657795
 14.9580872156977200  6.6866380013440114  7.5457172838517801
 14.8125268638747212  8.7737592213440116  9.0143389842977797
 13.6134433444557210 10.8608804413440119  8.1539691723107790
 13.7590036962787217  8.7737592213440116  6.6853474718657795
 16.3027310892347224  2.5123955513440110  6.9374654093477801
 13.9045640503957237  6.6866380013440114  5.2167257853757825
 15.1036475698157204  4.5995167713440113  6.0770955973617813
 15.2492079216377228  2.5123955513440110  4.6084738969167791
 16.4482914410577195  6.6866380013440114  5.4688437089027797
 16.3027310892347224  8.7737592213440116  6.9374654093477801
 15.1036475698157204 10.8608804413440119  6.0770955973617813
 15.2492079216377228  8.7737592213440116  4.6084738969167791
 15.3947682757557232  6.6866380013440114  3.1398522104257793
 16.5938517951757198  4.5995167713440113  4.0002220224117790
 16.7394121469977222  2.5123955513440110  2.5316003219667791
 16.5938517951757198 10.8608804413440119  4.0002220224117790
 16.7394121469977222  8.7737592213440116  2.5316003219667791
 12.8866300500027204  2.5123955513440110 11.9996780058717789
 13.7555795765667206  4.5995167713440113 13.1925586454177797
 13.1569894028157215  2.5123955513440110 14.5415313356267824
 12.8866300500027204  8.7737592213440116 11.9996780058717789
 13.7555795765667206 10.8608804413440119 13.1925586454177797
 13.1569894028157215  8.7737592213440116 14.5415313356267824
 17.0164712531287208  4.5995167713440113 12.6240461805827788
 17.2868306059427219  4.5995167713440113 15.1658995103377823
 17.0164712531287208 10.8608804413440119 12.6240461805827788
 17.2868306059427219 10.8608804413440119 15.1658995103377823
 13.9045640503957237  6.6866380013440114 15.2167257853757842
 15.2492079216377228  2.5123955513440110 14.6084738969167791
 16.4482914410577195  6.6866380013440114 15.4688437089027833
 15.2492079216377228  8.7737592213440116 14.6084738969167791
 15.3947682757557232  6.6866380013440114 13.1398522104257793
 16.5938517951757198  4.5995167713440113 14.0002220224117817
 16.7394121469977222  2.5123955513440110 12.5316003219667795
 16.5938517951757198 10.8608804413440119 14.0002220224117817
 16.7394121469977222  8.7737592213440116 12.5316003219667795
