Cu
 1.0000000000000000
    12.6784927298861056    0.0000000000000000    0.0000000000000000
     0.0000000000000000   14.7354155083652820    0.0000000000000000
     0.0000000000000000    0.0000000000000000   17.7411131811325404
 Cu 
 290
Cartesian
  0.2999503618833828 10.5859732989693853  6.1789093771773578
  0.2999503618833828  4.3246096289693909  6.1789093771773578
  2.3082087678263825  6.4117308489693841  1.1065239860243574
  2.3082087678263825  0.1503671789693861  1.1065239860243574
  1.7096185962703832  8.4988520689693843  2.4554966622633572
  0.8406690697053838 10.5859732989693853  1.2626160227173573
  1.1110284225193841 10.5859732989693853  3.8044693524723585
  1.7096185962703832  2.2374883989693863  2.4554966622633572
  0.8406690697053838  4.3246096289693909  1.2626160227173573
  0.2420788959543821  6.4117308489693841  2.6115887129263582
  1.1110284225193841  4.3246096289693909  3.8044693524723585
  0.2420788959543821  0.1503671789693861  2.6115887129263582
  0.5124382509633838  6.4117308489693841  5.1534420287103577
  0.5124382509633838  0.1503671789693861  5.1534420287103577
  0.7968609630213823 10.5859732989693853  5.0386527332753568
  1.9959444824413826  6.4117308489693841  5.8990225452623557
  0.7968609630213823  4.3246096289693909  5.0386527332753568
  1.9959444824413826  0.1503671789693861  5.8990225452623557
  2.1415048365583829  8.4988520689693843  4.4304008587713568
  3.3405883559783831 10.5859732989693853  5.2907706707573565
  2.1415048365583829  2.2374883989693863  4.4304008587713568
  3.3405883559783831  4.3246096289693909  5.2907706707573565
  3.4861487078013820  6.4117308489693841  3.8221489703123583
  3.4861487078013820  0.1503671789693861  3.8221489703123583
  2.6364395865693826 10.5859732989693853  7.2156979800313552
  2.6364395865693826  4.3246096289693909  7.2156979800313552
  3.5053891131343828  8.4988520689693843  8.4085786195773569
  3.5053891131343828  2.2374883989693863  8.4085786195773569
  1.1688998884483821  8.4988520689693843  7.3717900167233577
  0.2999503618833828 10.5859732989693853 16.1789093771773587
  0.5703097146973830 10.5859732989693853  8.7207627069323568
  1.1688998884483821  2.2374883989693863  7.3717900167233577
  0.2999503618833828  4.3246096289693909 16.1789093771773587
  0.5703097146973830  4.3246096289693909  8.7207627069323568
  2.9067989415773816 10.5859732989693853  9.7575512958153556
  1.4392592412623824  8.4988520689693843  9.9136433464783558
  2.0378494150133832  6.4117308489693841  8.5646706562693566
  2.9067989415773816  4.3246096289693909  9.7575512958153556
  2.3082087678263825  6.4117308489693841 11.1065239860243530
  1.4392592412623824  2.2374883989693863  9.9136433464783558
  2.0378494150133832  0.1503671789693861  8.5646706562693566
  2.3082087678263825  0.1503671789693861 11.1065239860243530
  1.7096185962703832  8.4988520689693843 12.4554966622633572
  0.8406690697053838 10.5859732989693853 11.2626160227173564
  1.1110284225193841 10.5859732989693853 13.8044693524723563
  1.7096185962703832  2.2374883989693863 12.4554966622633572
  0.8406690697053838  4.3246096289693909 11.2626160227173564
  0.2420788959543821  6.4117308489693841 12.6115887129263573
  1.1110284225193841  4.3246096289693909 13.8044693524723563
  0.2420788959543821  0.1503671789693861 12.6115887129263573
  0.5124382509633838  6.4117308489693841 15.1534420287103586
  0.5124382509633838  0.1503671789693861 15.1534420287103586
  0.7968609630213823 10.5859732989693853 15.0386527332753523
  1.9959444824413826  6.4117308489693841 15.8990225452623566
  0.7968609630213823  4.3246096289693909 15.0386527332753523
  1.9959444824413826  0.1503671789693861 15.8990225452623566
  2.1415048365583829  8.4988520689693843 14.4304008587713533
  3.3405883559783831 10.5859732989693853 15.2907706707573574
  2.1415048365583829  2.2374883989693863 14.4304008587713533
  3.3405883559783831  4.3246096289693909 15.2907706707573574
  3.4861487078013820  6.4117308489693841 13.8221489703123588
  3.4861487078013820  0.1503671789693861 13.8221489703123588
  2.6364395865693826 10.5859732989693853 17.2156979800313579
  2.6364395865693826  4.3246096289693909 17.2156979800313579
  1.1688998884483821  8.4988520689693843 17.3717900167233559
  1.1688998884483821  2.2374883989693863 17.3717900167233559
  2.3082087678263825 12.6730945189693855  1.1065239860243574
  0.2420788959543821 12.6730945189693855  2.6115887129263582
  0.5124382509633838 12.6730945189693855  5.1534420287103577
  1.9959444824413826 12.6730945189693855  5.8990225452623557
  3.4861487078013820 12.6730945189693855  3.8221489703123583
  2.0378494150133832 12.6730945189693855  8.5646706562693566
  2.3082087678263825 12.6730945189693855 11.1065239860243530
  0.2420788959543821 12.6730945189693855 12.6115887129263573
  0.5124382509633838 12.6730945189693855 15.1534420287103586
  1.9959444824413826 12.6730945189693855 15.8990225452623566
  3.4861487078013820 12.6730945189693855 13.8221489703123588
  5.5715189850063824  8.4988520689693843  6.9035138926763571
  5.5715189850063824  2.2374883989693863  6.9035138926763571
 10.2999503618833828 10.5859732989693853  6.1789093771773578
  8.8324106615683817  8.4988520689693843  6.3350014278403579
 10.2999503618833828  4.3246096289693909  6.1789093771773578
  8.8324106615683817  2.2374883989693863  6.3350014278403579
  3.7757484681423827  8.4988520689693843  0.9504319353613573
  3.7757484681423827  2.2374883989693863  0.9504319353613573
 12.3082087678263825  6.4117308489693841  1.1065239860243574
 12.3082087678263825  0.1503671789693861  1.1065239860243574
  8.5041798428253834 10.5859732989693853  0.2258274338343575
  8.5041798428253834  4.3246096289693909  0.2258274338343575
 11.7096185962703832  8.4988520689693843  2.4554966622633572
 10.8406690697053847 10.5859732989693853  1.2626160227173573
 11.1110284225193841 10.5859732989693853  3.8044693524723585
  9.3731293693903837  8.4988520689693843  1.4187080733803574
  9.9717195431413828  6.4117308489693841  0.0697353831713583
 11.7096185962703832  2.2374883989693863  2.4554966622633572
 10.8406690697053847  4.3246096289693909  1.2626160227173573
 10.2420788959543820  6.4117308489693841  2.6115887129263582
 11.1110284225193841  4.3246096289693909  3.8044693524723585
  9.3731293693903837  2.2374883989693863  1.4187080733803574
  9.9717195431413828  0.1503671789693861  0.0697353831713583
 10.2420788959543820  0.1503671789693861  2.6115887129263582
  9.6434887243983827  8.4988520689693843  3.9605613891643570
  9.6434887243983827  2.2374883989693863  3.9605613891643570
 10.5124382509633847  6.4117308489693841  5.1534420287103577
 10.5124382509633847  0.1503671789693861  5.1534420287103577
 10.7968609630213823 10.5859732989693853  5.0386527332753568
 11.9959444824413826  6.4117308489693841  5.8990225452623557
 10.7968609630213823  4.3246096289693909  5.0386527332753568
 11.9959444824413826  0.1503671789693861  5.8990225452623557
  5.8843157466403824 10.5859732989693853  5.5428885942843591
  7.0833992660593825  6.4117308489693841  6.4032584062703579
  5.8843157466403824  4.3246096289693909  5.5428885942843591
  7.0833992660593825  0.1503671789693861  6.4032584062703579
 12.1415048365583846  8.4988520689693843  4.4304008587713568
  4.6852322272203821  8.4988520689693843  4.6825187822983567
  4.5396718753983825  6.4117308489693841  6.1511404827433553
 12.1415048365583846  2.2374883989693863  4.4304008587713568
  4.6852322272203821  2.2374883989693863  4.6825187822983567
  4.5396718753983825  0.1503671789693861  6.1511404827433553
  7.2289596201773829  8.4988520689693843  4.9346367197803582
  8.4280431395973832 10.5859732989693853  5.7950065317663553
  7.3745199720003836 10.5859732989693853  3.4660150193353583
  7.2289596201773829  2.2374883989693863  4.9346367197803582
  8.4280431395973832  4.3246096289693909  5.7950065317663553
  8.5736034914193819  6.4117308489693841  4.3263848313213575
  7.3745199720003836  4.3246096289693909  3.4660150193353583
  8.5736034914193819  0.1503671789693861  4.3263848313213575
  3.6317090619183823  8.4988520689693843  2.3535272838213577
  4.8307925813383825 10.5859732989693853  3.2138970958073561
  6.1754364525803824  8.4988520689693843  2.6056452073483580
  6.0298761007573827  6.4117308489693841  4.0742669077943567
  3.6317090619183823  2.2374883989693863  2.3535272838213577
  4.8307925813383825  4.3246096289693909  3.2138970958073561
  4.9763529331613823  6.4117308489693841  1.7452753953623574
  6.1754364525803824  2.2374883989693863  2.6056452073483580
  6.0298761007573827  0.1503671789693861  4.0742669077943567
  4.9763529331613823  0.1503671789693861  1.7452753953623574
  8.7191638455373823  8.4988520689693843  2.8577631448303560
  8.7191638455373823  2.2374883989693863  2.8577631448303560
  5.1219132872783826  8.4988520689693843  0.2766537088723586
  6.3209968066983819 10.5859732989693853  1.1370235208583572
  7.6656406779403836  8.4988520689693843  0.5287716323993576
  7.5200803261173848  6.4117308489693841  1.9973933328443580
  5.1219132872783826  2.2374883989693863  0.2766537088723586
  6.3209968066983819  4.3246096289693909  1.1370235208583572
  7.6656406779403836  2.2374883989693863  0.5287716323993576
  7.5200803261173848  0.1503671789693861  1.9973933328443580
  5.5715189850063824  8.4988520689693843 16.9035138926763580
  5.5715189850063824  2.2374883989693863 16.9035138926763580
 12.6364395865693826 10.5859732989693853  7.2156979800313552
 12.6364395865693826  4.3246096289693909  7.2156979800313552
  4.9729288134493821 10.5859732989693853  8.2524865689143567
  4.1039792868853819  6.4117308489693841  7.0596059293683551
  4.9729288134493821  4.3246096289693909  8.2524865689143567
  4.3743386396983830  6.4117308489693841  9.6014592591233576
  4.1039792868853819  0.1503671789693861  7.0596059293683551
  4.3743386396983830  0.1503671789693861  9.6014592591233576
 11.1688998884483830  8.4988520689693843  7.3717900167233577
 10.2999503618833828 10.5859732989693853 16.1789093771773587
 10.5703097146973839 10.5859732989693853  8.7207627069323568
  8.8324106615683817  8.4988520689693843 16.3350014278403570
 11.1688998884483830  2.2374883989693863  7.3717900167233577
 10.2999503618833828  4.3246096289693909 16.1789093771773587
  9.7013601881323837  6.4117308489693841  7.5278820673863569
 10.5703097146973839  4.3246096289693909  8.7207627069323568
  8.8324106615683817  2.2374883989693863 16.3350014278403570
  9.7013601881323837  0.1503671789693861  7.5278820673863569
  3.7757484681423827  8.4988520689693843 10.9504319353613582
 11.4392592412623824  8.4988520689693843  9.9136433464783558
 12.0378494150133832  6.4117308489693841  8.5646706562693566
  3.7757484681423827  2.2374883989693863 10.9504319353613582
 12.3082087678263825  6.4117308489693841 11.1065239860243530
 11.4392592412623824  2.2374883989693863  9.9136433464783558
 12.0378494150133832  0.1503671789693861  8.5646706562693566
 12.3082087678263825  0.1503671789693861 11.1065239860243530
  9.1027700165763825  8.4988520689693843  8.8768547436253566
  8.2338204900113823 10.5859732989693853  7.6839741040793568
  8.5041798428253834 10.5859732989693853 10.2258274338343575
  9.1027700165763825  2.2374883989693863  8.8768547436253566
  8.2338204900113823  4.3246096289693909  7.6839741040793568
  8.5041798428253834  4.3246096289693909 10.2258274338343575
 11.7096185962703832  8.4988520689693843 12.4554966622633572
 10.8406690697053847 10.5859732989693853 11.2626160227173564
 11.1110284225193841 10.5859732989693853 13.8044693524723563
  9.3731293693903837  8.4988520689693843 11.4187080733803583
  9.9717195431413828  6.4117308489693841 10.0697353831713574
 11.7096185962703832  2.2374883989693863 12.4554966622633572
 10.8406690697053847  4.3246096289693909 11.2626160227173564
 10.2420788959543820  6.4117308489693841 12.6115887129263573
 11.1110284225193841  4.3246096289693909 13.8044693524723563
  9.3731293693903837  2.2374883989693863 11.4187080733803583
  9.9717195431413828  0.1503671789693861 10.0697353831713574
 10.2420788959543820  0.1503671789693861 12.6115887129263573
  9.6434887243983827  8.4988520689693843 13.9605613891643578
  9.6434887243983827  2.2374883989693863 13.9605613891643578
 10.5124382509633847  6.4117308489693841 15.1534420287103586
 10.5124382509633847  0.1503671789693861 15.1534420287103586
 10.7968609630213823 10.5859732989693853 15.0386527332753523
 11.9959444824413826  6.4117308489693841 15.8990225452623566
 10.7968609630213823  4.3246096289693909 15.0386527332753523
 11.9959444824413826  0.1503671789693861 15.8990225452623566
  5.8843157466403824 10.5859732989693853 15.5428885942843564
  7.0833992660593825  6.4117308489693841 16.4032584062703570
  5.8843157466403824  4.3246096289693909 15.5428885942843564
  7.0833992660593825  0.1503671789693861 16.4032584062703570
 12.1415048365583846  8.4988520689693843 14.4304008587713533
  4.6852322272203821  8.4988520689693843 14.6825187822983558
  4.5396718753983825  6.4117308489693841 16.1511404827433580
 12.1415048365583846  2.2374883989693863 14.4304008587713533
  4.6852322272203821  2.2374883989693863 14.6825187822983558
  4.5396718753983825  0.1503671789693861 16.1511404827433580
  7.2289596201773829  8.4988520689693843 14.9346367197803538
  8.4280431395973832 10.5859732989693853 15.7950065317663579
  7.3745199720003836 10.5859732989693853 13.4660150193353569
  7.2289596201773829  2.2374883989693863 14.9346367197803538
  8.4280431395973832  4.3246096289693909 15.7950065317663579
  8.5736034914193819  6.4117308489693841 14.3263848313213540
  7.3745199720003836  4.3246096289693909 13.4660150193353569
  8.5736034914193819  0.1503671789693861 14.3263848313213540
  3.6317090619183823  8.4988520689693843 12.3535272838213572
  4.8307925813383825 10.5859732989693853 13.2138970958073543
  6.1754364525803824  8.4988520689693843 12.6056452073483580
  6.0298761007573827  6.4117308489693841 14.0742669077943567
  3.6317090619183823  2.2374883989693863 12.3535272838213572
  4.8307925813383825  4.3246096289693909 13.2138970958073543
  4.9763529331613823  6.4117308489693841 11.7452753953623574
  6.1754364525803824  2.2374883989693863 12.6056452073483580
  6.0298761007573827  0.1503671789693861 14.0742669077943567
  4.9763529331613823  0.1503671789693861 11.7452753953623574
  8.7191638455373823  8.4988520689693843 12.8577631448303578
  8.7191638455373823  2.2374883989693863 12.8577631448303578
  5.1219132872783826  8.4988520689693843 10.2766537088723577
  6.3209968066983819 10.5859732989693853 11.1370235208583566
  7.6656406779403836  8.4988520689693843 10.5287716323993568
  7.5200803261173848  6.4117308489693841 11.9973933328443536
  5.1219132872783826  2.2374883989693863 10.2766537088723577
  6.3209968066983819  4.3246096289693909 11.1370235208583566
  6.4665571585203834  6.4117308489693841  9.6684018204133579
  7.6656406779403836  2.2374883989693863 10.5287716323993568
  7.5200803261173848  0.1503671789693861 11.9973933328443536
  6.4665571585203834  0.1503671789693861  9.6684018204133579
  6.6121175126383838  8.4988520689693843  8.1997801339223564
  7.8112010320583822 10.5859732989693853  9.0601499459083570
  6.6121175126383838  2.2374883989693863  8.1997801339223564
  7.8112010320583822  4.3246096289693909  9.0601499459083570
  7.9567613838803837  6.4117308489693841  7.5915282454633575
  7.9567613838803837  0.1503671789693861  7.5915282454633575
 12.6364395865693826 10.5859732989693853 17.2156979800313579
 12.6364395865693826  4.3246096289693909 17.2156979800313579
  4.1039792868853819  6.4117308489693841 17.0596059293683560
  4.1039792868853819  0.1503671789693861 17.0596059293683560
 11.1688998884483830  8.4988520689693843 17.3717900167233559
 11.1688998884483830  2.2374883989693863 17.3717900167233559
  9.7013601881323837  6.4117308489693841 17.5278820673863578
  9.7013601881323837  0.1503671789693861 17.5278820673863578
  8.2338204900113823 10.5859732989693853 17.6839741040793577
  8.2338204900113823  4.3246096289693909 17.6839741040793577
  7.9567613838803837  6.4117308489693841 17.5915282454633584
  7.9567613838803837  0.1503671789693861 17.5915282454633584
 12.3082087678263825 12.6730945189693855  1.1065239860243574
  9.9717195431413828 12.6730945189693855  0.0697353831713583
 10.2420788959543820 12.6730945189693855  2.6115887129263582
 10.5124382509633847 12.6730945189693855  5.1534420287103577
 11.9959444824413826 12.6730945189693855  5.8990225452623557
  7.0833992660593825 12.6730945189693855  6.4032584062703579
  4.5396718753983825 12.6730945189693855  6.1511404827433553
  8.5736034914193819 12.6730945189693855  4.3263848313213575
  6.0298761007573827 12.6730945189693855  4.0742669077943567
  4.9763529331613823 12.6730945189693855  1.7452753953623574
  7.5200803261173848 12.6730945189693855  1.9973933328443580
  4.1039792868853819 12.6730945189693855  7.0596059293683551
  4.3743386396983830 12.6730945189693855  9.6014592591233576
  9.7013601881323837 12.6730945189693855  7.5278820673863569
 12.0378494150133832 12.6730945189693855  8.5646706562693566
 12.3082087678263825 12.6730945189693855 11.1065239860243530
  9.9717195431413828 12.6730945189693855 10.0697353831713574
 10.2420788959543820 12.6730945189693855 12.6115887129263573
 10.5124382509633847 12.6730945189693855 15.1534420287103586
 11.9959444824413826 12.6730945189693855 15.8990225452623566
  7.0833992660593825 12.6730945189693855 16.4032584062703570
  4.5396718753983825 12.6730945189693855 16.1511404827433580
  8.5736034914193819 12.6730945189693855 14.3263848313213540
  6.0298761007573827 12.6730945189693855 14.0742669077943567
  4.9763529331613823 12.6730945189693855 11.7452753953623574
  7.5200803261173848 12.6730945189693855 11.9973933328443536
  6.4665571585203834 12.6730945189693855  9.6684018204133579
  7.9567613838803837 12.6730945189693855  7.5915282454633575
  4.1039792868853819 12.6730945189693855 17.0596059293683560
  9.7013601881323837 12.6730945189693855 17.5278820673863578
  7.9567613838803837 12.6730945189693855 17.5915282454633584
