Cu
 1.0000000000000000
    15.2635356090502583    0.0000000000000000    0.0000000000000000
     0.0000000000000000   13.0945702242370103    0.0000000000000000
     0.0000000000000000    0.0000000000000000   16.5989754369842686
 Cu 
 280
Cartesian
  1.5379748723763127  3.4638125758490581  5.2447612698854851
  6.2664062492533148  5.5509338058490592  4.5201567543864858
  4.7988665489383129  3.4638125758490581  4.6762488050494859
  7.6760744836403134  3.4638125758490581  0.7967440394724852
  7.0774843098893143  5.5509338058490592  2.1457167296814870
  6.2085347833243123  1.3766913558490579  0.9528360901354871
  5.6099446117683129  3.4638125758490581  2.3018087663734850
  6.4788941383333141  1.3766913558490579  3.4946894059194857
  6.7633168503913126  5.5509338058490592  3.3799001104844848
  7.9624003698113137  1.3766913558490579  4.2402699224714855
  1.8507716340103126  5.5509338058490592  3.8841359714934871
  3.0498551534293128  1.3766913558490579  4.7445057834794859
  8.1079607239283131  3.4638125758490581  2.7716482359804848
  9.3070442433483134  5.5509338058490592  3.6320180479664850
  0.6516881145903126  3.4638125758490581  3.0237661595074847
  0.5061277627683126  1.3766913558490579  4.4923878599524851
  9.4526045951713122  1.3766913558490579  2.1633963475214868
  3.1954155075473145  3.4638125758490581  3.2758840969894862
  4.3944990269673134  5.5509338058490592  4.1362539089754851
  3.3409758593703143  5.5509338058490592  1.8072623965444867
  4.5400593787893122  1.3766913558490579  2.6676322085304855
  0.7972484687083130  5.5509338058490592  1.5551444730164850
  2.1418923399503127  3.4638125758490581  0.9468925845574860
  1.9963319881273127  1.3766913558490579  2.4155142850034848
  0.9428088205313128  1.3766913558490579  0.0865227725714854
  4.6856197329073126  3.4638125758490581  1.1990105220394849
  3.4865362134873146  1.3766913558490579  0.3386407100534861
  1.5379748723763127  3.4638125758490581 15.2447612698854851
  8.6028954739393129  5.5509338058490592  5.5569453572404859
  0.9393847008193128  5.5509338058490592  6.5937339461234856
  9.4718450005043131  3.4638125758490581  6.7498259967864858
  0.0704351742553127  1.3766913558490579  5.4008533065774849
  0.3407945270683129  1.3766913558490579  7.9427066363324847
  7.1353557758183124  3.4638125758490581  5.7130373939324857
  6.2664062492533148  5.5509338058490592 14.5201567543864858
  6.5367656020673133  5.5509338058490592  7.0620100841414866
  4.7988665489383129  3.4638125758490581 14.6762488050494859
  5.6678160755023139  1.3766913558490579  5.8691294445954849
  8.8732548289473119  5.5509338058490592  8.0987986730244863
  7.4057151286323126  3.4638125758490581  8.2548907236874847
  8.0043053023833135  1.3766913558490579  6.9059180334784855
  8.2746646551963128  1.3766913558490579  9.4477713632334854
  5.0692259039463137  3.4638125758490581  7.2181021208344855
  4.2002763773813125  5.5509338058490592  6.0252214812884848
  4.4706357301953155  5.5509338058490592  8.5670748110434864
  7.6760744836403134  3.4638125758490581 10.7967440394724861
  6.8071249570753141  5.5509338058490592  9.6038633999264853
  7.0774843098893143  5.5509338058490592 12.1457167296814870
  5.3395852567603139  3.4638125758490581  9.7599554505894854
  5.9381754305113157  1.3766913558490579  8.4109827603804863
  6.2085347833243123  1.3766913558490579 10.9528360901354880
  5.6099446117683129  3.4638125758490581 12.3018087663734850
  6.4788941383333141  1.3766913558490579 13.4946894059194875
  6.7633168503913126  5.5509338058490592 13.3799001104844848
  7.9624003698113137  1.3766913558490579 14.2402699224714855
  1.8507716340103126  5.5509338058490592 13.8841359714934871
  3.0498551534293128  1.3766913558490579 14.7445057834794859
  8.1079607239283131  3.4638125758490581 12.7716482359804857
  9.3070442433483134  5.5509338058490592 13.6320180479664845
  0.6516881145903126  3.4638125758490581 13.0237661595074847
  0.5061277627683126  1.3766913558490579 14.4923878599524851
  9.4526045951713122  1.3766913558490579 12.1633963475214877
  3.1954155075473145  3.4638125758490581 13.2758840969894862
  4.3944990269673134  5.5509338058490592 14.1362539089754851
  3.3409758593703143  5.5509338058490592 11.8072623965444876
  4.5400593787893122  1.3766913558490579 12.6676322085304847
  0.7972484687083130  5.5509338058490592 11.5551444730164850
  2.1418923399503127  3.4638125758490581 10.9468925845574852
  1.9963319881273127  1.3766913558490579 12.4155142850034856
  0.9428088205313128  1.3766913558490579 10.0865227725714846
  4.6856197329073126  3.4638125758490581 11.1990105220394884
  1.0883691746483131  3.4638125758490581  8.6179010860814866
  2.2874526940683126  5.5509338058490592  9.4782708980674855
  3.6320965653103130  3.4638125758490581  8.8700190096084857
  3.4865362134873146  1.3766913558490579 10.3386407100534861
  2.4330130458903128  1.3766913558490579  8.0096491976224851
  2.5785734000083127  3.4638125758490581  6.5410275111314853
  3.7776569194283129  5.5509338058490592  7.4013973231174850
  3.9232172712503131  1.3766913558490579  5.9327756226724855
  8.6028954739393129  5.5509338058490592 15.5569453572404850
  0.9393847008193128  5.5509338058490592 16.5937339461234856
  0.0704351742553127  1.3766913558490579 15.4008533065774849
  7.1353557758183124  3.4638125758490581 15.7130373939324883
  5.6678160755023139  1.3766913558490579 15.8691294445954849
  4.2002763773813125  5.5509338058490592 16.0252214812884830
  2.5785734000083127  3.4638125758490581 16.5410275111314853
  3.9232172712503131  1.3766913558490579 15.9327756226724855
  1.5379748723763127 11.8122974758490606  5.2447612698854851
  6.2664062492533148  9.7251762458490596  4.5201567543864858
  4.7988665489383129 11.8122974758490606  4.6762488050494859
  7.6760744836403134 11.8122974758490606  0.7967440394724852
  6.2085347833243123  7.6380550258490594  0.9528360901354871
  7.0774843098893143  9.7251762458490596  2.1457167296814870
  5.6099446117683129 11.8122974758490606  2.3018087663734850
  6.4788941383333141  7.6380550258490594  3.4946894059194857
  7.9624003698113137  7.6380550258490594  4.2402699224714855
  6.7633168503913126  9.7251762458490596  3.3799001104844848
  3.0498551534293128  7.6380550258490594  4.7445057834794859
  1.8507716340103126  9.7251762458490596  3.8841359714934871
  0.5061277627683126  7.6380550258490594  4.4923878599524851
  8.1079607239283131 11.8122974758490606  2.7716482359804848
  9.3070442433483134  9.7251762458490596  3.6320180479664850
  9.4526045951713122  7.6380550258490594  2.1633963475214868
  0.6516881145903126 11.8122974758490606  3.0237661595074847
  3.1954155075473145 11.8122974758490606  3.2758840969894862
  4.3944990269673134  9.7251762458490596  4.1362539089754851
  4.5400593787893122  7.6380550258490594  2.6676322085304855
  3.3409758593703143  9.7251762458490596  1.8072623965444867
  1.9963319881273127  7.6380550258490594  2.4155142850034848
  0.7972484687083130  9.7251762458490596  1.5551444730164850
  0.9428088205313128  7.6380550258490594  0.0865227725714854
  2.1418923399503127 11.8122974758490606  0.9468925845574860
  4.6856197329073126 11.8122974758490606  1.1990105220394849
  3.4865362134873146  7.6380550258490594  0.3386407100534861
  1.5379748723763127 11.8122974758490606 15.2447612698854851
  8.6028954739393129  9.7251762458490596  5.5569453572404859
  0.0704351742553127  7.6380550258490594  5.4008533065774849
  0.9393847008193128  9.7251762458490596  6.5937339461234856
  0.3407945270683129  7.6380550258490594  7.9427066363324847
  9.4718450005043131 11.8122974758490606  6.7498259967864858
  7.1353557758183124 11.8122974758490606  5.7130373939324857
  6.2664062492533148  9.7251762458490596 14.5201567543864858
  5.6678160755023139  7.6380550258490594  5.8691294445954849
  6.5367656020673133  9.7251762458490596  7.0620100841414866
  4.7988665489383129 11.8122974758490606 14.6762488050494859
  8.0043053023833135  7.6380550258490594  6.9059180334784855
  8.8732548289473119  9.7251762458490596  8.0987986730244863
  8.2746646551963128  7.6380550258490594  9.4477713632334854
  7.4057151286323126 11.8122974758490606  8.2548907236874847
  5.0692259039463137 11.8122974758490606  7.2181021208344855
  4.2002763773813125  9.7251762458490596  6.0252214812884848
  4.4706357301953155  9.7251762458490596  8.5670748110434864
  5.9381754305113157  7.6380550258490594  8.4109827603804863
  7.6760744836403134 11.8122974758490606 10.7967440394724861
  6.8071249570753141  9.7251762458490596  9.6038633999264853
  6.2085347833243123  7.6380550258490594 10.9528360901354880
  7.0774843098893143  9.7251762458490596 12.1457167296814870
  5.3395852567603139 11.8122974758490606  9.7599554505894854
  5.6099446117683129 11.8122974758490606 12.3018087663734850
  6.4788941383333141  7.6380550258490594 13.4946894059194875
  7.9624003698113137  7.6380550258490594 14.2402699224714855
  6.7633168503913126  9.7251762458490596 13.3799001104844848
  3.0498551534293128  7.6380550258490594 14.7445057834794859
  1.8507716340103126  9.7251762458490596 13.8841359714934871
  0.5061277627683126  7.6380550258490594 14.4923878599524851
  8.1079607239283131 11.8122974758490606 12.7716482359804857
  9.3070442433483134  9.7251762458490596 13.6320180479664845
  9.4526045951713122  7.6380550258490594 12.1633963475214877
  0.6516881145903126 11.8122974758490606 13.0237661595074847
  3.1954155075473145 11.8122974758490606 13.2758840969894862
  4.3944990269673134  9.7251762458490596 14.1362539089754851
  4.5400593787893122  7.6380550258490594 12.6676322085304847
  3.3409758593703143  9.7251762458490596 11.8072623965444876
  1.9963319881273127  7.6380550258490594 12.4155142850034856
  0.7972484687083130  9.7251762458490596 11.5551444730164850
  0.9428088205313128  7.6380550258490594 10.0865227725714846
  2.1418923399503127 11.8122974758490606 10.9468925845574852
  4.6856197329073126 11.8122974758490606 11.1990105220394884
  3.4865362134873146  7.6380550258490594 10.3386407100534861
  1.0883691746483131 11.8122974758490606  8.6179010860814866
  2.2874526940683126  9.7251762458490596  9.4782708980674855
  2.4330130458903128  7.6380550258490594  8.0096491976224851
  3.6320965653103130 11.8122974758490606  8.8700190096084857
  2.5785734000083127 11.8122974758490606  6.5410275111314853
  3.7776569194283129  9.7251762458490596  7.4013973231174850
  3.9232172712503131  7.6380550258490594  5.9327756226724855
  8.6028954739393129  9.7251762458490596 15.5569453572404850
  0.0704351742553127  7.6380550258490594 15.4008533065774849
  0.9393847008193128  9.7251762458490596 16.5937339461234856
  7.1353557758183124 11.8122974758490606 15.7130373939324883
  5.6678160755023139  7.6380550258490594 15.8691294445954849
  4.2002763773813125  9.7251762458490596 16.0252214812884830
  2.5785734000083127 11.8122974758490606 16.5410275111314853
  3.9232172712503131  7.6380550258490594 15.9327756226724855
 11.5379748723763154  3.4638125758490581  5.2447612698854851
 14.7988665489383120  3.4638125758490581  4.6762488050494859
 11.8507716340103162  5.5509338058490592  3.8841359714934871
 13.0498551534293163  1.3766913558490579  4.7445057834794859
 10.6516881145903124  3.4638125758490581  3.0237661595074847
 10.5061277627683154  1.3766913558490579  4.4923878599524851
 13.1954155075473132  3.4638125758490581  3.2758840969894862
 14.3944990269673134  5.5509338058490592  4.1362539089754851
 13.3409758593703138  5.5509338058490592  1.8072623965444867
 14.5400593787893122  1.3766913558490579  2.6676322085304855
  9.5981649492883161  3.4638125758490581  0.6947746610304861
 10.7972484687083128  5.5509338058490592  1.5551444730164850
 12.1418923399503118  3.4638125758490581  0.9468925845574860
 11.9963319881273129  1.3766913558490579  2.4155142850034848
 10.9428088205313152  1.3766913558490579  0.0865227725714854
 14.6856197329073161  3.4638125758490581  1.1990105220394849
 13.4865362134873141  1.3766913558490579  0.3386407100534861
 11.5379748723763154  3.4638125758490581 15.2447612698854851
 10.9393847008193141  5.5509338058490592  6.5937339461234856
 10.0704351742553122  1.3766913558490579  5.4008533065774849
 10.3407945270683168  1.3766913558490579  7.9427066363324847
 14.7988665489383120  3.4638125758490581 14.6762488050494859
  9.7422043555123121  3.4638125758490581  9.2916793125704853
 15.0692259039463128  3.4638125758490581  7.2181021208344855
 14.2002763773813125  5.5509338058490592  6.0252214812884848
 14.4706357301953137  5.5509338058490592  8.5670748110434864
 11.8507716340103162  5.5509338058490592 13.8841359714934871
 13.0498551534293163  1.3766913558490579 14.7445057834794859
 10.6516881145903124  3.4638125758490581 13.0237661595074847
 10.5061277627683154  1.3766913558490579 14.4923878599524851
 13.1954155075473132  3.4638125758490581 13.2758840969894862
 14.3944990269673134  5.5509338058490592 14.1362539089754851
 13.3409758593703138  5.5509338058490592 11.8072623965444876
 14.5400593787893122  1.3766913558490579 12.6676322085304847
  9.5981649492883161  3.4638125758490581 10.6947746610304861
 10.7972484687083128  5.5509338058490592 11.5551444730164850
 12.1418923399503118  3.4638125758490581 10.9468925845574852
 11.9963319881273129  1.3766913558490579 12.4155142850034856
 10.9428088205313152  1.3766913558490579 10.0865227725714846
 14.6856197329073161  3.4638125758490581 11.1990105220394884
 11.0883691746483137  3.4638125758490581  8.6179010860814866
 12.2874526940683122  5.5509338058490592  9.4782708980674855
 13.6320965653103130  3.4638125758490581  8.8700190096084857
 13.4865362134873141  1.3766913558490579 10.3386407100534861
 12.4330130458903128  1.3766913558490579  8.0096491976224851
 12.5785734000083131  3.4638125758490581  6.5410275111314853
 13.7776569194283152  5.5509338058490592  7.4013973231174850
 13.9232172712503175  1.3766913558490579  5.9327756226724855
 10.9393847008193141  5.5509338058490592 16.5937339461234856
 10.0704351742553122  1.3766913558490579 15.4008533065774849
 14.2002763773813125  5.5509338058490592 16.0252214812884830
 12.5785734000083131  3.4638125758490581 16.5410275111314853
 13.9232172712503175  1.3766913558490579 15.9327756226724855
 11.5379748723763154 11.8122974758490606  5.2447612698854851
 14.7988665489383120 11.8122974758490606  4.6762488050494859
 13.0498551534293163  7.6380550258490594  4.7445057834794859
 11.8507716340103162  9.7251762458490596  3.8841359714934871
 10.5061277627683154  7.6380550258490594  4.4923878599524851
 10.6516881145903124 11.8122974758490606  3.0237661595074847
 13.1954155075473132 11.8122974758490606  3.2758840969894862
 14.3944990269673134  9.7251762458490596  4.1362539089754851
 14.5400593787893122  7.6380550258490594  2.6676322085304855
 13.3409758593703138  9.7251762458490596  1.8072623965444867
 11.9963319881273129  7.6380550258490594  2.4155142850034848
  9.5981649492883161 11.8122974758490606  0.6947746610304861
 10.7972484687083128  9.7251762458490596  1.5551444730164850
 10.9428088205313152  7.6380550258490594  0.0865227725714854
 12.1418923399503118 11.8122974758490606  0.9468925845574860
 14.6856197329073161 11.8122974758490606  1.1990105220394849
 13.4865362134873141  7.6380550258490594  0.3386407100534861
 11.5379748723763154 11.8122974758490606 15.2447612698854851
 10.0704351742553122  7.6380550258490594  5.4008533065774849
 10.9393847008193141  9.7251762458490596  6.5937339461234856
 10.3407945270683168  7.6380550258490594  7.9427066363324847
 14.7988665489383120 11.8122974758490606 14.6762488050494859
  9.7422043555123121 11.8122974758490606  9.2916793125704853
 15.0692259039463128 11.8122974758490606  7.2181021208344855
 14.2002763773813125  9.7251762458490596  6.0252214812884848
 14.4706357301953137  9.7251762458490596  8.5670748110434864
 13.0498551534293163  7.6380550258490594 14.7445057834794859
 11.8507716340103162  9.7251762458490596 13.8841359714934871
 10.5061277627683154  7.6380550258490594 14.4923878599524851
 10.6516881145903124 11.8122974758490606 13.0237661595074847
 13.1954155075473132 11.8122974758490606 13.2758840969894862
 14.3944990269673134  9.7251762458490596 14.1362539089754851
 14.5400593787893122  7.6380550258490594 12.6676322085304847
 13.3409758593703138  9.7251762458490596 11.8072623965444876
 11.9963319881273129  7.6380550258490594 12.4155142850034856
  9.5981649492883161 11.8122974758490606 10.6947746610304861
 10.7972484687083128  9.7251762458490596 11.5551444730164850
 10.9428088205313152  7.6380550258490594 10.0865227725714846
 12.1418923399503118 11.8122974758490606 10.9468925845574852
 14.6856197329073161 11.8122974758490606 11.1990105220394884
 13.4865362134873141  7.6380550258490594 10.3386407100534861
 11.0883691746483137 11.8122974758490606  8.6179010860814866
 12.2874526940683122  9.7251762458490596  9.4782708980674855
 12.4330130458903128  7.6380550258490594  8.0096491976224851
 13.6320965653103130 11.8122974758490606  8.8700190096084857
 12.5785734000083131 11.8122974758490606  6.5410275111314853
 13.7776569194283152  9.7251762458490596  7.4013973231174850
 13.9232172712503175  7.6380550258490594  5.9327756226724855
 10.0704351742553122  7.6380550258490594 15.4008533065774849
 10.9393847008193141  9.7251762458490596 16.5937339461234856
 14.2002763773813125  9.7251762458490596 16.0252214812884830
 12.5785734000083131 11.8122974758490606 16.5410275111314853
 13.9232172712503175  7.6380550258490594 15.9327756226724855
