Cu
 1.0000000000000000
    13.3850227713800258    0.0000000000000000    0.0000000000000000
     0.0000000000000000   12.7337680465935854    0.0000000000000000
     0.0000000000000000    0.0000000000000000   13.4682658310425509
 Cu 
 204
Cartesian
  6.1833991256303422  7.5886371881328145  1.0523089129210681
  6.1833991256303422  1.3272735181328166  1.0523089129210681
  3.8469099009443415  7.5886371881328145  0.0155203100670681
  2.9779603743793421  9.6757584181328156  8.8226396705210668
  3.2483197271933424  9.6757584181328156  1.3644930002760678
  1.5104206740643422  7.5886371881328145  8.9787317211840687
  3.8469099009443415  1.3272735181328166  0.0155203100670681
  2.9779603743793421  3.4143947481328216  8.8226396705210668
  2.3793702006283435  5.5015159681328143  0.1716123607300679
  3.2483197271933424  3.4143947481328216  1.3644930002760678
  1.5104206740643422  1.3272735181328166  8.9787317211840687
  5.5848089540733410  9.6757584181328156  2.4012815891590682
  4.1172692537583417  7.5886371881328145  2.5573736398220679
  4.7158594275093426  5.5015159681328143  1.2084009496130674
  5.5848089540733410  3.4143947481328216  2.4012815891590682
  4.9862187803223419  5.5015159681328143  3.7502542793680678
  4.1172692537583417  1.3272735181328166  2.5573736398220679
  1.7807800290723428  7.5886371881328145  1.5205850369690674
  0.9118305025073419  9.6757584181328156  0.3277043974230678
  1.1821898553213432  9.6757584181328156  2.8695577271780683
  1.7807800290723428  1.3272735181328166  1.5205850369690674
  0.9118305025073419  3.4143947481328216  0.3277043974230678
  1.1821898553213432  3.4143947481328216  2.8695577271780683
  4.3876286087663425  7.5886371881328145  5.0992269556070671
  3.5186790822013436  9.6757584181328156  3.9063463160610676
  3.7890384350153439  9.6757584181328156  6.4481996458160697
  2.0511393818863435  7.5886371881328145  4.0624383667240682
  2.6497295556373430  5.5015159681328143  2.7134656765150682
  4.3876286087663425  1.3272735181328166  5.0992269556070671
  3.5186790822013436  3.4143947481328216  3.9063463160610676
  2.9200889084503414  5.5015159681328143  5.2553190062700699
  3.7890384350153439  3.4143947481328216  6.4481996458160697
  2.0511393818863435  1.3272735181328166  4.0624383667240682
  2.3214987368943421  7.5886371881328145  6.6042916825080678
  2.3214987368943421  1.3272735181328166  6.6042916825080678
  3.1904482634593432  5.5015159681328143  7.7971723220540685
  3.4748709755173421  9.6757584181328156  7.6823830266190676
  4.6739544949373419  5.5015159681328143  8.5427528386060647
  3.4748709755173421  3.4143947481328216  7.6823830266190676
  4.8195148490543440  7.5886371881328145  7.0741311521150667
  6.0185983684743425  9.6757584181328156  7.9345009641010673
  4.8195148490543440  1.3272735181328166  7.0741311521150667
  6.0185983684743425  3.4143947481328216  7.9345009641010673
  6.1641587202973414  5.5015159681328143  6.4658792636560696
  1.1060531520933425  9.6757584181328156  8.4387368251100643
  0.0525299844963429  9.6757584181328156  6.1097453126790695
  1.1060531520933425  3.4143947481328216  8.4387368251100643
  1.2516135039153413  5.5015159681328143  6.9701151246650674
  0.0525299844963429  3.4143947481328216  6.1097453126790695
  1.3971738580333417  7.5886371881328145  5.5014934381740677
  1.3971738580333417  1.3272735181328166  5.5014934381740677
  0.3436506904363422  7.5886371881328145  3.1725019257430689
  0.1980903386133433  5.5015159681328143  4.6411236261880671
  0.3436506904363422  1.3272735181328166  3.1725019257430689
  0.4892110445543416  9.6757584181328156  1.7038802392520673
  0.4892110445543416  3.4143947481328216  1.7038802392520673
  0.6347713963763422  5.5015159681328143  0.2352585388070679
  5.3144495990653420  9.6757584181328156  9.8594282733750642
  5.3144495990653420  3.4143947481328216  9.8594282733750642
  6.1833991256303422  7.5886371881328145 11.0523089129210650
  6.1833991256303422  1.3272735181328166 11.0523089129210650
  3.8469099009443415  7.5886371881328145 10.0155203100670658
  3.2483197271933424  9.6757584181328156 11.3644930002760685
  3.8469099009443415  1.3272735181328166 10.0155203100670658
  2.3793702006283435  5.5015159681328143 10.1716123607300677
  3.2483197271933424  3.4143947481328216 11.3644930002760685
  5.5848089540733410  9.6757584181328156 12.4012815891590673
  4.1172692537583417  7.5886371881328145 12.5573736398220674
  4.7158594275093426  5.5015159681328143 11.2084009496130665
  5.5848089540733410  3.4143947481328216 12.4012815891590673
  4.1172692537583417  1.3272735181328166 12.5573736398220674
  1.7807800290723428  7.5886371881328145 11.5205850369690648
  0.9118305025073419  9.6757584181328156 10.3277043974230640
  1.1821898553213432  9.6757584181328156 12.8695577271780675
  1.7807800290723428  1.3272735181328166 11.5205850369690648
  0.9118305025073419  3.4143947481328216 10.3277043974230640
  1.1821898553213432  3.4143947481328216 12.8695577271780675
  2.6497295556373430  5.5015159681328143 12.7134656765150655
  0.3436506904363422  7.5886371881328145 13.1725019257430684
  0.3436506904363422  1.3272735181328166 13.1725019257430684
  0.4892110445543416  9.6757584181328156 11.7038802392520669
  0.4892110445543416  3.4143947481328216 11.7038802392520669
  0.6347713963763422  5.5015159681328143 10.2352585388070683
  2.3793702006283435 11.7628796381328158  0.1716123607300679
  4.7158594275093426 11.7628796381328158  1.2084009496130674
  4.9862187803223419 11.7628796381328158  3.7502542793680678
  2.6497295556373430 11.7628796381328158  2.7134656765150682
  2.9200889084503414 11.7628796381328158  5.2553190062700699
  3.1904482634593432 11.7628796381328158  7.7971723220540685
  4.6739544949373419 11.7628796381328158  8.5427528386060647
  6.1641587202973414 11.7628796381328158  6.4658792636560696
  1.2516135039153413 11.7628796381328158  6.9701151246650674
  0.1980903386133433 11.7628796381328158  4.6411236261880671
  0.6347713963763422 11.7628796381328158  0.2352585388070679
  2.3793702006283435 11.7628796381328158 10.1716123607300677
  4.7158594275093426 11.7628796381328158 11.2084009496130665
  2.6497295556373430 11.7628796381328158 12.7134656765150655
  0.6347713963763422 11.7628796381328158 10.2352585388070683
  8.2495289975023436  7.5886371881328145  9.5472441860200679
  8.2495289975023436  1.3272735181328166  9.5472441860200679
  7.6509388259453424  9.6757584181328156  0.8962168622580678
  7.6509388259453424  3.4143947481328216  0.8962168622580678
  7.0523486521943424  5.5015159681328143  2.2451895524670675
 12.9779603743793466  9.6757584181328156  8.8226396705210668
 13.2483197271933424  9.6757584181328156  1.3644930002760678
 11.5104206740643420  7.5886371881328145  8.9787317211840687
 12.9779603743793466  3.4143947481328216  8.8226396705210668
 12.3793702006283439  5.5015159681328143  0.1716123607300679
 13.2483197271933424  3.4143947481328216  1.3644930002760678
 11.5104206740643420  1.3272735181328166  8.9787317211840687
  6.4537584806383421  7.5886371881328145  3.5941622287050681
  6.4537584806383421  1.3272735181328166  3.5941622287050681
 11.7807800290723463  7.5886371881328145  1.5205850369690674
 10.9118305025073461  9.6757584181328156  0.3277043974230678
 11.1821898553213437  9.6757584181328156  2.8695577271780683
 11.7807800290723463  1.3272735181328166  1.5205850369690674
 10.9118305025073461  3.4143947481328216  0.3277043974230678
 11.1821898553213437  3.4143947481328216  2.8695577271780683
 12.0511393818863439  7.5886371881328145  4.0624383667240682
 12.6497295556373466  5.5015159681328143  2.7134656765150682
 12.9200889084503423  5.5015159681328143  5.2553190062700699
 12.0511393818863439  1.3272735181328166  4.0624383667240682
 12.3214987368943412  7.5886371881328145  6.6042916825080678
 12.3214987368943412  1.3272735181328166  6.6042916825080678
 13.1904482634593467  5.5015159681328143  7.7971723220540685
  8.5623257591363444  9.6757584181328156  8.1866188876280699
  9.7614092785553428  5.5015159681328143  9.0469886996140652
  8.5623257591363444  3.4143947481328216  8.1866188876280699
  7.3632422397163424  7.5886371881328145  7.3262490756420675
  7.2176818878943427  5.5015159681328143  8.7948707760870644
  7.3632422397163424  1.3272735181328166  7.3262490756420675
  9.9069696326733467  7.5886371881328145  7.5783670131240690
 11.1060531520933452  9.6757584181328156  8.4387368251100643
 10.0525299844963421  9.6757584181328156  6.1097453126790695
  9.9069696326733467  1.3272735181328166  7.5783670131240690
 11.1060531520933452  3.4143947481328216  8.4387368251100643
 11.2516135039153404  5.5015159681328143  6.9701151246650674
 10.0525299844963421  3.4143947481328216  6.1097453126790695
  6.3097190744143434  7.5886371881328145  4.9972575771650671
  7.5088025938343428  9.6757584181328156  5.8576273891510677
  8.8534464650763418  7.5886371881328145  5.2493755006920670
  8.7078861132533412  5.5015159681328143  6.7179972011380675
  6.3097190744143434  1.3272735181328166  4.9972575771650671
  7.5088025938343428  3.4143947481328216  5.8576273891510677
  7.6543629456573425  5.5015159681328143  4.3890056887060682
  8.8534464650763418  1.3272735181328166  5.2493755006920670
 11.3971738580333408  7.5886371881328145  5.5014934381740677
 11.3971738580333408  1.3272735181328166  5.5014934381740677
  7.7999232997743420  7.5886371881328145  2.9203840022160690
  8.9990068191943440  9.6757584181328156  3.7807538142020682
 10.3436506904363448  7.5886371881328145  3.1725019257430689
 10.1980903386133424  5.5015159681328143  4.6411236261880671
  7.7999232997743420  1.3272735181328166  2.9203840022160690
  8.9990068191943440  3.4143947481328216  3.7807538142020682
  9.1445671710163410  5.5015159681328143  2.3121321137570674
 10.3436506904363448  1.3272735181328166  3.1725019257430689
  9.2901275251343414  7.5886371881328145  0.8435104272660676
 10.4892110445543416  9.6757584181328156  1.7038802392520673
  9.2901275251343414  1.3272735181328166  0.8435104272660676
 10.4892110445543416  3.4143947481328216  1.7038802392520673
 10.6347713963763422  5.5015159681328143  0.2352585388070679
  7.6509388259453424  9.6757584181328156 10.8962168622580684
  6.7819892993813422  5.5015159681328143  9.7033362227120676
  7.6509388259453424  3.4143947481328216 10.8962168622580684
  7.0523486521943424  5.5015159681328143 12.2451895524670640
 13.2483197271933424  9.6757584181328156 11.3644930002760685
 12.3793702006283439  5.5015159681328143 10.1716123607300677
 13.2483197271933424  3.4143947481328216 11.3644930002760685
 11.7807800290723463  7.5886371881328145 11.5205850369690648
 10.9118305025073461  9.6757584181328156 10.3277043974230640
 11.1821898553213437  9.6757584181328156 12.8695577271780675
 11.7807800290723463  1.3272735181328166 11.5205850369690648
 10.9118305025073461  3.4143947481328216 10.3277043974230640
 11.1821898553213437  3.4143947481328216 12.8695577271780675
 12.6497295556373466  5.5015159681328143 12.7134656765150655
  7.7999232997743420  7.5886371881328145 12.9203840022160694
 10.3436506904363448  7.5886371881328145 13.1725019257430684
  7.7999232997743420  1.3272735181328166 12.9203840022160694
  9.1445671710163410  5.5015159681328143 12.3121321137570678
 10.3436506904363448  1.3272735181328166 13.1725019257430684
  9.2901275251343414  7.5886371881328145 10.8435104272660645
 10.4892110445543416  9.6757584181328156 11.7038802392520669
  9.2901275251343414  1.3272735181328166 10.8435104272660645
 10.4892110445543416  3.4143947481328216 11.7038802392520669
 10.6347713963763422  5.5015159681328143 10.2352585388070683
  7.0523486521943424 11.7628796381328158  2.2451895524670675
 12.3793702006283439 11.7628796381328158  0.1716123607300679
 12.6497295556373466 11.7628796381328158  2.7134656765150682
 12.9200889084503423 11.7628796381328158  5.2553190062700699
 13.1904482634593467 11.7628796381328158  7.7971723220540685
  9.7614092785553428 11.7628796381328158  9.0469886996140652
  7.2176818878943427 11.7628796381328158  8.7948707760870644
 11.2516135039153404 11.7628796381328158  6.9701151246650674
  8.7078861132533412 11.7628796381328158  6.7179972011380675
  7.6543629456573425 11.7628796381328158  4.3890056887060682
 10.1980903386133424 11.7628796381328158  4.6411236261880671
  9.1445671710163410 11.7628796381328158  2.3121321137570674
 10.6347713963763422 11.7628796381328158  0.2352585388070679
  6.7819892993813422 11.7628796381328158  9.7033362227120676
  7.0523486521943424 11.7628796381328158 12.2451895524670640
 12.3793702006283439 11.7628796381328158 10.1716123607300677
 12.6497295556373466 11.7628796381328158 12.7134656765150655
  9.1445671710163410 11.7628796381328158 12.3121321137570678
 10.6347713963763422 11.7628796381328158 10.2352585388070683
