Cu
 1.0000000000000000
    13.8628182795496500    0.0000000000000000    0.0000000000000000
     0.0000000000000000   14.3364746425162259    0.0000000000000000
     0.0000000000000000    0.0000000000000000   15.9215803392126922
 Cu 
 286
Cartesian
  1.8310971219571444  9.6146247447591193  6.6985888858695581
  0.3635574216421444  7.5275035147591174  6.8546809365325583
  1.8310971219571444  3.3532610747591249  6.6985888858695581
  0.3635574216421444  1.2661398447591199  6.8546809365325583
  4.4379457016511434  9.6146247447591193  0.2772308045075587
  2.9704060013361442  7.5275035147591174  0.4333228551705570
  4.4379457016511434  3.3532610747591249  0.2772308045075587
  3.8393555279001439  5.4403822947591172  1.6262034947165578
  2.9704060013361442  1.2661398447591199  0.4333228551705570
  0.0353266028991452  9.6146247447591193  0.7455069425265579
  0.0353266028991452  3.3532610747591249  0.7455069425265579
  3.2407653563441450  7.5275035147591174  2.9751761709555575
  2.3718158297791456  9.6146247447591193  1.7822955314095577
  2.6421751825931459  9.6146247447591193  4.3241488611645593
  0.9042761294641456  7.5275035147591174  1.9383875820725578
  1.5028663032151455  5.4403822947591172  0.5894148918635587
  3.2407653563441450  1.2661398447591199  2.9751761709555575
  2.3718158297791456  3.3532610747591249  1.7822955314095577
  1.7732256560281439  5.4403822947591172  3.1312682216185594
  2.6421751825931459  3.3532610747591249  4.3241488611645593
  0.9042761294641456  1.2661398447591199  1.9383875820725578
  1.1746354844721445  7.5275035147591174  4.4802408978565573
  1.1746354844721445  1.2661398447591199  4.4802408978565573
  2.0435850110371456  5.4403822947591172  5.6731215374025581
  2.3280077230951441  9.6146247447591193  5.5583322419675572
  3.5270912425151444  5.4403822947591172  6.4187020539545578
  2.3280077230951441  3.3532610747591249  5.5583322419675572
  3.6726515966321451  7.5275035147591174  4.9500803674635572
  4.8717351160521449  9.6146247447591193  5.8104501794495569
  3.6726515966321451  1.2661398447591199  4.9500803674635572
  4.8717351160521449  3.3532610747591249  5.8104501794495569
  5.0172954678751438  5.4403822947591172  4.3418284790045591
  0.1047502514931438  5.4403822947591172  4.8460643400135579
  0.2503106056111442  7.5275035147591174  3.3774426535225572
  0.2503106056111442  1.2661398447591199  3.3774426535225572
  4.1675863466431444  9.6146247447591193  7.7353774887235573
  4.1675863466431444  3.3532610747591249  7.7353774887235573
  5.0365358732081447  7.5275035147591174  8.9282581282695581
  5.0365358732081447  1.2661398447591199  8.9282581282695581
  2.7000466485221439  7.5275035147591174  7.8914695254155580
  2.1014564747711448  9.6146247447591193  9.2404422156245580
  2.7000466485221439  1.2661398447591199  7.8914695254155580
  1.2325069482061455  5.4403822947591172  8.0475615760785573
  2.1014564747711448  3.3532610747591249  9.2404422156245580
  4.4379457016511434  9.6146247447591193 10.2772308045075587
  2.9704060013361442  7.5275035147591174 10.4333228551705570
  3.5689961750871446  5.4403822947591172  9.0843501649615579
  4.4379457016511434  3.3532610747591249 10.2772308045075587
  3.8393555279001439  5.4403822947591172 11.6262034947165578
  2.9704060013361442  1.2661398447591199 10.4333228551705570
  0.6339167766501452  7.5275035147591174  9.3965342523175579
  0.0353266028991452  9.6146247447591193 10.7455069425265570
  0.6339167766501452  1.2661398447591199  9.3965342523175579
  0.0353266028991452  3.3532610747591249 10.7455069425265570
  3.2407653563441450  7.5275035147591174 12.9751761709555566
  2.3718158297791456  9.6146247447591193 11.7822955314095577
  2.6421751825931459  9.6146247447591193 14.3241488611645593
  0.9042761294641456  7.5275035147591174 11.9383875820725578
  1.5028663032151455  5.4403822947591172 10.5894148918635587
  3.2407653563441450  1.2661398447591199 12.9751761709555566
  2.3718158297791456  3.3532610747591249 11.7822955314095577
  1.7732256560281439  5.4403822947591172 13.1312682216185586
  2.6421751825931459  3.3532610747591249 14.3241488611645593
  0.9042761294641456  1.2661398447591199 11.9383875820725578
  1.1746354844721445  7.5275035147591174 14.4802408978565573
  1.1746354844721445  1.2661398447591199 14.4802408978565573
  2.0435850110371456  5.4403822947591172 15.6731215374025581
  2.3280077230951441  9.6146247447591193 15.5583322419675572
  2.3280077230951441  3.3532610747591249 15.5583322419675572
  3.6726515966321451  7.5275035147591174 14.9500803674635563
  4.8717351160521449  9.6146247447591193 15.8104501794495569
  3.6726515966321451  1.2661398447591199 14.9500803674635563
  4.8717351160521449  3.3532610747591249 15.8104501794495569
  5.0172954678751438  5.4403822947591172 14.3418284790045583
  0.1047502514931438  5.4403822947591172 14.8460643400135588
  0.2503106056111442  7.5275035147591174 13.3774426535225572
  0.2503106056111442  1.2661398447591199 13.3774426535225572
  1.8310971219571444 13.7888671847591162  6.6985888858695581
  4.4379457016511434 13.7888671847591162  0.2772308045075587
  3.8393555279001439 11.7017459647591195  1.6262034947165578
  0.0353266028991452 13.7888671847591162  0.7455069425265579
  1.5028663032151455 11.7017459647591195  0.5894148918635587
  2.3718158297791456 13.7888671847591162  1.7822955314095577
  1.7732256560281439 11.7017459647591195  3.1312682216185594
  2.6421751825931459 13.7888671847591162  4.3241488611645593
  2.0435850110371456 11.7017459647591195  5.6731215374025581
  3.5270912425151444 11.7017459647591195  6.4187020539545578
  2.3280077230951441 13.7888671847591162  5.5583322419675572
  4.8717351160521449 13.7888671847591162  5.8104501794495569
  5.0172954678751438 11.7017459647591195  4.3418284790045591
  0.1047502514931438 11.7017459647591195  4.8460643400135579
  4.1675863466431444 13.7888671847591162  7.7353774887235573
  1.2325069482061455 11.7017459647591195  8.0475615760785573
  2.1014564747711448 13.7888671847591162  9.2404422156245580
  3.5689961750871446 11.7017459647591195  9.0843501649615579
  4.4379457016511434 13.7888671847591162 10.2772308045075587
  3.8393555279001439 11.7017459647591195 11.6262034947165578
  0.0353266028991452 13.7888671847591162 10.7455069425265570
  1.5028663032151455 11.7017459647591195 10.5894148918635587
  2.3718158297791456 13.7888671847591162 11.7822955314095577
  1.7732256560281439 11.7017459647591195 13.1312682216185586
  2.6421751825931459 13.7888671847591162 14.3241488611645593
  2.0435850110371456 11.7017459647591195 15.6731215374025581
  2.3280077230951441 13.7888671847591162 15.5583322419675572
  4.8717351160521449 13.7888671847591162 15.8104501794495569
  5.0172954678751438 11.7017459647591195 14.3418284790045583
  0.1047502514931438 11.7017459647591195 14.8460643400135588
  7.1026657450801451  7.5275035147591174  7.4231934013685574
  7.1026657450801451  1.2661398447591199  7.4231934013685574
  5.9054853997721448  5.4403822947591172  0.1211387678155571
 11.8310971219571446  9.6146247447591193  6.6985888858695581
 10.3635574216421453  7.5275035147591174  6.8546809365325583
 11.8310971219571446  3.3532610747591249  6.6985888858695581
 10.3635574216421453  1.2661398447591199  6.8546809365325583
  5.3068952282161446  7.5275035147591174  1.4701114440535576
 12.9704060013361442  7.5275035147591174  0.4333228551705570
  5.3068952282161446  1.2661398447591199  1.4701114440535576
 13.8393555279001443  5.4403822947591172  1.6262034947165578
 12.9704060013361442  1.2661398447591199  0.4333228551705570
 10.0353266028991452  9.6146247447591193  0.7455069425265579
 10.0353266028991452  3.3532610747591249  0.7455069425265579
 13.2407653563441450  7.5275035147591174  2.9751761709555575
 12.3718158297791447  9.6146247447591193  1.7822955314095577
 12.6421751825931459  9.6146247447591193  4.3241488611645593
 10.9042761294641455  7.5275035147591174  1.9383875820725578
 11.5028663032151464  5.4403822947591172  0.5894148918635587
 13.2407653563441450  1.2661398447591199  2.9751761709555575
 12.3718158297791447  3.3532610747591249  1.7822955314095577
 11.7732256560281439  5.4403822947591172  3.1312682216185594
 12.6421751825931459  3.3532610747591249  4.3241488611645593
 10.9042761294641455  1.2661398447591199  1.9383875820725578
 11.1746354844721445  7.5275035147591174  4.4802408978565573
 11.1746354844721445  1.2661398447591199  4.4802408978565573
 12.0435850110371447  5.4403822947591172  5.6731215374025581
 12.3280077230951441  9.6146247447591193  5.5583322419675572
 13.5270912425151444  5.4403822947591172  6.4187020539545578
 12.3280077230951441  3.3532610747591249  5.5583322419675572
  7.4154625067141442  9.6146247447591193  6.0625681029765595
  8.6145460261331444  5.4403822947591172  6.9229379149625583
  7.4154625067141442  3.3532610747591249  6.0625681029765595
 13.6726515966321447  7.5275035147591174  4.9500803674635572
  6.2163789872941440  7.5275035147591174  5.2021982909905571
  6.0708186354721443  5.4403822947591172  6.6708199914355575
 13.6726515966321447  1.2661398447591199  4.9500803674635572
  6.2163789872941440  1.2661398447591199  5.2021982909905571
  8.7601063802511447  7.5275035147591174  5.4543162284725586
  9.9591898996711450  9.6146247447591193  6.3146860404585574
  8.9056667320741454  9.6146247447591193  3.9856945280275591
  8.7601063802511447  1.2661398447591199  5.4543162284725586
  9.9591898996711450  3.3532610747591249  6.3146860404585574
 10.1047502514931438  5.4403822947591172  4.8460643400135579
  8.9056667320741454  3.3532610747591249  3.9856945280275591
  5.1628558219921441  7.5275035147591174  2.8732067925135585
  6.3619393414121435  9.6146247447591193  3.7335766044995573
  7.7065832126541434  7.5275035147591174  3.1253247160405584
  7.5610228608311445  5.4403822947591172  4.5939464164865571
  5.1628558219921441  1.2661398447591199  2.8732067925135585
  6.3619393414121435  3.3532610747591249  3.7335766044995573
  6.5074996932351441  5.4403822947591172  2.2649549040545578
  7.7065832126541434  1.2661398447591199  3.1253247160405584
 10.2503106056111442  7.5275035147591174  3.3774426535225572
 10.2503106056111442  1.2661398447591199  3.3774426535225572
  6.6530600473521444  7.5275035147591174  0.7963332175645590
  7.8521435667721438  9.6146247447591193  1.6567030295505578
  9.1967874380141446  7.5275035147591174  1.0484511410915580
  9.0512270861911457  5.4403822947591172  2.5170728415365584
  6.6530600473521444  1.2661398447591199  0.7963332175645590
  7.8521435667721438  3.3532610747591249  1.6567030295505578
  7.9977039185941443  5.4403822947591172  0.1880813291055574
  9.1967874380141446  1.2661398447591199  1.0484511410915580
  6.5040755735231439  9.6146247447591193  8.7721660776065580
  5.6351260469591438  5.4403822947591172  7.5792854380605572
  6.5040755735231439  3.3532610747591249  8.7721660776065580
  5.9054853997721448  5.4403822947591172 10.1211387678155571
 12.7000466485221430  7.5275035147591174  7.8914695254155580
 12.1014564747711439  9.6146247447591193  9.2404422156245580
 12.7000466485221430  1.2661398447591199  7.8914695254155580
 11.2325069482061455  5.4403822947591172  8.0475615760785573
 12.1014564747711439  3.3532610747591249  9.2404422156245580
  5.3068952282161446  7.5275035147591174 11.4701114440535612
 12.9704060013361442  7.5275035147591174 10.4333228551705570
 13.5689961750871451  5.4403822947591172  9.0843501649615579
  5.3068952282161446  1.2661398447591199 11.4701114440535612
 13.8393555279001443  5.4403822947591172 11.6262034947165578
 12.9704060013361442  1.2661398447591199 10.4333228551705570
 10.6339167766501461  7.5275035147591174  9.3965342523175579
  9.7649672500851441  9.6146247447591193  8.2036536127715571
 10.0353266028991452  9.6146247447591193 10.7455069425265570
 10.6339167766501461  1.2661398447591199  9.3965342523175579
  9.7649672500851441  3.3532610747591249  8.2036536127715571
 10.0353266028991452  3.3532610747591249 10.7455069425265570
 13.2407653563441450  7.5275035147591174 12.9751761709555566
 12.3718158297791447  9.6146247447591193 11.7822955314095577
 12.6421751825931459  9.6146247447591193 14.3241488611645593
 10.9042761294641455  7.5275035147591174 11.9383875820725578
 11.5028663032151464  5.4403822947591172 10.5894148918635587
 13.2407653563441450  1.2661398447591199 12.9751761709555566
 12.3718158297791447  3.3532610747591249 11.7822955314095577
 11.7732256560281439  5.4403822947591172 13.1312682216185586
 12.6421751825931459  3.3532610747591249 14.3241488611645593
 10.9042761294641455  1.2661398447591199 11.9383875820725578
 11.1746354844721445  7.5275035147591174 14.4802408978565573
 11.1746354844721445  1.2661398447591199 14.4802408978565573
 12.0435850110371447  5.4403822947591172 15.6731215374025581
 12.3280077230951441  9.6146247447591193 15.5583322419675572
 12.3280077230951441  3.3532610747591249 15.5583322419675572
 13.6726515966321447  7.5275035147591174 14.9500803674635563
  6.2163789872941440  7.5275035147591174 15.2021982909905571
 13.6726515966321447  1.2661398447591199 14.9500803674635563
  6.2163789872941440  1.2661398447591199 15.2021982909905571
  8.7601063802511447  7.5275035147591174 15.4543162284725586
  8.9056667320741454  9.6146247447591193 13.9856945280275582
  8.7601063802511447  1.2661398447591199 15.4543162284725586
 10.1047502514931438  5.4403822947591172 14.8460643400135588
  8.9056667320741454  3.3532610747591249 13.9856945280275582
  5.1628558219921441  7.5275035147591174 12.8732067925135585
  6.3619393414121435  9.6146247447591193 13.7335766044995573
  7.7065832126541434  7.5275035147591174 13.1253247160405593
  7.5610228608311445  5.4403822947591172 14.5939464164865562
  5.1628558219921441  1.2661398447591199 12.8732067925135585
  6.3619393414121435  3.3532610747591249 13.7335766044995573
  6.5074996932351441  5.4403822947591172 12.2649549040545587
  7.7065832126541434  1.2661398447591199 13.1253247160405593
 10.2503106056111442  7.5275035147591174 13.3774426535225572
 10.2503106056111442  1.2661398447591199 13.3774426535225572
  6.6530600473521444  7.5275035147591174 10.7963332175645625
  7.8521435667721438  9.6146247447591193 11.6567030295505578
  9.1967874380141446  7.5275035147591174 11.0484511410915580
  9.0512270861911457  5.4403822947591172 12.5170728415365584
  6.6530600473521444  1.2661398447591199 10.7963332175645625
  7.8521435667721438  3.3532610747591249 11.6567030295505578
  7.9977039185941443  5.4403822947591172 10.1880813291055574
  9.1967874380141446  1.2661398447591199 11.0484511410915580
  8.1432642727121447  7.5275035147591174  8.7194596426145612
  9.3423477921321449  9.6146247447591193  9.5798294546005565
  8.1432642727121447  1.2661398447591199  8.7194596426145612
  9.3423477921321449  3.3532610747591249  9.5798294546005565
  9.4879081439541437  5.4403822947591172  8.1112077541555578
  5.9054853997721448 11.7017459647591195  0.1211387678155571
 11.8310971219571446 13.7888671847591162  6.6985888858695581
 13.8393555279001443 11.7017459647591195  1.6262034947165578
 10.0353266028991452 13.7888671847591162  0.7455069425265579
 11.5028663032151464 11.7017459647591195  0.5894148918635587
 12.3718158297791447 13.7888671847591162  1.7822955314095577
 11.7732256560281439 11.7017459647591195  3.1312682216185594
 12.6421751825931459 13.7888671847591162  4.3241488611645593
 12.0435850110371447 11.7017459647591195  5.6731215374025581
 13.5270912425151444 11.7017459647591195  6.4187020539545578
 12.3280077230951441 13.7888671847591162  5.5583322419675572
  8.6145460261331444 11.7017459647591195  6.9229379149625583
  7.4154625067141442 13.7888671847591162  6.0625681029765595
  6.0708186354721443 11.7017459647591195  6.6708199914355575
  9.9591898996711450 13.7888671847591162  6.3146860404585574
 10.1047502514931438 11.7017459647591195  4.8460643400135579
  8.9056667320741454 13.7888671847591162  3.9856945280275591
  7.5610228608311445 11.7017459647591195  4.5939464164865571
  6.3619393414121435 13.7888671847591162  3.7335766044995573
  6.5074996932351441 11.7017459647591195  2.2649549040545578
  9.0512270861911457 11.7017459647591195  2.5170728415365584
  7.8521435667721438 13.7888671847591162  1.6567030295505578
  7.9977039185941443 11.7017459647591195  0.1880813291055574
  5.6351260469591438 11.7017459647591195  7.5792854380605572
  6.5040755735231439 13.7888671847591162  8.7721660776065580
  5.9054853997721448 11.7017459647591195 10.1211387678155571
 11.2325069482061455 11.7017459647591195  8.0475615760785573
 12.1014564747711439 13.7888671847591162  9.2404422156245580
 13.5689961750871451 11.7017459647591195  9.0843501649615579
 13.8393555279001443 11.7017459647591195 11.6262034947165578
  9.7649672500851441 13.7888671847591162  8.2036536127715571
 10.0353266028991452 13.7888671847591162 10.7455069425265570
 11.5028663032151464 11.7017459647591195 10.5894148918635587
 12.3718158297791447 13.7888671847591162 11.7822955314095577
 11.7732256560281439 11.7017459647591195 13.1312682216185586
 12.6421751825931459 13.7888671847591162 14.3241488611645593
 12.0435850110371447 11.7017459647591195 15.6731215374025581
 12.3280077230951441 13.7888671847591162 15.5583322419675572
 10.1047502514931438 11.7017459647591195 14.8460643400135588
  8.9056667320741454 13.7888671847591162 13.9856945280275582
  7.5610228608311445 11.7017459647591195 14.5939464164865562
  6.3619393414121435 13.7888671847591162 13.7335766044995573
  6.5074996932351441 11.7017459647591195 12.2649549040545587
  9.0512270861911457 11.7017459647591195 12.5170728415365584
  7.8521435667721438 13.7888671847591162 11.6567030295505578
  7.9977039185941443 11.7017459647591195 10.1880813291055574
  9.3423477921321449 13.7888671847591162  9.5798294546005565
  9.4879081439541437 11.7017459647591195  8.1112077541555578
