Cu
 1.0000000000000000
    15.4702322185807439    0.0000000000000000    0.0000000000000000
     0.0000000000000000   15.7546154735232093    0.0000000000000000
     0.0000000000000000    0.0000000000000000   13.2053837905059215
 Cu 
 262
Cartesian
  3.7237822066131727  1.7393198398381120  0.4633490157115163
  0.5183434553621735  3.8264410698381139  8.2336797733115166
  0.7887028081761736  3.8264410698381139  0.7755331030665162
  3.1251920350561715  3.8264410698381139  1.8123216919495169
  1.6576523347411727  1.7393198398381120  1.9684137426125159
  1.9280116897491735  1.7393198398381120  4.5102670583975160
  1.0590621631841746  3.8264410698381139  3.3173864188515165
  1.3294215159981748  3.8264410698381139  5.8592397486065178
  1.0152540565001726  3.8264410698381139  7.0934231294095165
  2.3598979300371736  1.7393198398381120  6.4851712549055156
  3.5589814494571730  3.8264410698381139  7.3455410668915144
  2.8548326800481725  3.8264410698381139  9.2704683761655158
  3.7237822066131727  1.7393198398381120 10.4633490157115165
  1.3872929819271729  1.7393198398381120  9.4265604128575156
  0.7887028081761736  3.8264410698381139 10.7755331030665165
  3.1251920350561715  3.8264410698381139 11.8123216919495171
  1.6576523347411727  1.7393198398381120 11.9684137426125154
  3.7237822066131727 10.0878047398381163  0.4633490157115163
  0.5183434553621735  8.0006835098381153  8.2336797733115166
  0.7887028081761736  8.0006835098381153  0.7755331030665162
  0.5183434553621735 14.2620471798381203  8.2336797733115166
  0.7887028081761736 14.2620471798381203  0.7755331030665162
  2.2562425084921731  5.9135622898381159  0.6194410524035159
  3.1251920350561715  8.0006835098381153  1.8123216919495169
  2.5266018613051733  5.9135622898381159  3.1612943821585162
  1.6576523347411727 10.0878047398381163  1.9684137426125159
  2.2562425084921731 12.1749259598381165  0.6194410524035159
  3.1251920350561715 14.2620471798381203  1.8123216919495169
  2.5266018613051733 12.1749259598381165  3.1612943821585162
  0.1901126366201744  5.9135622898381159  2.1245057793055167
  1.9280116897491735 10.0878047398381163  4.5102670583975160
  1.0590621631841746  8.0006835098381153  3.3173864188515165
  0.4604719894331727  5.9135622898381159  4.6663591090605179
  1.3294215159981748  8.0006835098381153  5.8592397486065178
  0.1901126366201744 12.1749259598381165  2.1245057793055167
  1.0590621631841746 14.2620471798381203  3.3173864188515165
  0.4604719894331727 12.1749259598381165  4.6663591090605179
  1.3294215159981748 14.2620471798381203  5.8592397486065178
  0.7308313444421743  5.9135622898381159  7.2082124248445165
  0.7308313444421743 12.1749259598381165  7.2082124248445165
  2.2143375759201733  5.9135622898381159  7.9537929413965163
  1.0152540565001726  8.0006835098381153  7.0934231294095165
  2.2143375759201733 12.1749259598381165  7.9537929413965163
  1.0152540565001726 14.2620471798381203  7.0934231294095165
  2.3598979300371736 10.0878047398381163  6.4851712549055156
  3.5589814494571730  8.0006835098381153  7.3455410668915144
  3.7045418012801719  5.9135622898381159  5.8769193664465176
  3.5589814494571730 14.2620471798381203  7.3455410668915144
  3.7045418012801719 12.1749259598381165  5.8769193664465176
  2.8548326800481725  8.0006835098381153  9.2704683761655158
  2.8548326800481725 14.2620471798381203  9.2704683761655158
  3.7237822066131727 10.0878047398381163 10.4633490157115165
  1.3872929819271729 10.0878047398381163  9.4265604128575156
  0.7887028081761736  8.0006835098381153 10.7755331030665165
  0.7887028081761736 14.2620471798381203 10.7755331030665165
  2.2562425084921731  5.9135622898381159 10.6194410524035163
  3.1251920350561715  8.0006835098381153 11.8123216919495171
  2.5266018613051733  5.9135622898381159 13.1612943821585162
  1.6576523347411727 10.0878047398381163 11.9684137426125154
  2.2562425084921731 12.1749259598381165 10.6194410524035163
  3.1251920350561715 14.2620471798381203 11.8123216919495171
  2.5266018613051733 12.1749259598381165 13.1612943821585162
  0.1901126366201744  5.9135622898381159 12.1245057793055171
  0.1901126366201744 12.1749259598381165 12.1245057793055171
  5.7899120784851714  1.7393198398381120  8.9582842888105159
  5.1913219069281720  3.8264410698381139  0.3072569650485160
 13.7237822066131692  1.7393198398381120  0.4633490157115163
 10.5183434553621709  3.8264410698381139  8.2336797733115166
 10.7887028081761702  3.8264410698381139  0.7755331030665162
  9.0508037550471698  1.7393198398381120  8.3897718239745167
  3.9941415616211717  1.7393198398381120  3.0052023314955161
 13.1251920350561733  3.8264410698381139  1.8123216919495169
 11.6576523347411687  1.7393198398381120  1.9684137426125159
  9.3211631100551706  1.7393198398381120  0.9316251397595159
  8.7225729363041751  3.8264410698381139  2.2805978299685163
 11.9280116897491730  1.7393198398381120  4.5102670583975160
 11.0590621631841710  3.8264410698381139  3.3173864188515165
 11.3294215159981704  3.8264410698381139  5.8592397486065178
  9.5915224628691718  1.7393198398381120  3.4734784695145167
  9.8618818178771690  1.7393198398381120  6.0153317852985158
 11.0152540565001686  3.8264410698381139  7.0934231294095165
  6.1027088401191714  3.8264410698381139  7.5976589904185188
 12.3598979300371710  1.7393198398381120  6.4851712549055156
 13.5589814494571712  3.8264410698381139  7.3455410668915144
  4.9036253206991729  1.7393198398381120  6.7372891784325155
  7.4473527136561728  1.7393198398381120  6.9894071159145170
  8.6464362330761695  3.8264410698381139  7.8497769279005158
  7.5929130654791717  3.8264410698381139  5.5207854154695175
  3.8501021553971722  1.7393198398381120  4.4082976799555169
  5.0491856748171733  3.8264410698381139  5.2686674919415157
  6.3938295460591714  1.7393198398381120  4.6604156034825168
  8.9375569390161722  1.7393198398381120  4.9125335409645157
  5.3403063807571733  1.7393198398381120  2.3314241050065170
  6.5393899001771718  3.8264410698381139  3.1917939169925162
  7.8840337714191726  1.7393198398381120  2.5835420285335169
  6.8305106061171728  1.7393198398381120  0.2545505300565158
  8.0295941255371694  3.8264410698381139  1.1149203420425158
 12.8548326800481689  3.8264410698381139  9.2704683761655158
  5.1913219069281720  3.8264410698381139 10.3072569650485164
 13.7237822066131692  1.7393198398381120 10.4633490157115165
 11.3872929819271729  1.7393198398381120  9.4265604128575156
 10.7887028081761702  3.8264410698381139 10.7755331030665165
  3.9941415616211717  1.7393198398381120 13.0052023314955161
 13.1251920350561733  3.8264410698381139 11.8123216919495171
 11.6576523347411687  1.7393198398381120 11.9684137426125154
  9.3211631100551706  1.7393198398381120 10.9316251397595163
  8.4522135834901739  3.8264410698381139  9.7387445002135156
  8.7225729363041751  3.8264410698381139 12.2805978299685155
  5.3403063807571733  1.7393198398381120 12.3314241050065174
  6.5393899001771718  3.8264410698381139 13.1917939169925162
  7.8840337714191726  1.7393198398381120 12.5835420285335182
  6.8305106061171728  1.7393198398381120 10.2545505300565161
  8.0295941255371694  3.8264410698381139 11.1149203420425149
  5.7899120784851714 10.0878047398381163  8.9582842888105159
  5.1913219069281720  8.0006835098381153  0.3072569650485160
  4.5927317331771711  5.9135622898381159  1.6562296552575160
 13.7237822066131692 10.0878047398381163  0.4633490157115163
  5.1913219069281720 14.2620471798381203  0.3072569650485160
  4.5927317331771711 12.1749259598381165  1.6562296552575160
 10.5183434553621709  8.0006835098381153  8.2336797733115166
 10.7887028081761702  8.0006835098381153  0.7755331030665162
  9.0508037550471698 10.0878047398381163  8.3897718239745167
 10.5183434553621709 14.2620471798381203  8.2336797733115166
 10.7887028081761702 14.2620471798381203  0.7755331030665162
 12.2562425084921713  5.9135622898381159  0.6194410524035159
  3.9941415616211717 10.0878047398381163  3.0052023314955161
 13.1251920350561733  8.0006835098381153  1.8123216919495169
 12.5266018613051706  5.9135622898381159  3.1612943821585162
 11.6576523347411687 10.0878047398381163  1.9684137426125159
 12.2562425084921713 12.1749259598381165  0.6194410524035159
 13.1251920350561733 14.2620471798381203  1.8123216919495169
 12.5266018613051706 12.1749259598381165  3.1612943821585162
  9.3211631100551706 10.0878047398381163  0.9316251397595159
  8.7225729363041751  8.0006835098381153  2.2805978299685163
  8.7225729363041751 14.2620471798381203  2.2805978299685163
 10.1901126366201744  5.9135622898381159  2.1245057793055167
 11.9280116897491730 10.0878047398381163  4.5102670583975160
 11.0590621631841710  8.0006835098381153  3.3173864188515165
 10.4604719894331737  5.9135622898381159  4.6663591090605179
 11.3294215159981704  8.0006835098381153  5.8592397486065178
  9.5915224628691718 10.0878047398381163  3.4734784695145167
 10.1901126366201744 12.1749259598381165  2.1245057793055167
 11.0590621631841710 14.2620471798381203  3.3173864188515165
 10.4604719894331737 12.1749259598381165  4.6663591090605179
 11.3294215159981704 14.2620471798381203  5.8592397486065178
  9.8618818178771690 10.0878047398381163  6.0153317852985158
 10.7308313444421746  5.9135622898381159  7.2082124248445165
 10.7308313444421746 12.1749259598381165  7.2082124248445165
 12.2143375759201689  5.9135622898381159  7.9537929413965163
 11.0152540565001686  8.0006835098381153  7.0934231294095165
 12.2143375759201689 12.1749259598381165  7.9537929413965163
 11.0152540565001686 14.2620471798381203  7.0934231294095165
  7.3017923595381715  5.9135622898381159  8.4580288024045167
  6.1027088401191714  8.0006835098381153  7.5976589904185188
  7.3017923595381715 12.1749259598381165  8.4580288024045167
  6.1027088401191714 14.2620471798381203  7.5976589904185188
  4.7580649688771732  5.9135622898381159  8.2059108788775159
 12.3598979300371710 10.0878047398381163  6.4851712549055156
 13.5589814494571712  8.0006835098381153  7.3455410668915144
 13.7045418012801683  5.9135622898381159  5.8769193664465176
  4.9036253206991729 10.0878047398381163  6.7372891784325155
  4.7580649688771732 12.1749259598381165  8.2059108788775159
 13.5589814494571712 14.2620471798381203  7.3455410668915144
 13.7045418012801683 12.1749259598381165  5.8769193664465176
  7.4473527136561728 10.0878047398381163  6.9894071159145170
  8.6464362330761695  8.0006835098381153  7.8497769279005158
  8.7919965848981700  5.9135622898381159  6.3811552274555163
  7.5929130654791717  8.0006835098381153  5.5207854154695175
  8.6464362330761695 14.2620471798381203  7.8497769279005158
  8.7919965848981700 12.1749259598381165  6.3811552274555163
  7.5929130654791717 14.2620471798381203  5.5207854154695175
  6.2482691942361726  5.9135622898381159  6.1290373039285155
  3.8501021553971722 10.0878047398381163  4.4082976799555169
  5.0491856748171733  8.0006835098381153  5.2686674919415157
  5.1947460266401713  5.9135622898381159  3.8000457914965162
  6.3938295460591714 10.0878047398381163  4.6604156034825168
  6.2482691942361726 12.1749259598381165  6.1290373039285155
  5.0491856748171733 14.2620471798381203  5.2686674919415157
  5.1947460266401713 12.1749259598381165  3.8000457914965162
  8.9375569390161722 10.0878047398381163  4.9125335409645157
  7.7384734195961737  5.9135622898381159  4.0521637289785168
  5.3403063807571733 10.0878047398381163  2.3314241050065170
  6.5393899001771718  8.0006835098381153  3.1917939169925162
  6.6849502519991733  5.9135622898381159  1.7231722165475158
  7.8840337714191726 10.0878047398381163  2.5835420285335169
  7.7384734195961737 12.1749259598381165  4.0521637289785168
  6.5393899001771718 14.2620471798381203  3.1917939169925162
  6.6849502519991733 12.1749259598381165  1.7231722165475158
  6.8305106061171728 10.0878047398381163  0.2545505300565158
  8.0295941255371694  8.0006835098381153  1.1149203420425158
  8.0295941255371694 14.2620471798381203  1.1149203420425158
 12.8548326800481689  8.0006835098381153  9.2704683761655158
 12.8548326800481689 14.2620471798381203  9.2704683761655158
  4.3223723803641736  5.9135622898381159  9.1143763255025156
  5.1913219069281720  8.0006835098381153 10.3072569650485164
  4.5927317331771711  5.9135622898381159 11.6562296552575155
 13.7237822066131692 10.0878047398381163 10.4633490157115165
  4.3223723803641736 12.1749259598381165  9.1143763255025156
  5.1913219069281720 14.2620471798381203 10.3072569650485164
  4.5927317331771711 12.1749259598381165 11.6562296552575155
 11.3872929819271729 10.0878047398381163  9.4265604128575156
  9.9197532816111753  5.9135622898381159  9.5826524635205157
 10.7887028081761702  8.0006835098381153 10.7755331030665165
  9.9197532816111753 12.1749259598381165  9.5826524635205157
 10.7887028081761702 14.2620471798381203 10.7755331030665165
 12.2562425084921713  5.9135622898381159 10.6194410524035163
  3.9941415616211717 10.0878047398381163 13.0052023314955161
 13.1251920350561733  8.0006835098381153 11.8123216919495171
 12.5266018613051706  5.9135622898381159 13.1612943821585162
 11.6576523347411687 10.0878047398381163 11.9684137426125154
 12.2562425084921713 12.1749259598381165 10.6194410524035163
 13.1251920350561733 14.2620471798381203 11.8123216919495171
 12.5266018613051706 12.1749259598381165 13.1612943821585162
  9.3211631100551706 10.0878047398381163 10.9316251397595163
  8.4522135834901739  8.0006835098381153  9.7387445002135156
  8.7225729363041751  8.0006835098381153 12.2805978299685155
  8.4522135834901739 14.2620471798381203  9.7387445002135156
  8.7225729363041751 14.2620471798381203 12.2805978299685155
 10.1901126366201744  5.9135622898381159 12.1245057793055171
 10.1901126366201744 12.1749259598381165 12.1245057793055171
  5.3403063807571733 10.0878047398381163 12.3314241050065174
  6.5393899001771718  8.0006835098381153 13.1917939169925162
  6.6849502519991733  5.9135622898381159 11.7231722165475158
  7.8840337714191726 10.0878047398381163 12.5835420285335182
  6.5393899001771718 14.2620471798381203 13.1917939169925162
  6.6849502519991733 12.1749259598381165 11.7231722165475158
  6.8305106061171728 10.0878047398381163 10.2545505300565161
  8.0295941255371694  8.0006835098381153 11.1149203420425149
  8.1751544773591736  5.9135622898381159  9.6462986415975163
  8.0295941255371694 14.2620471798381203 11.1149203420425149
  8.1751544773591736 12.1749259598381165  9.6462986415975163
 15.1913219069281702  3.8264410698381139  0.3072569650485160
 13.9941415616211700  1.7393198398381120  3.0052023314955161
 14.9036253206991702  1.7393198398381120  6.7372891784325155
 13.8501021553971704  1.7393198398381120  4.4082976799555169
 15.0491856748171706  3.8264410698381139  5.2686674919415157
 15.3403063807571698  1.7393198398381120  2.3314241050065170
 15.1913219069281702  3.8264410698381139 10.3072569650485164
 13.9941415616211700  1.7393198398381120 13.0052023314955161
 15.3403063807571698  1.7393198398381120 12.3314241050065174
 15.1913219069281702  8.0006835098381153  0.3072569650485160
 14.5927317331771711  5.9135622898381159  1.6562296552575160
 15.1913219069281702 14.2620471798381203  0.3072569650485160
 14.5927317331771711 12.1749259598381165  1.6562296552575160
 13.9941415616211700 10.0878047398381163  3.0052023314955161
 14.7580649688771679  5.9135622898381159  8.2059108788775159
 14.9036253206991702 10.0878047398381163  6.7372891784325155
 14.7580649688771679 12.1749259598381165  8.2059108788775159
 13.8501021553971704 10.0878047398381163  4.4082976799555169
 15.0491856748171706  8.0006835098381153  5.2686674919415157
 15.1947460266401713  5.9135622898381159  3.8000457914965162
 15.0491856748171706 14.2620471798381203  5.2686674919415157
 15.1947460266401713 12.1749259598381165  3.8000457914965162
 15.3403063807571698 10.0878047398381163  2.3314241050065170
 14.3223723803641683  5.9135622898381159  9.1143763255025156
 15.1913219069281702  8.0006835098381153 10.3072569650485164
 14.5927317331771711  5.9135622898381159 11.6562296552575155
 14.3223723803641683 12.1749259598381165  9.1143763255025156
 15.1913219069281702 14.2620471798381203 10.3072569650485164
 14.5927317331771711 12.1749259598381165 11.6562296552575155
 13.9941415616211700 10.0878047398381163 13.0052023314955161
 15.3403063807571698 10.0878047398381163 12.3314241050065174
