Cu
 1.0000000000000000
    18.2781075940174986    0.0000000000000000    0.0000000000000000
     0.0000000000000000   12.1426942718159019    0.0000000000000000
     0.0000000000000000    0.0000000000000000   12.8731519741258786
 Cu 
 213
Cartesian
  1.7893447086206364 10.2904700300530010  1.6716540930150245
  1.7893447086206364  4.0291063600530030  1.6716540930150245
  5.0502363851826368 10.2904700300530010  1.1031416281790252
  6.5177760854976370  6.1162275900530076  0.9470495775160251
  5.0502363851826368  4.0291063600530030  1.1031416281790252
  8.2137702060556368  8.2033488100530008  0.6671627456010247
  8.2137702060556368  1.9419851400530028  0.6671627456010247
  3.3012249896736359  8.2033488100530008  1.1713986066090252
  2.1021414702546362  6.1162275900530076  0.3110287946230264
  3.3012249896736359  1.9419851400530028  1.1713986066090252
  0.7574975990126366  8.2033488100530008  0.9192806830820243
  9.5584140795926338  6.1162275900530076  0.0589108710960238
  0.7574975990126366  1.9419851400530028  0.9192806830820243
  4.6458688632116374  6.1162275900530076  0.5631467321050243
  1.7893447086206364 10.2904700300530010 11.6716540930150252
  1.7893447086206364  4.0291063600530030 11.6716540930150252
  8.8542653101836368  6.1162275900530076  1.9838381803700247
  9.7232148367486335 10.2904700300530010  3.1767188199160250
  0.3218050104996366  8.2033488100530008  1.8277461297070243
  1.1907545370636363  6.1162275900530076  3.0206267692530244
  0.5921643633126367  8.2033488100530008  4.3695994594620249
  9.7232148367486335  4.0291063600530030  3.1767188199160250
  0.3218050104996366  1.9419851400530028  1.8277461297070243
  0.5921643633126367  1.9419851400530028  4.3695994594620249
  7.3867256120626363 10.2904700300530010  2.1399302170620245
  5.0502363851826368 10.2904700300530010 11.1031416281790243
  7.3867256120626363  4.0291063600530030  2.1399302170620245
  6.5177760854976370  6.1162275900530076 10.9470495775160259
  5.9191859117466379  8.2033488100530008  2.2960222677250242
  6.7881354383116355  6.1162275900530076  3.4889029072710249
  5.0502363851826368  4.0291063600530030 11.1031416281790243
  5.9191859117466379  1.9419851400530028  2.2960222677250242
  7.6570849648766357 10.2904700300530010  4.6817835468170248
  8.2556751386276375  8.2033488100530008  3.3328108566080243
  9.1246246651916341  6.1162275900530076  4.5256914961540247
  8.5260344914406367  8.2033488100530008  5.8746641863630247
  7.6570849648766357  4.0291063600530030  4.6817835468170248
  8.2556751386276375  1.9419851400530028  3.3328108566080243
  8.5260344914406367  1.9419851400530028  5.8746641863630247
  5.3205957401906376 10.2904700300530010  3.6449949439640243
  5.3205957401906376  4.0291063600530030  3.6449949439640243
  4.4516462136256356  6.1162275900530076  2.4521143044180245
  4.7220055664396359  6.1162275900530076  4.9939676341730248
  7.9274443198846356 10.2904700300530010  7.2236368626020244
  5.5909550930046361 10.2904700300530010  6.1868482737190247
  6.1895452667556379  8.2033488100530008  4.8378755835100247
  7.9274443198846356  4.0291063600530030  7.2236368626020244
  7.0584947933196363  6.1162275900530076  6.0307562230560245
  6.4599046195686363  8.2033488100530008  7.3797289132650272
  7.3288541461336383  6.1162275900530076  8.5726095528110271
  5.5909550930046361  4.0291063600530030  6.1868482737190247
  6.1895452667556379  1.9419851400530028  4.8378755835100247
  6.4599046195686363  1.9419851400530028  7.3797289132650272
  5.8613144480126360 10.2904700300530010  8.7287015895030251
  5.8613144480126360  4.0291063600530030  8.7287015895030251
  6.7302639745776371  8.2033488100530008  9.9215822290490259
  6.7302639745776371  1.9419851400530028  9.9215822290490259
  8.2137702060556368  8.2033488100530008 10.6671627456010256
  7.0146866866356348  6.1162275900530076  9.8067929336140232
  8.2137702060556368  1.9419851400530028 10.6671627456010256
  3.3012249896736359  8.2033488100530008 11.1713986066090243
  2.1021414702546362  6.1162275900530076 10.3110287946230272
  3.3012249896736359  1.9419851400530028 11.1713986066090243
  8.3593305601726371 10.2904700300530010  9.1985410591100241
  0.9030579508346366 10.2904700300530010  9.4506589826370231
  0.7574975990126366  8.2033488100530008 10.9192806830820253
  8.3593305601726371  4.0291063600530030  9.1985410591100241
  9.5584140795926338  6.1162275900530076 10.0589108710960247
  9.7039744314156362  8.2033488100530008  8.5902891706510260
  0.9030579508346366  4.0291063600530030  9.4506589826370231
  0.7574975990126366  1.9419851400530028 10.9192806830820253
  9.7039744314156362  1.9419851400530028  8.5902891706510260
  3.4467853437916376 10.2904700300530010  9.7027769201190246
  3.4467853437916376  4.0291063600530030  9.7027769201190246
  4.6458688632116374  6.1162275900530076 10.5631467321050252
  4.7914292150336362  8.2033488100530008  9.0945250316600248
  3.5923456956146373  6.1162275900530076  8.2341552196740260
  4.7914292150336362  1.9419851400530028  9.0945250316600248
  2.3932621761946367 10.2904700300530010  7.3737854076870262
  2.2477018243716360  8.2033488100530008  8.8424071081330240
  1.0486183049526367  6.1162275900530076  7.9820372961460233
  1.1941786567756367  8.2033488100530008  6.5134155957010247
  2.3932621761946367  4.0291063600530030  7.3737854076870262
  2.2477018243716360  1.9419851400530028  8.8424071081330240
  1.1941786567756367  1.9419851400530028  6.5134155957010247
  4.9369895691516366 10.2904700300530010  7.6259033451690232
  4.9369895691516366  4.0291063600530030  7.6259033451690232
  1.3397390108926366 10.2904700300530010  5.0447939092110250
  3.8834664015546365 10.2904700300530010  5.2969118327380258
  3.7379060497316368  8.2033488100530008  6.7655335331830253
  1.3397390108926366  4.0291063600530030  5.0447939092110250
  2.5388225303126366  6.1162275900530076  5.9051637211970247
  2.6843828821346358  8.2033488100530008  4.4365420207520243
  3.8834664015546365  4.0291063600530030  5.2969118327380258
  3.7379060497316368  1.9419851400530028  6.7655335331830253
  2.6843828821346358  1.9419851400530028  4.4365420207520243
  2.8299432362526367 10.2904700300530010  2.9679203342610245
  2.8299432362526367  4.0291063600530030  2.9679203342610245
  4.0290267556726365  6.1162275900530076  3.8282901462470242
  4.1745871074946370  8.2033488100530008  2.3596684458020243
  4.1745871074946370  1.9419851400530028  2.3596684458020243
  8.8542653101836368  6.1162275900530076 11.9838381803700251
  0.3218050104996366  8.2033488100530008 11.8277461297070232
  0.3218050104996366  1.9419851400530028 11.8277461297070232
  7.3867256120626363 10.2904700300530010 12.1399302170620231
  7.3867256120626363  4.0291063600530030 12.1399302170620231
  5.9191859117466379  8.2033488100530008 12.2960222677250250
  5.9191859117466379  1.9419851400530028 12.2960222677250250
  4.4516462136256356  6.1162275900530076 12.4521143044180249
  4.1745871074946370  8.2033488100530008 12.3596684458020256
  4.1745871074946370  1.9419851400530028 12.3596684458020256
 11.7893447086206358 10.2904700300530010  1.6716540930150245
 11.7893447086206358  4.0291063600530030  1.6716540930150245
 15.0502363851826360 10.2904700300530010  1.1031416281790252
 16.5177760854976334  6.1162275900530076  0.9470495775160251
 15.0502363851826360  4.0291063600530030  1.1031416281790252
 18.2137702060556386  8.2033488100530008  0.6671627456010247
 18.2137702060556386  1.9419851400530028  0.6671627456010247
 13.3012249896736368  8.2033488100530008  1.1713986066090252
 12.1021414702546366  6.1162275900530076  0.3110287946230264
 13.3012249896736368  1.9419851400530028  1.1713986066090252
 10.7574975990126323  8.2033488100530008  0.9192806830820243
 10.7574975990126323  1.9419851400530028  0.9192806830820243
 14.6458688632116374  6.1162275900530076  0.5631467321050243
 11.7893447086206358 10.2904700300530010 11.6716540930150252
 11.7893447086206358  4.0291063600530030 11.6716540930150252
 10.3218050104996344  8.2033488100530008  1.8277461297070243
 11.1907545370636328  6.1162275900530076  3.0206267692530244
 10.5921643633126372  8.2033488100530008  4.3695994594620249
 10.3218050104996344  1.9419851400530028  1.8277461297070243
 10.5921643633126372  1.9419851400530028  4.3695994594620249
 17.3867256120626372 10.2904700300530010  2.1399302170620245
 15.0502363851826360 10.2904700300530010 11.1031416281790243
 17.3867256120626372  4.0291063600530030  2.1399302170620245
 16.5177760854976334  6.1162275900530076 10.9470495775160259
 15.9191859117466343  8.2033488100530008  2.2960222677250242
 16.7881354383116381  6.1162275900530076  3.4889029072710249
 15.0502363851826360  4.0291063600530030 11.1031416281790243
 15.9191859117466343  1.9419851400530028  2.2960222677250242
  9.9935741917566325 10.2904700300530010  5.7185721357000245
 17.6570849648766313 10.2904700300530010  4.6817835468170248
 18.2556751386276375  8.2033488100530008  3.3328108566080243
  9.9935741917566325  4.0291063600530030  5.7185721357000245
 17.6570849648766313  4.0291063600530030  4.6817835468170248
 18.2556751386276375  1.9419851400530028  3.3328108566080243
 15.3205957401906367 10.2904700300530010  3.6449949439640243
 15.3205957401906367  4.0291063600530030  3.6449949439640243
 14.4516462136256365  6.1162275900530076  2.4521143044180245
 14.7220055664396341  6.1162275900530076  4.9939676341730248
 17.9274443198846392 10.2904700300530010  7.2236368626020244
 15.5909550930046379 10.2904700300530010  6.1868482737190247
 16.1895452667556370  8.2033488100530008  4.8378755835100247
 17.9274443198846392  4.0291063600530030  7.2236368626020244
 17.0584947933196389  6.1162275900530076  6.0307562230560245
 16.4599046195686363  8.2033488100530008  7.3797289132650272
 17.3288541461336401  6.1162275900530076  8.5726095528110271
 15.5909550930046379  4.0291063600530030  6.1868482737190247
 16.1895452667556370  1.9419851400530028  4.8378755835100247
 16.4599046195686363  1.9419851400530028  7.3797289132650272
 15.8613144480126387 10.2904700300530010  8.7287015895030251
 15.8613144480126387  4.0291063600530030  8.7287015895030251
 16.7302639745776389  8.2033488100530008  9.9215822290490259
 16.7302639745776389  1.9419851400530028  9.9215822290490259
 18.2137702060556386  8.2033488100530008 10.6671627456010256
 17.0146866866356383  6.1162275900530076  9.8067929336140232
 18.2137702060556386  1.9419851400530028 10.6671627456010256
 13.3012249896736368  8.2033488100530008 11.1713986066090243
 12.1021414702546366  6.1162275900530076 10.3110287946230272
 13.3012249896736368  1.9419851400530028 11.1713986066090243
 10.9030579508346364 10.2904700300530010  9.4506589826370231
 10.7574975990126323  8.2033488100530008 10.9192806830820253
 10.9030579508346364  4.0291063600530030  9.4506589826370231
 10.7574975990126323  1.9419851400530028 10.9192806830820253
 13.4467853437916371 10.2904700300530010  9.7027769201190246
 13.4467853437916371  4.0291063600530030  9.7027769201190246
 14.6458688632116374  6.1162275900530076 10.5631467321050252
 14.7914292150336362  8.2033488100530008  9.0945250316600248
 13.5923456956146378  6.1162275900530076  8.2341552196740260
 14.7914292150336362  1.9419851400530028  9.0945250316600248
  9.8495347855326330 10.2904700300530010  7.1216674841600254
 12.3932621761946358 10.2904700300530010  7.3737854076870262
 12.2477018243716369  8.2033488100530008  8.8424071081330240
  9.8495347855326330  4.0291063600530030  7.1216674841600254
 11.0486183049526367  6.1162275900530076  7.9820372961460233
 11.1941786567756374  8.2033488100530008  6.5134155957010247
 12.3932621761946358  4.0291063600530030  7.3737854076870262
 12.2477018243716369  1.9419851400530028  8.8424071081330240
 11.1941786567756374  1.9419851400530028  6.5134155957010247
 14.9369895691516366 10.2904700300530010  7.6259033451690232
 14.9369895691516366  4.0291063600530030  7.6259033451690232
 11.3397390108926377 10.2904700300530010  5.0447939092110250
 13.8834664015546352 10.2904700300530010  5.2969118327380258
 13.7379060497316381  8.2033488100530008  6.7655335331830253
 11.3397390108926377  4.0291063600530030  5.0447939092110250
 12.5388225303126362  6.1162275900530076  5.9051637211970247
 12.6843828821346367  8.2033488100530008  4.4365420207520243
 13.8834664015546352  4.0291063600530030  5.2969118327380258
 13.7379060497316381  1.9419851400530028  6.7655335331830253
 12.6843828821346367  1.9419851400530028  4.4365420207520243
 12.8299432362526371 10.2904700300530010  2.9679203342610245
 12.8299432362526371  4.0291063600530030  2.9679203342610245
 14.0290267556726356  6.1162275900530076  3.8282901462470242
 14.1745871074946344  8.2033488100530008  2.3596684458020243
 14.1745871074946344  1.9419851400530028  2.3596684458020243
 10.3218050104996344  8.2033488100530008 11.8277461297070232
 10.3218050104996344  1.9419851400530028 11.8277461297070232
 17.3867256120626372 10.2904700300530010 12.1399302170620231
 17.3867256120626372  4.0291063600530030 12.1399302170620231
 15.9191859117466343  8.2033488100530008 12.2960222677250250
 15.9191859117466343  1.9419851400530028 12.2960222677250250
 14.4516462136256365  6.1162275900530076 12.4521143044180249
 14.1745871074946344  8.2033488100530008 12.3596684458020256
 14.1745871074946344  1.9419851400530028 12.3596684458020256
