Cu
 1.0000000000000000
    12.4648678537715796    0.0000000000000000    0.0000000000000000
     0.0000000000000000   14.9328670794608982    0.0000000000000000
     0.0000000000000000    0.0000000000000000   16.3162194820934303
 Cu 
 288
Cartesian
  1.7214665531570459  0.0286460439612064  0.4379736721564242
  1.7214665531570459 10.4642521639612056  0.4379736721564242
  1.7214665531570459  4.2028885039612041  0.4379736721564242
  1.7214665531570459  0.0286460439612064 10.4379736721564242
  1.7214665531570459 10.4642521639612056 10.4379736721564242
  1.7214665531570459  4.2028885039612041 10.4379736721564242
  8.7863871547200478 12.5513733939612102  0.7501577595114243
  8.7863871547200478  6.2900097239612052  0.7501577595114243
  9.6553366812850481  0.0286460439612064  1.9430383990574247
  0.2539268550360458  2.1157672739612039  0.5940657088484244
  0.5242862078490460  2.1157672739612039  3.1359190386034244
  0.2539268550360458 14.6384946139612033  0.5940657088484244
  1.1228763816000460 12.5513733939612102  1.7869463483944243
  0.5242862078490460 14.6384946139612033  3.1359190386034244
  9.6553366812850481 10.4642521639612056  1.9430383990574247
  0.2539268550360458  8.3771309439612054  0.5940657088484244
  1.1228763816000460  6.2900097239612052  1.7869463483944243
  0.5242862078490460  8.3771309439612054  3.1359190386034244
  9.6553366812850481  4.2028885039612041  1.9430383990574247
  7.3188474565990456  0.0286460439612064  0.9062497962034244
  4.9823582297190461  0.0286460439612064  9.8694612073204251
  5.8513077562830480  2.1157672739612039  1.0623418468664243
  7.3188474565990456 10.4642521639612056  0.9062497962034244
  6.4498979300340462 12.5513733939612102  9.7133691566574285
  5.8513077562830480 14.6384946139612033  1.0623418468664243
  6.7202572828480474 12.5513733939612102  2.2552224864124248
  4.9823582297190461 10.4642521639612056  9.8694612073204251
  7.3188474565990456  4.2028885039612041  0.9062497962034244
  6.4498979300340462  6.2900097239612052  9.7133691566574285
  5.8513077562830480  8.3771309439612054  1.0623418468664243
  6.7202572828480474  6.2900097239612052  2.2552224864124248
  4.9823582297190461  4.2028885039612041  9.8694612073204251
  7.5892068094130467  0.0286460439612064  3.4481031259584243
  8.1877969831640467  2.1157672739612039  2.0991304357494243
  8.4581563359770460  2.1157672739612039  4.6409837655044246
  8.1877969831640467 14.6384946139612033  2.0991304357494243
  9.0567465097280451 12.5513733939612102  3.2920110752954250
  8.4581563359770460 14.6384946139612033  4.6409837655044246
  7.5892068094130467 10.4642521639612056  3.4481031259584243
  8.1877969831640467  8.3771309439612054  2.0991304357494243
  9.0567465097280451  6.2900097239612052  3.2920110752954250
  8.4581563359770460  8.3771309439612054  4.6409837655044246
  7.5892068094130467  4.2028885039612041  3.4481031259584243
  5.2527175847270478  0.0286460439612064  2.4113145231054243
  5.2527175847270478 10.4642521639612056  2.4113145231054243
  4.3837680581620466 12.5513733939612102  1.2184338835594244
  4.6541274109760469 12.5513733939612102  3.7602872133144247
  5.2527175847270478  4.2028885039612041  2.4113145231054243
  4.3837680581620466  6.2900097239612052  1.2184338835594244
  4.6541274109760469  6.2900097239612052  3.7602872133144247
  7.8595661644210466  0.0286460439612064  5.9899564417434243
  5.5230769375410471  0.0286460439612064  4.9531678528604246
  6.1216671112920471  2.1157672739612039  3.6041951626514259
  6.3920264641050455  2.1157672739612039  6.1460484924064263
  6.1216671112920471 14.6384946139612033  3.6041951626514259
  7.8595661644210466 10.4642521639612056  5.9899564417434243
  6.9906166378560473 12.5513733939612102  4.7970758021974245
  6.3920264641050455 14.6384946139612033  6.1460484924064263
  7.2609759906700484 12.5513733939612102  7.3389291319524261
  5.5230769375410471 10.4642521639612056  4.9531678528604246
  6.1216671112920471  8.3771309439612054  3.6041951626514259
  7.8595661644210466  4.2028885039612041  5.9899564417434243
  6.9906166378560473  6.2900097239612052  4.7970758021974245
  6.3920264641050455  8.3771309439612054  6.1460484924064263
  7.2609759906700484  6.2900097239612052  7.3389291319524261
  5.5230769375410471  4.2028885039612041  4.9531678528604246
  5.7934362925490461  0.0286460439612064  7.4950211686444241
  5.7934362925490461 10.4642521639612056  7.4950211686444241
  5.7934362925490461  4.2028885039612041  7.4950211686444241
  6.6623858191140473  2.1157672739612039  8.6879018081904267
  6.6623858191140473 14.6384946139612033  8.6879018081904267
  6.6623858191140473  8.3771309439612054  8.6879018081904267
  8.1458920505920460  2.1157672739612039  9.4334823247424247
  8.1458920505920460 14.6384946139612033  9.4334823247424247
  6.9468085311720458 12.5513733939612102  8.5731125127554240
  8.1458920505920460  8.3771309439612054  9.4334823247424247
  6.9468085311720458  6.2900097239612052  8.5731125127554240
  3.2333468342100460  2.1157672739612039  9.9377181857504251
  3.2333468342100460 14.6384946139612033  9.9377181857504251
  2.0342633147910458 12.5513733939612102  9.0773483737644298
  3.2333468342100460  8.3771309439612054  9.9377181857504251
  2.0342633147910458  6.2900097239612052  9.0773483737644298
  8.2914524047090481  0.0286460439612064  7.9648606382514240
  0.8351797953710459  0.0286460439612064  8.2169785617784239
  0.6896194435490458  2.1157672739612039  9.6856002622234261
  9.6360962759520454  2.1157672739612039  7.3566087497924260
  0.6896194435490458 14.6384946139612033  9.6856002622234261
  8.2914524047090481 10.4642521639612056  7.9648606382514240
  9.4905359241290466 12.5513733939612102  8.8252304502374237
  9.6360962759520454 14.6384946139612033  7.3566087497924260
  0.8351797953710459 10.4642521639612056  8.2169785617784239
  0.6896194435490458  8.3771309439612054  9.6856002622234261
  8.2914524047090481  4.2028885039612041  7.9648606382514240
  9.4905359241290466  6.2900097239612052  8.8252304502374237
  9.6360962759520454  8.3771309439612054  7.3566087497924260
  0.8351797953710459  4.2028885039612041  8.2169785617784239
  3.3789071883280473  0.0286460439612064  8.4690964992604290
  4.7235510595700463  2.1157672739612039  7.8608446108014247
  3.3789071883280473 10.4642521639612056  8.4690964992604290
  4.5779907077480466 12.5513733939612102  9.3294663112464242
  4.7235510595700463 14.6384946139612033  7.8608446108014247
  3.5244675401510466 12.5513733939612102  7.0004747988154277
  3.3789071883280473  4.2028885039612041  8.4690964992604290
  4.5779907077480466  6.2900097239612052  9.3294663112464242
  4.7235510595700463  8.3771309439612054  7.8608446108014247
  3.5244675401510466  6.2900097239612052  7.0004747988154277
  2.3253840207310459  0.0286460439612064  6.1401049868284252
  2.1798236689080457  2.1157672739612039  7.6087266872744248
  1.1263005013120460  2.1157672739612039  5.2797351748424246
  2.1798236689080457 14.6384946139612033  7.6087266872744248
  0.9807401494890460 12.5513733939612102  6.7483568752874241
  1.1263005013120460 14.6384946139612033  5.2797351748424246
  2.3253840207310459 10.4642521639612056  6.1401049868284252
  2.1798236689080457  8.3771309439612054  7.6087266872744248
  0.9807401494890460  6.2900097239612052  6.7483568752874241
  1.1263005013120460  8.3771309439612054  5.2797351748424246
  2.3253840207310459  4.2028885039612041  6.1401049868284252
  4.8691114136880467  0.0286460439612064  6.3922229243104240
  4.8691114136880467 10.4642521639612056  6.3922229243104240
  4.8691114136880467  4.2028885039612041  6.3922229243104240
  1.2718608554290465  0.0286460439612064  3.8111134883524254
  3.8155882460910466  0.0286460439612064  4.0632314118794248
  3.6700278942680478  2.1157672739612039  5.5318531123244252
  2.6165047266710459  2.1157672739612039  3.2028615998934242
  3.6700278942680478 14.6384946139612033  5.5318531123244252
  1.2718608554290465 10.4642521639612056  3.8111134883524254
  2.4709443748490463 12.5513733939612102  4.6714833003384246
  2.6165047266710459 14.6384946139612033  3.2028615998934242
  3.8155882460910466 10.4642521639612056  4.0632314118794248
  3.6700278942680478  8.3771309439612054  5.5318531123244252
  1.2718608554290465  4.2028885039612041  3.8111134883524254
  2.4709443748490463  6.2900097239612052  4.6714833003384246
  2.6165047266710459  8.3771309439612054  3.2028615998934242
  3.8155882460910466  4.2028885039612041  4.0632314118794248
  2.7620650807890459  0.0286460439612064  1.7342399134024242
  4.1067089520310462  2.1157672739612039  1.1259880249434242
  2.7620650807890459 10.4642521639612056  1.7342399134024242
  3.9611486002090457 12.5513733939612102  2.5946097253884242
  4.1067089520310462 14.6384946139612033  1.1259880249434242
  2.7620650807890459  4.2028885039612041  1.7342399134024242
  3.9611486002090457  6.2900097239612052  2.5946097253884242
  4.1067089520310462  8.3771309439612054  1.1259880249434242
  8.7863871547200478 12.5513733939612102 10.7501577595114259
  8.7863871547200478  6.2900097239612052 10.7501577595114259
  9.6553366812850481  0.0286460439612064 11.9430383990574249
  0.2539268550360458  2.1157672739612039 10.5940657088484276
  0.5242862078490460  2.1157672739612039 13.1359190386034239
  0.2539268550360458 14.6384946139612033 10.5940657088484276
  1.1228763816000460 12.5513733939612102 11.7869463483944248
  0.5242862078490460 14.6384946139612033 13.1359190386034239
  9.6553366812850481 10.4642521639612056 11.9430383990574249
  0.2539268550360458  8.3771309439612054 10.5940657088484276
  1.1228763816000460  6.2900097239612052 11.7869463483944248
  0.5242862078490460  8.3771309439612054 13.1359190386034239
  9.6553366812850481  4.2028885039612041 11.9430383990574249
  7.3188474565990456  0.0286460439612064 10.9062497962034239
  5.8513077562830480  2.1157672739612039 11.0623418468664241
  7.3188474565990456 10.4642521639612056 10.9062497962034239
  5.8513077562830480 14.6384946139612033 11.0623418468664241
  6.7202572828480474 12.5513733939612102 12.2552224864124248
  7.3188474565990456  4.2028885039612041 10.9062497962034239
  5.8513077562830480  8.3771309439612054 11.0623418468664241
  6.7202572828480474  6.2900097239612052 12.2552224864124248
  7.5892068094130467  0.0286460439612064 13.4481031259584238
  8.1877969831640467  2.1157672739612039 12.0991304357494247
  8.4581563359770460  2.1157672739612039 14.6409837655044246
  8.1877969831640467 14.6384946139612033 12.0991304357494247
  9.0567465097280451 12.5513733939612102 13.2920110752954255
  8.4581563359770460 14.6384946139612033 14.6409837655044246
  7.5892068094130467 10.4642521639612056 13.4481031259584238
  8.1877969831640467  8.3771309439612054 12.0991304357494247
  9.0567465097280451  6.2900097239612052 13.2920110752954255
  8.4581563359770460  8.3771309439612054 14.6409837655044246
  7.5892068094130467  4.2028885039612041 13.4481031259584238
  5.2527175847270478  0.0286460439612064 12.4113145231054247
  5.2527175847270478 10.4642521639612056 12.4113145231054247
  4.3837680581620466 12.5513733939612102 11.2184338835594275
  4.6541274109760469 12.5513733939612102 13.7602872133144238
  5.2527175847270478  4.2028885039612041 12.4113145231054247
  4.3837680581620466  6.2900097239612052 11.2184338835594275
  4.6541274109760469  6.2900097239612052 13.7602872133144238
  7.8595661644210466  0.0286460439612064 15.9899564417434235
  5.5230769375410471  0.0286460439612064 14.9531678528604246
  6.1216671112920471  2.1157672739612039 13.6041951626514273
  6.3920264641050455  2.1157672739612039 16.1460484924064254
  6.1216671112920471 14.6384946139612033 13.6041951626514273
  7.8595661644210466 10.4642521639612056 15.9899564417434235
  6.9906166378560473 12.5513733939612102 14.7970758021974245
  6.3920264641050455 14.6384946139612033 16.1460484924064254
  5.5230769375410471 10.4642521639612056 14.9531678528604246
  6.1216671112920471  8.3771309439612054 13.6041951626514273
  7.8595661644210466  4.2028885039612041 15.9899564417434235
  6.9906166378560473  6.2900097239612052 14.7970758021974245
  6.3920264641050455  8.3771309439612054 16.1460484924064254
  5.5230769375410471  4.2028885039612041 14.9531678528604246
  2.3253840207310459  0.0286460439612064 16.1401049868284261
  1.1263005013120460  2.1157672739612039 15.2797351748424255
  1.1263005013120460 14.6384946139612033 15.2797351748424255
  2.3253840207310459 10.4642521639612056 16.1401049868284261
  1.1263005013120460  8.3771309439612054 15.2797351748424255
  2.3253840207310459  4.2028885039612041 16.1401049868284261
  1.2718608554290465  0.0286460439612064 13.8111134883524294
  3.8155882460910466  0.0286460439612064 14.0632314118794248
  3.6700278942680478  2.1157672739612039 15.5318531123244252
  2.6165047266710459  2.1157672739612039 13.2028615998934242
  3.6700278942680478 14.6384946139612033 15.5318531123244252
  1.2718608554290465 10.4642521639612056 13.8111134883524294
  2.4709443748490463 12.5513733939612102 14.6714833003384246
  2.6165047266710459 14.6384946139612033 13.2028615998934242
  3.8155882460910466 10.4642521639612056 14.0632314118794248
  3.6700278942680478  8.3771309439612054 15.5318531123244252
  1.2718608554290465  4.2028885039612041 13.8111134883524294
  2.4709443748490463  6.2900097239612052 14.6714833003384246
  2.6165047266710459  8.3771309439612054 13.2028615998934242
  3.8155882460910466  4.2028885039612041 14.0632314118794248
  2.7620650807890459  0.0286460439612064 11.7342399134024244
  4.1067089520310462  2.1157672739612039 11.1259880249434246
  2.7620650807890459 10.4642521639612056 11.7342399134024244
  3.9611486002090457 12.5513733939612102 12.5946097253884268
  4.1067089520310462 14.6384946139612033 11.1259880249434246
  2.7620650807890459  4.2028885039612041 11.7342399134024244
  3.9611486002090457  6.2900097239612052 12.5946097253884268
  4.1067089520310462  8.3771309439612054 11.1259880249434246
 11.7214665531570450  0.0286460439612064  0.4379736721564242
 11.7214665531570450 10.4642521639612056  0.4379736721564242
 11.7214665531570450  4.2028885039612041  0.4379736721564242
 11.7214665531570450  0.0286460439612064 10.4379736721564242
 11.7214665531570450 10.4642521639612056 10.4379736721564242
 11.7214665531570450  4.2028885039612041 10.4379736721564242
 10.2539268550360454  2.1157672739612039  0.5940657088484244
 10.5242862078490464  2.1157672739612039  3.1359190386034244
 10.2539268550360454 14.6384946139612033  0.5940657088484244
 11.1228763816000455 12.5513733939612102  1.7869463483944243
 10.5242862078490464 14.6384946139612033  3.1359190386034244
 10.2539268550360454  8.3771309439612054  0.5940657088484244
 11.1228763816000455  6.2900097239612052  1.7869463483944243
 10.5242862078490464  8.3771309439612054  3.1359190386034244
  9.9256960362930471  0.0286460439612064  4.4848917148414245
  9.9256960362930471 10.4642521639612056  4.4848917148414245
  9.9256960362930471  4.2028885039612041  4.4848917148414245
 12.0342633147910458 12.5513733939612102  9.0773483737644298
 12.0342633147910458  6.2900097239612052  9.0773483737644298
 10.8351797953710474  0.0286460439612064  8.2169785617784239
 10.6896194435490450  2.1157672739612039  9.6856002622234261
 10.6896194435490450 14.6384946139612033  9.6856002622234261
 10.8351797953710474 10.4642521639612056  8.2169785617784239
 10.6896194435490450  8.3771309439612054  9.6856002622234261
 10.8351797953710474  4.2028885039612041  8.2169785617784239
  9.7816566300690457  0.0286460439612064  5.8879870633014253
 12.3253840207310450  0.0286460439612064  6.1401049868284252
 12.1798236689080461  2.1157672739612039  7.6087266872744248
 11.1263005013120466  2.1157672739612039  5.2797351748424246
 12.1798236689080461 14.6384946139612033  7.6087266872744248
  9.7816566300690457 10.4642521639612056  5.8879870633014253
 10.9807401494890478 12.5513733939612102  6.7483568752874241
 11.1263005013120466 14.6384946139612033  5.2797351748424246
 12.3253840207310450 10.4642521639612056  6.1401049868284252
 12.1798236689080461  8.3771309439612054  7.6087266872744248
  9.7816566300690457  4.2028885039612041  5.8879870633014253
 10.9807401494890478  6.2900097239612052  6.7483568752874241
 11.1263005013120466  8.3771309439612054  5.2797351748424246
 12.3253840207310450  4.2028885039612041  6.1401049868284252
 11.2718608554290469  0.0286460439612064  3.8111134883524254
 11.2718608554290469 10.4642521639612056  3.8111134883524254
 11.2718608554290469  4.2028885039612041  3.8111134883524254
 10.2539268550360454  2.1157672739612039 10.5940657088484276
 10.5242862078490464  2.1157672739612039 13.1359190386034239
 10.2539268550360454 14.6384946139612033 10.5940657088484276
 11.1228763816000455 12.5513733939612102 11.7869463483944248
 10.5242862078490464 14.6384946139612033 13.1359190386034239
 10.2539268550360454  8.3771309439612054 10.5940657088484276
 11.1228763816000455  6.2900097239612052 11.7869463483944248
 10.5242862078490464  8.3771309439612054 13.1359190386034239
  9.9256960362930471  0.0286460439612064 14.4848917148414245
  9.9256960362930471 10.4642521639612056 14.4848917148414245
  9.9256960362930471  4.2028885039612041 14.4848917148414245
  9.7816566300690457  0.0286460439612064 15.8879870633014253
 12.3253840207310450  0.0286460439612064 16.1401049868284261
 11.1263005013120466  2.1157672739612039 15.2797351748424255
  9.7816566300690457 10.4642521639612056 15.8879870633014253
 11.1263005013120466 14.6384946139612033 15.2797351748424255
 12.3253840207310450 10.4642521639612056 16.1401049868284261
  9.7816566300690457  4.2028885039612041 15.8879870633014253
 11.1263005013120466  8.3771309439612054 15.2797351748424255
 12.3253840207310450  4.2028885039612041 16.1401049868284261
 11.2718608554290469  0.0286460439612064 13.8111134883524294
 11.2718608554290469 10.4642521639612056 13.8111134883524294
 11.2718608554290469  4.2028885039612041 13.8111134883524294
