Cu
 1.0000000000000000
    13.6142568857524431    0.0000000000000000    0.0000000000000000
     0.0000000000000000   12.9993894344451455    0.0000000000000000
     0.0000000000000000    0.0000000000000000   16.0362479215438931
 Cu 
 236
Cartesian
  1.8064437307038499  9.4558015152847403  7.5255050868062821
  1.8064437307038499  3.1944378452847424  7.5255050868062821
  0.6092633853958502  7.3686802952847392  0.2234504532532817
  0.6092633853958502  1.1073166252847422  0.2234504532532817
  6.5348751075808504 11.5429227452847414  6.8009005713072828
  5.0673354072658503  9.4558015152847403  6.9569926219702829
  6.5348751075808504  5.2815590752847470  6.8009005713072828
  5.0673354072658503  3.1944378452847424  6.9569926219702829
  0.0106732138398500  9.4558015152847403  1.5724231294912823
  9.1417236872748493 11.5429227452847414  0.3795424899452833
  7.6741839869598492  9.4558015152847403  0.5356345406082816
  0.0106732138398500  3.1944378452847424  1.5724231294912823
  9.1417236872748493  5.2815590752847470  0.3795424899452833
  8.5431335135238484  7.3686802952847392  1.7285151801542824
  7.6741839869598492  3.1944378452847424  0.5356345406082816
  8.5431335135238484  1.1073166252847422  1.7285151801542824
  4.7391045885228511 11.5429227452847414  0.8478186279642825
  4.7391045885228511  5.2815590752847470  0.8478186279642825
  7.9445433419678499  9.4558015152847403  3.0774878563932822
  7.0755938154028515 11.5429227452847414  1.8846072168472823
  7.3459531682168517 11.5429227452847414  4.4264605466022839
  5.6080541150878513  9.4558015152847403  2.0406992675102824
  6.2066442888388496  7.3686802952847392  0.6917265773012833
  7.9445433419678499  3.1944378452847424  3.0774878563932822
  7.0755938154028515  5.2815590752847470  1.8846072168472823
  6.4770036416518497  7.3686802952847392  3.2335799070562841
  7.3459531682168517  5.2815590752847470  4.4264605466022839
  5.6080541150878513  3.1944378452847424  2.0406992675102824
  6.2066442888388496  1.1073166252847422  0.6917265773012833
  6.4770036416518497  1.1073166252847422  3.2335799070562841
  5.8784134700958495  9.4558015152847403  4.5825525832942819
  5.8784134700958495  3.1944378452847424  4.5825525832942819
  6.7473629966608506  7.3686802952847392  5.7754332228402827
  6.7473629966608506  1.1073166252847422  5.7754332228402827
  7.0317857087188500 11.5429227452847414  5.6606439274052818
  8.2308692281388502  7.3686802952847392  6.5210137393922825
  7.0317857087188500  5.2815590752847470  5.6606439274052818
  8.2308692281388502  1.1073166252847422  6.5210137393922825
  2.1192404923378501 11.5429227452847414  6.1648797884142841
  3.3183240117568502  7.3686802952847392  7.0252496004002847
  2.1192404923378501  5.2815590752847470  6.1648797884142841
  3.3183240117568502  1.1073166252847422  7.0252496004002847
  8.3764295822558505  9.4558015152847403  5.0523920529012818
  9.5755131016758508 11.5429227452847414  5.9127618648872815
  0.9201569729178500  9.4558015152847403  5.3045099764282817
  0.7745966210958500  7.3686802952847392  6.7731316768732821
  8.3764295822558505  3.1944378452847424  5.0523920529012818
  9.5755131016758508  5.2815590752847470  5.9127618648872815
  9.7210734534988497  7.3686802952847392  4.4441401644422838
  0.9201569729178500  3.1944378452847424  5.3045099764282817
  0.7745966210958500  1.1073166252847422  6.7731316768732821
  9.7210734534988497  1.1073166252847422  4.4441401644422838
  3.4638843658748506  9.4558015152847403  5.5566279139102832
  4.6629678852948508 11.5429227452847414  6.4169977258962820
  3.6094447176978508 11.5429227452847414  4.0880062134652837
  3.4638843658748506  3.1944378452847424  5.5566279139102832
  4.6629678852948508  5.2815590752847470  6.4169977258962820
  4.8085282371168496  7.3686802952847392  4.9483760254512825
  3.6094447176978508  5.2815590752847470  4.0880062134652837
  4.8085282371168496  1.1073166252847422  4.9483760254512825
  1.0657173270358502 11.5429227452847414  3.8358882899372819
  2.4103611982778492  9.4558015152847403  3.2276364014782830
  2.2648008464548499  7.3686802952847392  4.6962581019242817
  1.0657173270358502  5.2815590752847470  3.8358882899372819
  1.2112776788588502  7.3686802952847392  2.3672665894922824
  2.4103611982778492  3.1944378452847424  3.2276364014782830
  2.2648008464548499  1.1073166252847422  4.6962581019242817
  1.2112776788588502  1.1073166252847422  2.3672665894922824
  4.9540885912348500  9.4558015152847403  3.4797543389602819
  4.9540885912348500  3.1944378452847424  3.4797543389602819
  1.3568380329758500  9.4558015152847403  0.8986449030022836
  2.5559215523958501 11.5429227452847414  1.7590147149882824
  3.9005654236378500  9.4558015152847403  1.1507628265292826
  3.7550050718148507  7.3686802952847392  2.6193845269742830
  1.3568380329758500  3.1944378452847424  0.8986449030022836
  2.5559215523958501  5.2815590752847470  1.7590147149882824
  2.7014819042178502  7.3686802952847392  0.2903930145432820
  3.9005654236378500  3.1944378452847424  1.1507628265292826
  3.7550050718148507  1.1073166252847422  2.6193845269742830
  2.7014819042178502  1.1073166252847422  0.2903930145432820
  8.8713643322668503 11.5429227452847414  7.8376891741612820
  8.8713643322668503  5.2815590752847470  7.8376891741612820
  1.2078535591468502 11.5429227452847414  8.8744777630442826
  9.7403138588318505  9.4558015152847403  9.0305698137072827
  0.3389040325828500  7.3686802952847392  7.6815971234982818
  1.2078535591468502  5.2815590752847470  8.8744777630442826
  0.6092633853958502  7.3686802952847392 10.2234504532532817
  9.7403138588318505  3.1944378452847424  9.0305698137072827
  0.3389040325828500  1.1073166252847422  7.6815971234982818
  0.6092633853958502  1.1073166252847422 10.2234504532532817
  7.4038246341458489  9.4558015152847403  7.9937812108532826
  6.8052344603948507 11.5429227452847414  9.3427539010622827
  7.4038246341458489  3.1944378452847424  7.9937812108532826
  5.9362849338298505  7.3686802952847392  8.1498732615162819
  6.8052344603948507  5.2815590752847470  9.3427539010622827
  5.9362849338298505  1.1073166252847422  8.1498732615162819
  0.0106732138398500  9.4558015152847403 11.5724231294912823
  9.1417236872748493 11.5429227452847414 10.3795424899452833
  7.6741839869598492  9.4558015152847403 10.5356345406082816
  8.2727741607108509  7.3686802952847392  9.1866618503992861
  0.0106732138398500  3.1944378452847424 11.5724231294912823
  9.1417236872748493  5.2815590752847470 10.3795424899452833
  8.5431335135238484  7.3686802952847392 11.7285151801542824
  7.6741839869598492  3.1944378452847424 10.5356345406082816
  8.2727741607108509  1.1073166252847422  9.1866618503992861
  8.5431335135238484  1.1073166252847422 11.7285151801542824
  5.3376947622738511  9.4558015152847403  9.4988459377552825
  4.4687452357088500 11.5429227452847414  8.3059652982092818
  4.7391045885228511 11.5429227452847414 10.8478186279642834
  5.3376947622738511  3.1944378452847424  9.4988459377552825
  4.4687452357088500  5.2815590752847470  8.3059652982092818
  4.7391045885228511  5.2815590752847470 10.8478186279642834
  7.9445433419678499  9.4558015152847403 13.0774878563932866
  7.0755938154028515 11.5429227452847414 11.8846072168472823
  7.3459531682168517 11.5429227452847414 14.4264605466022839
  5.6080541150878513  9.4558015152847403 12.0406992675102824
  6.2066442888388496  7.3686802952847392 10.6917265773012833
  7.9445433419678499  3.1944378452847424 13.0774878563932866
  7.0755938154028515  5.2815590752847470 11.8846072168472823
  6.4770036416518497  7.3686802952847392 13.2335799070562850
  7.3459531682168517  5.2815590752847470 14.4264605466022839
  5.6080541150878513  3.1944378452847424 12.0406992675102824
  6.2066442888388496  1.1073166252847422 10.6917265773012833
  6.4770036416518497  1.1073166252847422 13.2335799070562850
  5.8784134700958495  9.4558015152847403 14.5825525832942819
  5.8784134700958495  3.1944378452847424 14.5825525832942819
  6.7473629966608506  7.3686802952847392 15.7754332228402827
  6.7473629966608506  1.1073166252847422 15.7754332228402827
  7.0317857087188500 11.5429227452847414 15.6606439274052818
  7.0317857087188500  5.2815590752847470 15.6606439274052818
  8.3764295822558505  9.4558015152847403 15.0523920529012827
  9.5755131016758508 11.5429227452847414 15.9127618648872815
  0.9201569729178500  9.4558015152847403 15.3045099764282817
  8.3764295822558505  3.1944378452847424 15.0523920529012827
  9.5755131016758508  5.2815590752847470 15.9127618648872815
  9.7210734534988497  7.3686802952847392 14.4441401644422847
  0.9201569729178500  3.1944378452847424 15.3045099764282817
  9.7210734534988497  1.1073166252847422 14.4441401644422847
  3.4638843658748506  9.4558015152847403 15.5566279139102832
  3.6094447176978508 11.5429227452847414 14.0880062134652846
  3.4638843658748506  3.1944378452847424 15.5566279139102832
  4.8085282371168496  7.3686802952847392 14.9483760254512816
  3.6094447176978508  5.2815590752847470 14.0880062134652846
  4.8085282371168496  1.1073166252847422 14.9483760254512816
  1.0657173270358502 11.5429227452847414 13.8358882899372819
  2.4103611982778492  9.4558015152847403 13.2276364014782821
  2.2648008464548499  7.3686802952847392 14.6962581019242826
  1.0657173270358502  5.2815590752847470 13.8358882899372819
  1.2112776788588502  7.3686802952847392 12.3672665894922815
  2.4103611982778492  3.1944378452847424 13.2276364014782821
  2.2648008464548499  1.1073166252847422 14.6962581019242826
  1.2112776788588502  1.1073166252847422 12.3672665894922815
  4.9540885912348500  9.4558015152847403 13.4797543389602819
  4.9540885912348500  3.1944378452847424 13.4797543389602819
  1.3568380329758500  9.4558015152847403 10.8986449030022836
  2.5559215523958501 11.5429227452847414 11.7590147149882824
  3.9005654236378500  9.4558015152847403 11.1507628265292826
  3.7550050718148507  7.3686802952847392 12.6193845269742830
  1.3568380329758500  3.1944378452847424 10.8986449030022836
  2.5559215523958501  5.2815590752847470 11.7590147149882824
  2.7014819042178502  7.3686802952847392 10.2903930145432820
  3.9005654236378500  3.1944378452847424 11.1507628265292826
  3.7550050718148507  1.1073166252847422 12.6193845269742830
  2.7014819042178502  1.1073166252847422 10.2903930145432820
  2.8470422583358501  9.4558015152847403  8.8217713280522823
  4.0461257777558499 11.5429227452847414  9.6821411400382829
  2.8470422583358501  3.1944378452847424  8.8217713280522823
  4.0461257777558499  5.2815590752847470  9.6821411400382829
  4.1916861295778496  7.3686802952847392  8.2135194395932825
  4.1916861295778496  1.1073166252847422  8.2135194395932825
 11.8064437307038492  9.4558015152847403  7.5255050868062821
 11.8064437307038492  3.1944378452847424  7.5255050868062821
 10.6092633853958507  7.3686802952847392  0.2234504532532817
 10.6092633853958507  1.1073166252847422  0.2234504532532817
 10.0106732138398460  9.4558015152847403  1.5724231294912823
 10.0106732138398460  3.1944378452847424  1.5724231294912823
 12.1192404923378501 11.5429227452847414  6.1648797884142841
 13.3183240117568467  7.3686802952847392  7.0252496004002847
 12.1192404923378501  5.2815590752847470  6.1648797884142841
 13.3183240117568467  1.1073166252847422  7.0252496004002847
 10.9201569729178498  9.4558015152847403  5.3045099764282817
 10.7745966210958493  7.3686802952847392  6.7731316768732821
 10.9201569729178498  3.1944378452847424  5.3045099764282817
 10.7745966210958493  1.1073166252847422  6.7731316768732821
 13.4638843658748506  9.4558015152847403  5.5566279139102832
 13.6094447176978495 11.5429227452847414  4.0880062134652837
 13.4638843658748506  3.1944378452847424  5.5566279139102832
 13.6094447176978495  5.2815590752847470  4.0880062134652837
  9.8666338076158500  9.4558015152847403  2.9755184779512831
 11.0657173270358502 11.5429227452847414  3.8358882899372819
 12.4103611982778492  9.4558015152847403  3.2276364014782830
 12.2648008464548504  7.3686802952847392  4.6962581019242817
  9.8666338076158500  3.1944378452847424  2.9755184779512831
 11.0657173270358502  5.2815590752847470  3.8358882899372819
 11.2112776788588473  7.3686802952847392  2.3672665894922824
 12.4103611982778492  3.1944378452847424  3.2276364014782830
 12.2648008464548504  1.1073166252847422  4.6962581019242817
 11.2112776788588473  1.1073166252847422  2.3672665894922824
 11.3568380329758511  9.4558015152847403  0.8986449030022836
 12.5559215523958478 11.5429227452847414  1.7590147149882824
 11.3568380329758511  3.1944378452847424  0.8986449030022836
 12.5559215523958478  5.2815590752847470  1.7590147149882824
 12.7014819042178502  7.3686802952847392  0.2903930145432820
 12.7014819042178502  1.1073166252847422  0.2903930145432820
 11.2078535591468498 11.5429227452847414  8.8744777630442826
 10.3389040325828496  7.3686802952847392  7.6815971234982818
 11.2078535591468498  5.2815590752847470  8.8744777630442826
 10.6092633853958507  7.3686802952847392 10.2234504532532817
 10.3389040325828496  1.1073166252847422  7.6815971234982818
 10.6092633853958507  1.1073166252847422 10.2234504532532817
 10.0106732138398460  9.4558015152847403 11.5724231294912823
 10.0106732138398460  3.1944378452847424 11.5724231294912823
 10.9201569729178498  9.4558015152847403 15.3045099764282817
 10.9201569729178498  3.1944378452847424 15.3045099764282817
 13.4638843658748506  9.4558015152847403 15.5566279139102832
 13.6094447176978495 11.5429227452847414 14.0880062134652846
 13.4638843658748506  3.1944378452847424 15.5566279139102832
 13.6094447176978495  5.2815590752847470 14.0880062134652846
  9.8666338076158500  9.4558015152847403 12.9755184779512831
 11.0657173270358502 11.5429227452847414 13.8358882899372819
 12.4103611982778492  9.4558015152847403 13.2276364014782821
 12.2648008464548504  7.3686802952847392 14.6962581019242826
  9.8666338076158500  3.1944378452847424 12.9755184779512831
 11.0657173270358502  5.2815590752847470 13.8358882899372819
 11.2112776788588473  7.3686802952847392 12.3672665894922815
 12.4103611982778492  3.1944378452847424 13.2276364014782821
 12.2648008464548504  1.1073166252847422 14.6962581019242826
 11.2112776788588473  1.1073166252847422 12.3672665894922815
 11.3568380329758511  9.4558015152847403 10.8986449030022836
 12.5559215523958478 11.5429227452847414 11.7590147149882824
 11.3568380329758511  3.1944378452847424 10.8986449030022836
 12.5559215523958478  5.2815590752847470 11.7590147149882824
 12.7014819042178502  7.3686802952847392 10.2903930145432820
 12.7014819042178502  1.1073166252847422 10.2903930145432820
 12.8470422583358488  9.4558015152847403  8.8217713280522823
 12.8470422583358488  3.1944378452847424  8.8217713280522823
