Cu
 1.0000000000000000
    15.6861568419165298    0.0000000000000000    0.0000000000000000
     0.0000000000000000   17.6924643327742217    0.0000000000000000
     0.0000000000000000    0.0000000000000000   13.2036320924597916
 Cu 
 298
Cartesian
  1.2446755049005986 10.4179949158568128  5.3004127537663166
  1.2446755049005986  4.1566312458568149  5.3004127537663166
  3.2529339108435975  6.2437524658568080  0.2280273626133154
  2.6543437392875990  8.3308736858568082  1.5770000388523155
  1.7853942127225992 10.4179949158568128  0.3841193993063152
  2.0557535655365990 10.4179949158568128  2.9259727290613178
  0.3178545124075994  8.3308736858568082  0.5402114499693154
  2.6543437392875990  2.0695100158568103  1.5770000388523155
  1.7853942127225992  4.1566312458568149  0.3841193993063152
  1.1868040389715979  6.2437524658568080  1.7330920895153170
  2.0557535655365990  4.1566312458568149  2.9259727290613178
  0.3178545124075994  2.0695100158568103  0.5402114499693154
  0.5882138674155986  8.3308736858568082  3.0820647657533158
  0.5882138674155986  2.0695100158568103  3.0820647657533158
  1.4571633939805997  6.2437524658568080  4.2749454052993174
  1.7415861060385978 10.4179949158568128  4.1601561098643165
  2.9406696254585984  6.2437524658568080  5.0205259218513163
  1.7415861060385978  4.1566312458568149  4.1601561098643165
  3.0862299795755979  8.3308736858568082  3.5519042353603147
  4.2853134989955990 10.4179949158568128  4.4122740473463162
  3.0862299795755979  2.0695100158568103  3.5519042353603147
  4.2853134989955990  4.1566312458568149  4.4122740473463162
  4.4308738508185961  6.2437524658568080  2.9436523469013167
  3.5811647295865976 10.4179949158568128  6.3372013566203149
  3.5811647295865976  4.1566312458568149  6.3372013566203149
  4.4501142561515987  8.3308736858568082  7.5300819961663157
  4.4501142561515987  2.0695100158568103  7.5300819961663157
  2.1136250314655980  8.3308736858568082  6.4932933933123165
  1.5150348577145989 10.4179949158568128  7.8422660835213156
  2.1136250314655980  2.0695100158568103  6.4932933933123165
  0.6460853311495993  6.2437524658568080  6.6493854439753148
  1.5150348577145989  4.1566312458568149  7.8422660835213156
  3.8515240845945966 10.4179949158568128  8.8790546724043153
  2.3839843842795974  8.3308736858568082  9.0351467230673155
  2.9825745580305982  6.2437524658568080  7.6861740328583146
  3.8515240845945966  4.1566312458568149  8.8790546724043153
  3.2529339108435975  6.2437524658568080 10.2280273626133145
  2.3839843842795974  2.0695100158568103  9.0351467230673155
  0.0474951595935993  8.3308736858568082  7.9983581202143146
  0.0474951595935993  2.0695100158568103  7.9983581202143146
  2.6543437392875990  8.3308736858568082 11.5770000388523151
  1.7853942127225992 10.4179949158568128 10.3841193993063143
  2.0557535655365990 10.4179949158568128 12.9259727290613178
  0.3178545124075994  8.3308736858568082 10.5402114499693180
  0.9164446861585993  6.2437524658568080  9.1912387597603153
  2.6543437392875990  2.0695100158568103 11.5770000388523151
  1.7853942127225992  4.1566312458568149 10.3841193993063143
  1.1868040389715979  6.2437524658568080 11.7330920895153170
  2.0557535655365990  4.1566312458568149 12.9259727290613178
  0.3178545124075994  2.0695100158568103 10.5402114499693180
  0.5882138674155986  8.3308736858568082 13.0820647657533158
  0.5882138674155986  2.0695100158568103 13.0820647657533158
  4.4308738508185961  6.2437524658568080 12.9436523469013203
  1.2446755049005986 14.5922373558568097  5.3004127537663166
  3.2529339108435975 12.5051161358568095  0.2280273626133154
  2.6543437392875990 16.6793585858568107  1.5770000388523155
  1.7853942127225992 14.5922373558568097  0.3841193993063152
  1.1868040389715979 12.5051161358568095  1.7330920895153170
  2.0557535655365990 14.5922373558568097  2.9259727290613178
  0.3178545124075994 16.6793585858568107  0.5402114499693154
  0.5882138674155986 16.6793585858568107  3.0820647657533158
  1.4571633939805997 12.5051161358568095  4.2749454052993174
  2.9406696254585984 12.5051161358568095  5.0205259218513163
  1.7415861060385978 14.5922373558568097  4.1601561098643165
  3.0862299795755979 16.6793585858568107  3.5519042353603147
  4.2853134989955990 14.5922373558568097  4.4122740473463162
  4.4308738508185961 12.5051161358568095  2.9436523469013167
  3.5811647295865976 14.5922373558568097  6.3372013566203149
  4.4501142561515987 16.6793585858568107  7.5300819961663157
  2.1136250314655980 16.6793585858568107  6.4932933933123165
  0.6460853311495993 12.5051161358568095  6.6493854439753148
  1.5150348577145989 14.5922373558568097  7.8422660835213156
  2.9825745580305982 12.5051161358568095  7.6861740328583146
  3.8515240845945966 14.5922373558568097  8.8790546724043153
  3.2529339108435975 12.5051161358568095 10.2280273626133145
  2.3839843842795974 16.6793585858568107  9.0351467230673155
  0.0474951595935993 16.6793585858568107  7.9983581202143146
  0.9164446861585993 12.5051161358568095  9.1912387597603153
  2.6543437392875990 16.6793585858568107 11.5770000388523151
  1.7853942127225992 14.5922373558568097 10.3841193993063143
  1.1868040389715979 12.5051161358568095 11.7330920895153170
  2.0557535655365990 14.5922373558568097 12.9259727290613178
  0.3178545124075994 16.6793585858568107 10.5402114499693180
  0.5882138674155986 16.6793585858568107 13.0820647657533158
  4.4308738508185961 12.5051161358568095 12.9436523469013203
  6.5162441280235983  8.3308736858568082  6.0250172692653168
  6.5162441280235983  2.0695100158568103  6.0250172692653168
 11.2446755049005951 10.4179949158568128  5.3004127537663166
  9.7771358045855941  8.3308736858568082  5.4565048044293158
 11.2446755049005951  4.1566312458568149  5.3004127537663166
  9.7771358045855941  2.0695100158568103  5.4565048044293158
  4.7204736111595986  8.3308736858568082  0.0719353119503152
  4.7204736111595986  2.0695100158568103  0.0719353119503152
 13.2529339108435984  6.2437524658568080  0.2280273626133154
 12.6543437392875955  8.3308736858568082  1.5770000388523155
 11.7853942127225970 10.4179949158568128  0.3841193993063152
 12.0557535655365999 10.4179949158568128  2.9259727290613178
 10.3178545124075960  8.3308736858568082  0.5402114499693154
 12.6543437392875955  2.0695100158568103  1.5770000388523155
 11.7853942127225970  4.1566312458568149  0.3841193993063152
 11.1868040389715979  6.2437524658568080  1.7330920895153170
 12.0557535655365999  4.1566312458568149  2.9259727290613178
 10.3178545124075960  2.0695100158568103  0.5402114499693154
 10.5882138674155950  8.3308736858568082  3.0820647657533158
 10.5882138674155950  2.0695100158568103  3.0820647657533158
 11.4571633939805970  6.2437524658568080  4.2749454052993174
 11.7415861060385947 10.4179949158568128  4.1601561098643165
 12.9406696254585949  6.2437524658568080  5.0205259218513163
 11.7415861060385947  4.1566312458568149  4.1601561098643165
  6.8290408896575965 10.4179949158568128  4.6643919708733170
  8.0281244090765984  6.2437524658568080  5.5247617828593159
  6.8290408896575965  4.1566312458568149  4.6643919708733170
 13.0862299795755952  8.3308736858568082  3.5519042353603147
 14.2853134989955954 10.4179949158568128  4.4122740473463162
  5.6299573702375962  8.3308736858568082  3.8040221588873151
  5.4843970184155966  6.2437524658568080  5.2726438593323151
 13.0862299795755952  2.0695100158568103  3.5519042353603147
 14.2853134989955954  4.1566312458568149  4.4122740473463162
 14.4308738508185943  6.2437524658568080  2.9436523469013167
  5.6299573702375962  2.0695100158568103  3.8040221588873151
  8.1736847631945988  8.3308736858568082  4.0561400963693162
  9.3727682826145990 10.4179949158568128  4.9165099083553150
  8.3192451150175959 10.4179949158568128  2.5875183959243166
  8.1736847631945988  2.0695100158568103  4.0561400963693162
  9.3727682826145990  4.1566312458568149  4.9165099083553150
  9.5183286344365943  6.2437524658568080  3.4478882079103164
  8.3192451150175959  4.1566312458568149  2.5875183959243166
  4.5764342049355982  8.3308736858568082  1.4750306604103161
  5.7755177243555966 10.4179949158568128  2.3354004723963149
  7.1201615955975965  8.3308736858568082  1.7271485839373164
  6.9746012437745968  6.2437524658568080  3.1957702843833147
  4.5764342049355982  2.0695100158568103  1.4750306604103161
  5.7755177243555966  4.1566312458568149  2.3354004723963149
  5.9210780761785982  6.2437524658568080  0.8667787719513156
  7.1201615955975965  2.0695100158568103  1.7271485839373164
  9.6638889885545947  8.3308736858568082  1.9792665214193150
  9.6638889885545947  2.0695100158568103  1.9792665214193150
  7.2657219497155978 10.4179949158568128  0.2585268974473154
  8.4648054691345962  6.2437524658568080  1.1188967094333160
  7.2657219497155978  4.1566312458568149  0.2585268974473154
 13.5811647295865949 10.4179949158568128  6.3372013566203149
 13.5811647295865949  4.1566312458568149  6.3372013566203149
  5.9176539564665962 10.4179949158568128  7.3739899455033155
 14.4501142561515952  8.3308736858568082  7.5300819961663157
  5.0487044299025960  6.2437524658568080  6.1811093059573148
  5.9176539564665962  4.1566312458568149  7.3739899455033155
  5.3190637827155989  6.2437524658568080  8.7229626357123156
 14.4501142561515952  2.0695100158568103  7.5300819961663157
 12.1136250314655953  8.3308736858568082  6.4932933933123165
 11.5150348577145998 10.4179949158568128  7.8422660835213156
 12.1136250314655953  2.0695100158568103  6.4932933933123165
 10.6460853311495995  6.2437524658568080  6.6493854439753148
 11.5150348577145998  4.1566312458568149  7.8422660835213156
  4.7204736111595986  8.3308736858568082 10.0719353119503179
 13.8515240845945939 10.4179949158568128  8.8790546724043153
 12.3839843842795947  8.3308736858568082  9.0351467230673155
 12.9825745580305956  6.2437524658568080  7.6861740328583146
  4.7204736111595986  2.0695100158568103 10.0719353119503179
 13.8515240845945939  4.1566312458568149  8.8790546724043153
 13.2529339108435984  6.2437524658568080 10.2280273626133145
 12.3839843842795947  2.0695100158568103  9.0351467230673155
 10.0474951595935948  8.3308736858568082  7.9983581202143146
  9.1785456330285982 10.4179949158568128  6.8054774806683147
  9.4489049858425993 10.4179949158568128  9.3473308104233155
 10.0474951595935948  2.0695100158568103  7.9983581202143146
  9.1785456330285982  4.1566312458568149  6.8054774806683147
  9.4489049858425993  4.1566312458568149  9.3473308104233155
 12.6543437392875955  8.3308736858568082 11.5770000388523151
 11.7853942127225970 10.4179949158568128 10.3841193993063143
 12.0557535655365999 10.4179949158568128 12.9259727290613178
 10.3178545124075960  8.3308736858568082 10.5402114499693180
 10.9164446861585951  6.2437524658568080  9.1912387597603153
 12.6543437392875955  2.0695100158568103 11.5770000388523151
 11.7853942127225970  4.1566312458568149 10.3841193993063143
 11.1868040389715979  6.2437524658568080 11.7330920895153170
 12.0557535655365999  4.1566312458568149 12.9259727290613178
 10.3178545124075960  2.0695100158568103 10.5402114499693180
 10.5882138674155950  8.3308736858568082 13.0820647657533158
 10.5882138674155950  2.0695100158568103 13.0820647657533158
 14.4308738508185943  6.2437524658568080 12.9436523469013203
  8.3192451150175959 10.4179949158568128 12.5875183959243166
  8.3192451150175959  4.1566312458568149 12.5875183959243166
  4.5764342049355982  8.3308736858568082 11.4750306604103152
  5.7755177243555966 10.4179949158568128 12.3354004723963175
  7.1201615955975965  8.3308736858568082 11.7271485839373160
  6.9746012437745968  6.2437524658568080 13.1957702843833165
  4.5764342049355982  2.0695100158568103 11.4750306604103152
  5.7755177243555966  4.1566312458568149 12.3354004723963175
  5.9210780761785982  6.2437524658568080 10.8667787719513154
  7.1201615955975965  2.0695100158568103 11.7271485839373160
  9.6638889885545947  8.3308736858568082 11.9792665214193157
  9.6638889885545947  2.0695100158568103 11.9792665214193157
  6.0666384302955967  8.3308736858568082  9.3981570854613157
  7.2657219497155978 10.4179949158568128 10.2585268974473163
  8.6103658209575986  8.3308736858568082  9.6502750089883165
  8.4648054691345962  6.2437524658568080 11.1188967094333186
  6.0666384302955967  2.0695100158568103  9.3981570854613157
  7.2657219497155978  4.1566312458568149 10.2585268974473163
  7.4112823015375984  6.2437524658568080  8.7899051970023159
  8.6103658209575986  2.0695100158568103  9.6502750089883165
  7.5568426556555988  8.3308736858568082  7.3212835105113152
  8.7559261750755972 10.4179949158568128  8.1816533224973167
  7.5568426556555988  2.0695100158568103  7.3212835105113152
  8.7559261750755972  4.1566312458568149  8.1816533224973167
  8.9014865268975960  6.2437524658568080  6.7130316220523154
  6.5162441280235983 16.6793585858568107  6.0250172692653168
 11.2446755049005951 14.5922373558568097  5.3004127537663166
  9.7771358045855941 16.6793585858568107  5.4565048044293158
  4.7204736111595986 16.6793585858568107  0.0719353119503152
 13.2529339108435984 12.5051161358568095  0.2280273626133154
 12.6543437392875955 16.6793585858568107  1.5770000388523155
 11.7853942127225970 14.5922373558568097  0.3841193993063152
 11.1868040389715979 12.5051161358568095  1.7330920895153170
 12.0557535655365999 14.5922373558568097  2.9259727290613178
 10.3178545124075960 16.6793585858568107  0.5402114499693154
 10.5882138674155950 16.6793585858568107  3.0820647657533158
 11.4571633939805970 12.5051161358568095  4.2749454052993174
 12.9406696254585949 12.5051161358568095  5.0205259218513163
 11.7415861060385947 14.5922373558568097  4.1601561098643165
  8.0281244090765984 12.5051161358568095  5.5247617828593159
  6.8290408896575965 14.5922373558568097  4.6643919708733170
  5.4843970184155966 12.5051161358568095  5.2726438593323151
 13.0862299795755952 16.6793585858568107  3.5519042353603147
 14.2853134989955954 14.5922373558568097  4.4122740473463162
 14.4308738508185943 12.5051161358568095  2.9436523469013167
  5.6299573702375962 16.6793585858568107  3.8040221588873151
  8.1736847631945988 16.6793585858568107  4.0561400963693162
  9.3727682826145990 14.5922373558568097  4.9165099083553150
  9.5183286344365943 12.5051161358568095  3.4478882079103164
  8.3192451150175959 14.5922373558568097  2.5875183959243166
  6.9746012437745968 12.5051161358568095  3.1957702843833147
  4.5764342049355982 16.6793585858568107  1.4750306604103161
  5.7755177243555966 14.5922373558568097  2.3354004723963149
  5.9210780761785982 12.5051161358568095  0.8667787719513156
  7.1201615955975965 16.6793585858568107  1.7271485839373164
  9.6638889885545947 16.6793585858568107  1.9792665214193150
  8.4648054691345962 12.5051161358568095  1.1188967094333160
  7.2657219497155978 14.5922373558568097  0.2585268974473154
 13.5811647295865949 14.5922373558568097  6.3372013566203149
  5.0487044299025960 12.5051161358568095  6.1811093059573148
  5.9176539564665962 14.5922373558568097  7.3739899455033155
  5.3190637827155989 12.5051161358568095  8.7229626357123156
 14.4501142561515952 16.6793585858568107  7.5300819961663157
 12.1136250314655953 16.6793585858568107  6.4932933933123165
 10.6460853311495995 12.5051161358568095  6.6493854439753148
 11.5150348577145998 14.5922373558568097  7.8422660835213156
 12.9825745580305956 12.5051161358568095  7.6861740328583146
  4.7204736111595986 16.6793585858568107 10.0719353119503179
 13.8515240845945939 14.5922373558568097  8.8790546724043153
 13.2529339108435984 12.5051161358568095 10.2280273626133145
 12.3839843842795947 16.6793585858568107  9.0351467230673155
 10.0474951595935948 16.6793585858568107  7.9983581202143146
  9.1785456330285982 14.5922373558568097  6.8054774806683147
  9.4489049858425993 14.5922373558568097  9.3473308104233155
 10.9164446861585951 12.5051161358568095  9.1912387597603153
 12.6543437392875955 16.6793585858568107 11.5770000388523151
 11.7853942127225970 14.5922373558568097 10.3841193993063143
 11.1868040389715979 12.5051161358568095 11.7330920895153170
 12.0557535655365999 14.5922373558568097 12.9259727290613178
 10.3178545124075960 16.6793585858568107 10.5402114499693180
 10.5882138674155950 16.6793585858568107 13.0820647657533158
 14.4308738508185943 12.5051161358568095 12.9436523469013203
  8.3192451150175959 14.5922373558568097 12.5875183959243166
  6.9746012437745968 12.5051161358568095 13.1957702843833165
  4.5764342049355982 16.6793585858568107 11.4750306604103152
  5.7755177243555966 14.5922373558568097 12.3354004723963175
  5.9210780761785982 12.5051161358568095 10.8667787719513154
  7.1201615955975965 16.6793585858568107 11.7271485839373160
  9.6638889885545947 16.6793585858568107 11.9792665214193157
  8.4648054691345962 12.5051161358568095 11.1188967094333186
  6.0666384302955967 16.6793585858568107  9.3981570854613157
  7.2657219497155978 14.5922373558568097 10.2585268974473163
  7.4112823015375984 12.5051161358568095  8.7899051970023159
  8.6103658209575986 16.6793585858568107  9.6502750089883165
  7.5568426556555988 16.6793585858568107  7.3212835105113152
  8.7559261750755972 14.5922373558568097  8.1816533224973167
  8.9014865268975960 12.5051161358568095  6.7130316220523154
 14.7204736111595942  8.3308736858568082  0.0719353119503152
 14.7204736111595942  2.0695100158568103  0.0719353119503152
 15.6299573702375945  8.3308736858568082  3.8040221588873151
 15.4843970184155939  6.2437524658568080  5.2726438593323151
 15.6299573702375945  2.0695100158568103  3.8040221588873151
 14.5764342049355982  8.3308736858568082  1.4750306604103161
 14.5764342049355982  2.0695100158568103  1.4750306604103161
 15.0487044299025943  6.2437524658568080  6.1811093059573148
 15.3190637827155989  6.2437524658568080  8.7229626357123156
 14.7204736111595942  8.3308736858568082 10.0719353119503179
 14.7204736111595942  2.0695100158568103 10.0719353119503179
 14.5764342049355982  8.3308736858568082 11.4750306604103152
 14.5764342049355982  2.0695100158568103 11.4750306604103152
 14.7204736111595942 16.6793585858568107  0.0719353119503152
 15.4843970184155939 12.5051161358568095  5.2726438593323151
 15.6299573702375945 16.6793585858568107  3.8040221588873151
 14.5764342049355982 16.6793585858568107  1.4750306604103161
 15.0487044299025943 12.5051161358568095  6.1811093059573148
 15.3190637827155989 12.5051161358568095  8.7229626357123156
 14.7204736111595942 16.6793585858568107 10.0719353119503179
 14.5764342049355982 16.6793585858568107 11.4750306604103152
