Cu
 1.0000000000000000
    17.3236264999999996    0.0000000000000000    0.0000000000000000
     0.0000000000000000   16.1765408886351629    0.0000000000000000
     0.0000000000000000    0.0000000000000000   16.3987119999999997
 Cu 
 364
Direct
  0.9283773954604718  0.0638220773789101  0.0982019807409265
  0.7271897284324388  0.8096922904895940  0.8393327475962746
  0.5803267145017242  0.7514041801642007  0.6765370353476542
  0.6505083245704937  0.8292947507549264  0.5680295501256440
  0.5001702876704252  0.7749011689590696  0.4137609100031759
  0.5791375870404504  0.8638633277980488  0.3005465307275352
  0.5106761710661449  0.7861582109468248  0.1854570041842311
  0.5619183287055978  0.8729011067030997  0.0678855754037268
  0.5820238187425714  0.6032019151370531  0.9106657888741506
  0.6581626110445179  0.7335820757980847  0.9466375164098254
  0.6571639748755841  0.6822793896605900  0.7937133111429727
  0.5700517296421743  0.6950324251469921  0.5318595143325892
  0.5123559579167792  0.6218214705830265  0.4106576175006915
  0.5760031394119473  0.7060669226473449  0.2917476689632698
  0.5012093310831887  0.6291530750846616  0.1828683862488713
  0.7723938893510550  0.7275548292642785  0.0447075355674275
  0.5111610579921014  0.4747504733668395  0.8753489908231817
  0.5873806647817075  0.5530614057671026  0.7597240563771107
  0.5106242188955067  0.4603530813901886  0.6446168455181115
  0.5043610961019046  0.6125673289818904  0.6401762528666886
  0.4987271718193648  0.9430829835218705  0.1829031450762718
  0.6565347763645218  0.9920551343329602  0.3447701258489081
  0.5771691770196038  0.9020729799267214  0.4496637296880389
  0.6629422107432298  0.1588980278301294  0.8672623801186338
  0.7284365805277554  0.2308046244262662  0.7571903208008044
  0.6606389978449376  0.1397592019135511  0.6417495471595575
  0.7345842540532725  0.2227992046711082  0.5316375456804169
  0.5739077351962073  0.1733881466765312  0.3778349177667124
  0.6530020287611260  0.2542954314298184  0.2610452577007268
  0.6847736673380715  0.1957785948257064  0.1223807089239691
  0.7270973690179712  0.0878321548530672  0.9887261877640148
  0.6546702706849519  0.0103001281587113  0.8707992432576412
  0.7290830964290306  0.0748318477139961  0.7477206746481065
  0.7263758110924408  0.0205866289097405  0.6063034706628180
  0.6537697663938902  0.0899216003181200  0.4887053324675742
  0.6480781174773077  0.0281593232727277  0.3487308027606071
  0.7229123330498958  0.1178014791565465  0.2366543177293436
  0.6130854443207955  0.0678835142739979  0.0807390238940717
  0.5912366703357409  0.8671211318219626  0.9846673324100087
  0.6623995991832312  0.9415869900232231  0.8666470878932443
  0.6546991330019731  0.8806778001795388  0.7078114427523333
  0.7297065224766880  0.9673094236921128  0.6061052843662357
  0.5848234634936285  0.5357152993323741  0.5300871800175527
  0.5044765453699896  0.4742373846875513  0.4063109346636492
  0.5867745561242620  0.5431581760777101  0.2927831161374138
  0.5225443558252659  0.4746762918710388  0.1684111532661834
  0.4962623299457539  0.0414378110210514  0.3327143009768084
  0.5786873348949197  0.1159407599702124  0.2348224665449335
  0.4259883604625163  0.0804140052729980  0.0782559020488926
  0.4458629519633204  0.8644320525991874  0.9844514617977316
  0.5206278979750577  0.9493451381257118  0.8662336407883742
  0.5104683623835924  0.8790952616024575  0.7123733863976635
  0.5776829262625816  0.9719334035970224  0.6013451544243231
  0.4328633643769683  0.9087802235053672  0.4522047829122190
  0.5022368295691437  0.9931864021439205  0.3449530670457533
  0.3568862010503402  0.9374390080497009  0.1860125356186510
  0.5131929651103943  0.7380329655461263  0.9387844606332497
  0.5882753966093650  0.8151013578917277  0.8312058898284207
  0.4361709859075986  0.7439922123754482  0.6757851470286204
  0.5099142058967853  0.8323732828306554  0.5696058324580614
  0.3541500533967299  0.7769411600935887  0.4088214976883551
  0.4354609729088771  0.8639004185459490  0.3025247348694214
  0.3593337255337387  0.7889214716654005  0.1867845474693378
  0.4160193161633912  0.8655571386188312  0.0689691970930400
  0.4339370425701571  0.6053222695586894  0.9037609783012227
  0.5074724538767907  0.0860703443278008  0.4757920012254621
  0.7319346933507255  0.2401144021492530  0.9885231230355167
  0.5800380913315120  0.0208648095189931  0.6028044153711585
  0.5094177740440203  0.0087237713729466  0.8769576537474407
  0.5655261183332488  0.5720765958573463  0.0483047693013939
  0.5760550915825856  0.3961366331920567  0.9894329505878267
  0.5173837735418737  0.3216213206602625  0.8728250121107073
  0.5790336826991742  0.3970762654721988  0.7639713411638670
  0.5106819435295494  0.3112544566221159  0.6433655277316902
  0.5870747242212827  0.3890646639257242  0.5200137852289863
  0.5097814392384877  0.3127380865381296  0.4044888403430709
  0.5716391570783406  0.3905112030938378  0.2893499196766185
  0.4542965209969172  0.3383863387112185  0.1528282221189079
  0.4831934727985506  0.4412389826388771  0.0306143555664616
  0.5841538577387363  0.2401144021492530  0.9860040227549579
  0.5101855116767846  0.1624401942546123  0.8719273806381868
  0.5872421256600056  0.2349896971476884  0.7573470404261018
  0.5145090867665615  0.1600972953455738  0.6443485317627384
  0.5869361850995808  0.2274170027847013  0.5311053697387941
  0.4320898542808000  0.1783026707733270  0.3718021268987467
  0.5097987566287002  0.2494489070375066  0.2578297612641773
  0.5241721905052620  0.2049647367223588  0.1214519774479849
  0.5856373808336264  0.0901935991360559  0.9928643176366535
  0.5781389508715167  0.0763834773344938  0.7598118681515963
  0.5078707538516836  0.6764437786576023  0.7894727342001007
  0.6224252901088584  0.4348531922087009  0.0168035148126267
  0.7183924942043747  0.3923471951149048  0.2704520940425078
  0.8753342292388954  0.5443388982192046  0.3003873718862798
  0.8229953035526367  0.4753130163766614  0.1674244904111981
  0.8611339692644613  0.5828081855831796  0.0501506459775621
  0.8685746745925288  0.3969340842719143  0.9924600175916255
  0.7977292312322717  0.3141228077930759  0.8681191547238589
  0.8727308482435820  0.3938431886135521  0.7486469669081328
  0.8045811452931059  0.3027915843095204  0.6479067380413780
  0.8782493232580373  0.3795199781327020  0.5207503125855251
  0.7930708532650482  0.4605879894602240  0.4058310189239253
  0.8100303507467104  0.2999603238864607  0.4121546862948749
  0.7715626546208446  0.3367667093862368  0.1378154577018000
  0.7720071343029712  0.4440331523140366  0.0212636211917131
  0.8757152118235756  0.2355027858269766  0.9859686541235678
  0.8138228592032967  0.1655125445390244  0.8692796117158470
  0.8727885728776248  0.2374747772570117  0.7532802576202327
  0.8063590640216123  0.1529387810008073  0.6405512823202213
  0.8785437188916536  0.2246166513182251  0.5241853811445679
  0.7309360571817921  0.1738517810252853  0.3866715873783259
  0.8652035559644514  0.3877603059578953  0.2896987275586034
  0.8796520318652679  0.5362963877161463  0.5173154696539581
  0.8040038989526822  0.4657003308791550  0.6372498035211546
  0.8800907390839908  0.5449385319769267  0.7629926057607451
  0.9507572360787163  0.8780134481220304  0.7216765560612323
  0.8820822389584538  0.9097878554899933  0.4482800844358996
  0.9492910303740386  0.9908311396522486  0.3320801048277450
  0.7964823791369551  0.9373400993886336  0.1869949298457098
  0.9560044053131722  0.7379278750937420  0.9574218999638509
  0.8750340611418747  0.7552368907805700  0.6818081810327543
  0.9472187160119160  0.8353714516192665  0.5709778304540015
  0.8059492191199115  0.7842542192212734  0.4163483083305567
  0.8703872281014602  0.8684749441203249  0.2967974558001872
  0.8045465105126809  0.7835556768024836  0.1860113160106721
  0.8578552100508515  0.8662185902897207  0.0685350166525273
  0.8714262715142237  0.6006550171145627  0.9136087029274007
  0.9483789811561686  0.6703238052540452  0.8076528205385887
  0.8055566916084231  0.6222232870186135  0.6397274371304283
  0.8838832475405771  0.6904826267378831  0.5285940749493010
  0.7976022370373782  0.6267792672190394  0.4115424430894329
  0.8661733298163642  0.7125330763646386  0.2976030068702957
  0.7867211435203826  0.6255243635817445  0.1790729662183225
  0.8037730004165122  0.4690817707294032  0.8682740449371878
  0.8039346293918307  0.2514888981720255  0.2592695084833492
  0.8498603482359772  0.2107447116034959  0.1216867519839363
  0.8792883666708009  0.0867874321205409  0.9871852130825886
  0.7967883196973802  0.0129582984249027  0.8713175766487027
  0.6540468446372936  0.6248876390761219  0.6445003729561199
  0.7189986028618204  0.7039342046430752  0.5238846319149943
  0.6517263143487885  0.6163011309371919  0.4120363843209149
  0.7218097925396859  0.7014182155771683  0.2977304559040979
  0.6431137989496600  0.6253698187988264  0.1805621075606426
  0.9154932571422043  0.7277526465864136  0.0610405256217683
  0.6544740069292077  0.4617439844364516  0.8758264673469478
  0.7251289589971250  0.5484065169056090  0.7638176705585170
  0.6620532513789766  0.4644763361984438  0.6391139743170073
  0.7312419977422164  0.5440174450707349  0.5220864724010033
  0.6491922029143264  0.4654159684785856  0.4027515087770308
  0.7305088948898780  0.5431334489124432  0.2966620793145218
  0.6811427878568036  0.4784410027829238  0.1565144872353390
  0.7117945685333265  0.5859794445286592  0.0463851063424981
  0.6578682154109016  0.3054064820364946  0.8745336828892415
  0.7314440339613650  0.3823017842252278  0.7552871225496247
  0.6506699535458125  0.3041330330252495  0.6382181722564553
  0.7340012352494445  0.3779374395556205  0.5258341630732951
  0.6586301805802613  0.3036261261372781  0.4151012591720619
  0.8063244292411873  0.6690503562428000  0.7899349656241296
  0.6037282811425196  0.3488830203670165  0.1465441920072747
  0.7300586427443470  0.5944175896759878  0.9120347988305424
  0.6558536256828212  0.7825542266091744  0.1842855707204322
  0.8750051988248533  0.0796783721063078  0.7591288876833743
  0.8640490632836033  0.0106401266811310  0.6158310481945168
  0.8034555149292791  0.0897732373265185  0.5009145230430292
  0.7884297926880381  0.0377101908570668  0.3521042384304329
  0.8721651468299665  0.1079106130497876  0.2401039788978549
  0.7757938702961530  0.0744918491915762  0.1032895754251919
  0.7314671238149819  0.8684378533724246  0.9895146643224174
  0.8117389999143660  0.9352073813843637  0.8689777587410524
  0.8017757280786448  0.8794105329596104  0.7288155313661220
  0.8750975582393218  0.9556382016861373  0.6049905626734587
  0.7274437168222256  0.9042242433049418  0.4663846770404895
  0.7992820238880125  0.9942496702503972  0.3420314961321352
  0.6423749236339171  0.9414942631534723  0.1928838069721573
  0.8085179653347989  0.7365060630908952  0.9438135141345247
  0.8818455679588802  0.7993254264514471  0.8325230664457063
  0.7302375891098787  0.7468358363811414  0.6846773088032768
  0.8067169567526756  0.8235642302043235  0.5712082144012286
  0.6488227652564550  0.7740728089226288  0.4103191762865279
  0.7268433806281843  0.8587324410051678  0.3090484179489218
  0.7079558803695060  0.8613906112713592  0.0634870592275783
  0.3532784114226892  0.6262290877918509  0.6441070493829028
  0.4303119355522937  0.7052509261935375  0.5203434818539407
  0.3645866672315986  0.6275705365075801  0.4153878670471193
  0.3332364184831623  0.7212555839125364  0.0637907416143414
  0.0712762567352742  0.4832875271752356  0.8851973252533492
  0.1436167681172300  0.5459894365007700  0.7567640678121550
  0.0714782929544228  0.4656879672965215  0.6388962742927616
  0.1392412408568152  0.5404814604375686  0.5291896705058300
  0.0691808525195347  0.4662443285150267  0.4196095400663175
  0.1418446218521280  0.5574690229759268  0.3055414352053991
  0.0663581179148604  0.4822057136948089  0.1839074922469521
  0.0559503663970130  0.6349145045918485  0.1792809093787366
  0.1161340698496360  0.5724413215450330  0.0501768675491099
  0.0744972913148413  0.3219860463479491  0.8727963513232015
  0.1560852890703919  0.3862457670852979  0.7559414422303411
  0.0717322813442097  0.3058515710112988  0.6317707146756404
  0.1471206534036049  0.3871606722001731  0.5263401174433699
  0.0652613498680546  0.3109330034736461  0.4178783065401722
  0.1382599220780939  0.4019784259863612  0.3018972465642423
  0.0476149292412879  0.4329801094397334  0.0339377873091496
  0.1450483390414822  0.2340067923283294  0.9905842605199727
  0.1357604454240572  0.3861839491721308  0.9922490254112640
  0.1320776137721510  0.7132130734094781  0.3021789760073840
  0.0561524026161612  0.6235647357343429  0.4123150647441092
  0.1378904844202225  0.7013873066205848  0.5199151067474079
  0.2081529089766512  0.0095459496180710  0.2035883062035604
  0.1445461347253129  0.8729196520770496  0.9831269675325722
  0.2192879908834333  0.9511007668596618  0.8720414139842202
  0.2189127807621574  0.8837748776292176  0.7243481073391618
  0.2938104934321922  0.9612389046190897  0.6076767492471360
  0.1334110528185308  0.9177129119580338  0.4548373067348216
  0.2134693477719578  0.9940271257629952  0.3525274423991348
  0.0593503473421114  0.9486960500374557  0.1969207093825417
  0.2236981529242739  0.7374580589536708  0.9528709327903314
  0.2856655475688076  0.8078253895119432  0.8419945420103725
  0.1457410346499912  0.7563372496349466  0.6838339498858204
  0.2128170594072786  0.8392350711922192  0.5622459861481804
  0.0673682990106030  0.7927912730296697  0.4211834441631758
  0.1398300321240477  0.8651367768092941  0.3070177706639399
  0.0647014209178434  0.7956039880787794  0.1926441540042901
  0.1192569725513306  0.8646422335039560  0.0769472626874598
  0.1465722693802017  0.6005004723316446  0.9203616723069471
  0.2188261938110938  0.6827677511746112  0.7961336231772350
  0.0714898378812313  0.6257963623996802  0.6387157723118744
  0.0821284879352486  0.1664089042799493  0.8792675912596063
  0.1396568582219204  0.2313671674360881  0.7449680194395756
  0.0682572583748561  0.1529635081660741  0.6444089023576973
  0.1415848609989371  0.2225086604792222  0.5254509012659043
  0.9490081796672313  0.6210549284597527  0.6483488459337539
  0.9519636809302027  0.6125487836079402  0.4063121542716281
  0.9328279647451414  0.6289861667191099  0.1820671038066892
  0.9518309142719048  0.4724446652057012  0.8774095185036485
  0.9490485869110606  0.4548265599530371  0.6335586599728076
  0.9591850326489091  0.4548574689096206  0.3986109396884341
  0.9451059944059640  0.3216522296168461  0.8753611869029715
  0.9582845283578471  0.3042999413908011  0.6356667523644540
  0.9470686319634056  0.3009988648276703  0.4073140622263505
  0.9226164769830386  0.3404139662631042  0.1415084306621154
  0.9117815631732767  0.4427287943462077  0.0355531580772929
  0.9592312123561428  0.1676638079172444  0.8643182464574047
  0.9411807192910790  0.1466457174403819  0.6362808249818644
  0.8755939900920866  0.1694379820251443  0.3762000332709057
  0.9336591994753527  0.2421358479098217  0.2524287273293171
  0.8464488223640705  0.3039352157031143  0.0012059483696036
  0.9546478764131746  0.0131252067904543  0.8705065373426889
  0.9498682767144631  0.0875848832003982  0.4919161334134046
  0.9301899489694032  0.0193317252724455  0.3523969443453852
  0.9503877984208449  0.7815156856679645  0.1962578524459726
  0.1228820795691945  0.0875416106611812  0.0882048541373249
  0.9441593104076681  0.7754884391341585  0.4105551704304582
  0.0407687876438577  0.7243897521101158  0.0607136706834049
  0.0606318342178529  0.2730633498673932  0.2683238781192084
  0.0551191316668021  0.2186388591149528  0.1278829703210838
  0.1397319002461756  0.0835976278011111  0.9955053787151088
  0.0717611436612306  0.0125688455719491  0.8781979950620512
  0.1466819461848823  0.0739231243904375  0.7522673731936996
  0.1406901291712795  0.0246604293874617  0.6063004216428706
  0.0784802910637678  0.0944157626053784  0.4860154870699602
  0.0589866821476440  0.0449057959497338  0.3482033223097034
  0.1400378408066003  0.1373544850913453  0.2414309123789722
  0.0501779029927713  0.0060470557328051  0.2095046245095347
  0.0740759014863317  0.9526029421496256  0.8613375245568068
  0.0719343175633579  0.8926024756294999  0.7108250940683635
  0.1396049060512822  0.9762173849795126  0.6065510510825484
  0.0585941546361557  0.9919500438805755  0.3453640749346656
  0.0723210726114422  0.7341817095558071  0.9436445984294377
  0.1433974145078689  0.8196758834661034  0.8373691787501361
  0.0672932569863478  0.8335416413895160  0.5697818218894265
  0.0782840273080236  0.6766477777710541  0.7929784973356445
  0.1888151565724418  0.7119952605200836  0.0576695291679005
  0.9413654381200152  0.9316961239164641  0.1836184451559366
  0.2851575707892343  0.1316177827494251  0.2416815418186502
  0.2104734392651562  0.0295873170668912  0.3507498637697887
  0.2200961357600273  0.0884812429413233  0.5009658075585449
  0.3666012569596789  0.1599798413105561  0.6381218232261168
  0.4408755435820558  0.2315711665495400  0.5203301454406908
  0.2807820435288191  0.1725412412661400  0.3845037341957100
  0.3553218634677909  0.2670299215422703  0.2641375737314003
  0.3632705455754317  0.2087974473387277  0.1221947187071765
  0.4356514642012168  0.0880794265057361  0.9859851188312839
  0.3666128018864874  0.0097252215662560  0.8728207434827809
  0.4257920967067721  0.0771438376664508  0.7526930163783595
  0.4413488855812033  0.0156968319782116  0.6066217883453286
  0.3629241977711772  0.0906572334848102  0.4877575751071182
  0.3574807647809771  0.0245491571437607  0.3518377540870283
  0.4278644110688952  0.1239832704732706  0.2348883253757978
  0.2695084225003351  0.0921284998181905  0.0947309764327832
  0.2936315470666609  0.8765669089539172  0.9793333769139919
  0.3714789885362630  0.9459389711101970  0.8659586191891169
  0.3672189105439328  0.8866865013393948  0.7163328437013834
  0.4323669325242034  0.9695039596095499  0.6017561623132354
  0.2803202464564796  0.9139791100027324  0.4554745519038325
  0.3563089547099161  0.9874064272627834  0.3371652602960525
  0.4345431512276026  0.2333206134921730  0.7559097324228879
  0.2045451193490002  0.9454382460135424  0.1945375953916381
  0.3604074037269276  0.1599365687713391  0.8706632569679863
  0.3327803938742273  0.4313666619060684  0.0282647807949795
  0.4318878180616514  0.7001571301485566  0.2975584911790634
  0.3532033693984341  0.6303090700608889  0.1880980652626865
  0.6288673592679918  0.7142887050985881  0.0502671185395536
  0.3620929630409663  0.4678392306747416  0.8722353316528761
  0.4427631391152427  0.5417487276574972  0.7636078979861346
  0.3687139785656314  0.4748926545671240  0.6425721727413714
  0.4370484003450433  0.5419465449796323  0.5207754974902907
  0.3672362279341457  0.4671468700472686  0.4136096786137838
  0.4377006887097230  0.5415818192919456  0.2902237687935492
  0.3635187615018137  0.4759002865517502  0.1694764808358120
  0.4172199885514735  0.5748274929932887  0.0552400700737960
  0.4328287295965429  0.3906039299635887  0.9884487269487994
  0.3626471195277735  0.3150129857426841  0.8715621080484858
  0.4376660539292971  0.3893922988655107  0.7600759132790430
  0.3493127290639753  0.3188827871069534  0.6402354038536686
  0.4370022206378095  0.3821286940683597  0.5248034723702691
  0.3606844819703314  0.3121817253196243  0.4049766835346581
  0.4268195951927272  0.3914199264173961  0.2970523538677916
  0.2919286703624097  0.3400554223667342  0.1427292582490625
  0.4382202104161043  0.2420678482053377  0.9987940516303964
  0.9564315676050855  0.9496975002307654  0.8716169904075394
  0.3633802223801122  0.7344846173303264  0.9508079658939069
  0.2925347790198551  0.7563125224696797  0.6792091964295733
  0.2948553093083602  0.3932806456037302  0.7603460564463843
  0.2114028058732392  0.3112915473700162  0.6408055705838361
  0.2896947270249683  0.3915373804524138  0.5133698792929592
  0.2146584752332317  0.3142649889933604  0.4119857705897878
  0.2811745710403075  0.3995922545381057  0.2932313220696845
  0.1371285192508628  0.3498288344384753  0.1509433179874126
  0.1927635215409433  0.4299324863205884  0.0231399880673555
  0.2901853864143287  0.2420493028313876  0.9873901072230553
  0.2147161998672740  0.1601343860934743  0.8688295763716077
  0.2962002932815484  0.2376849581617803  0.7576476737929174
  0.2225090254630000  0.1635343713176726  0.6385303918990711
  0.2943531049921909  0.2312558951923871  0.5264150013732787
  0.1455447708942467  0.1876062667049968  0.3769122843306230
  0.2060632772243157  0.2675986463434090  0.2606494949115516
  0.2004813051124141  0.2130257925993671  0.1228557462317772
  0.2855558707641266  0.0800307342113612  0.9805346907732756
  0.2131691796749371  0.0057503297496023  0.8669214996885122
  0.2838125868160461  0.0873005207998289  0.7551493068480013
  0.2902719733653923  0.0228182555750780  0.6131235184812075
  0.2176890185204582  0.3088682851738602  0.8731689415607763
  0.4386646900982309  0.8149159041522259  0.8370539100875728
  0.2953286513075081  0.3983991688139778  0.9800797769971203
  0.2158071954506758  0.4743239297659854  0.1666951648397752
  0.3655218063030856  0.8319714663950681  0.5602617449467983
  0.2192244937859866  0.7839760386120207  0.4175593790536721
  0.2902142487313497  0.8611989757405405  0.3001574757822443
  0.2120262319208975  0.7831105878276796  0.1878699985706195
  0.2715634194722452  0.8640178725809667  0.0717169738696551
  0.2915130529973041  0.6010197428022492  0.9038768410592247
  0.3637842948184090  0.6806844875008751  0.7920278129160389
  0.2071485003443130  0.6223592864275815  0.6418032099106321
  0.2798353595305232  0.7089847281488387  0.5286018194599673
  0.2019706006707087  0.6298577992947683  0.4152610278173066
  0.2806030971632874  0.7061163769778788  0.3034595643853005
  0.2060344149072947  0.6291530750846616  0.1892304712711584
  0.4847231756006750  0.7138312525411508  0.0535472541989883
  0.2179949590808833  0.4659908750710412  0.8782419009492941
  0.2887999951973107  0.5486599703495948  0.7564329442458653
  0.2244716630204421  0.4648101529295467  0.6412775588716968
  0.2856251403249778  0.5486970610974951  0.5242023214993958
  0.2189993677132211  0.4773530075111803  0.4093282448036163
  0.2947629498938921  0.5465767066758588  0.3018783426405683
  0.2713498383262882  0.5758103978126478  0.0609838138507463
  0.8775104479422945  0.8783596284357671  0.9861753776760029
