Cu
 1.0000000000000000
    17.3236264999999996    0.0000000000000000    0.0000000000000000
     0.0000000000000000   16.1765408886351629    0.0000000000000000
     0.0000000000000000    0.0000000000000000   16.3987119999999997
 Cu 
 364
Direct
  0.1571052429466775  0.1233465459676482  0.0515044108342167
  0.8238605554096886  0.2774771488675346  0.2975603205910315
  0.8952717001835614  0.3488212024538494  0.1762825031624434
  0.7484952732039103  0.2834611228621235  0.0347713893627743
  0.5408528375972549  0.1763430429259255  0.9462941967637459
  0.6119822861570007  0.1475729861378906  0.8121251229974641
  0.8220999540713949  0.1389061147118432  0.6717055583389714
  0.7478372123758267  0.1139378595835938  0.5411770143899106
  0.9008998520026970  0.2321398913506788  0.4202650793550121
  0.8215342526577792  0.3635956837008205  0.4432790819181407
  0.7497940774698647  0.1349188593125561  0.2806016716434803
  0.6191978654123027  0.0399603628963545  0.9151332129011103
  0.6865336510227810  0.0207226283187086  0.7669264512969067
  0.8261349059909598  0.1047949902261586  0.3997695672684539
  0.8198602382705491  0.0486581432789857  0.1832586608021411
  0.8978404463984490  0.1232723644718477  0.0527545090126589
  0.6188053379008143  0.9621229007773812  0.9083095062587841
  0.6871801669240560  0.9310099450803082  0.7652738824854046
  0.4586287143745567  0.9046693322797458  0.6364527897068988
  0.8126100242348218  0.2111094372911829  0.1571651480921180
  0.8321209505411583  0.2485154565486815  0.5533548000599068
  0.7583546406983549  0.2628324852382147  0.6918595801914194
  0.5394368523241944  0.2908236363203424  0.8276934188489923
  0.7580833349183556  0.7601699602513159  0.4965942447187309
  0.6032716388800001  0.6944327913892702  0.3506986402346715
  0.6833126164432142  0.7546248934402142  0.2170539978993470
  0.6771187632104629  0.6827306604267109  0.0862083558757536
  0.5332025918476134  0.5548603070402693  0.8716419923711076
  0.7546718090464488  0.5315302266109521  0.7326188788485337
  0.6796586471083292  0.5217382691652608  0.5971448245447569
  0.6786888732564167  0.6339625087290732  0.4772756543318761
  0.6748155503121706  0.5591195612574925  0.3326728343055233
  0.7516528106860304  0.6223592864275818  0.2021808785958311
  0.7551336061187881  0.5543657637349314  0.0671702753240621
  0.6026482128323419  0.4230768797503414  0.8538235197983839
  0.6792083949627984  0.3948137298502780  0.7211667599260234
  0.7485241355209314  0.3820483307812425  0.5871684312767977
  0.7512487382477335  0.4890365930997894  0.4638721626430171
  0.7582738262106956  0.4197448942306271  0.3238489705776891
  0.6853445235615072  0.4835718895758051  0.1966804466106844
  0.8226310207045852  0.4210616157810894  0.0506019009297798
  0.6035660345136163  0.3102406428461733  0.9684239835421219
  0.6017707983948973  0.9573505578808702  0.3713892895978659
  0.5190208037560726  0.9634643494931106  0.1167351435893256
  0.5330421173649755  0.8318416487774171  0.8936010340324285
  0.6079473342374359  0.7971432541166440  0.7556755676909259
  0.6082070950906266  0.4146449163943295  0.3204279701966835
  0.5332285679329326  0.4783297305392228  0.1921678970885025
  0.6768301400402509  0.4192874416731894  0.0515349010336910
  0.4568051931851567  0.3122559068154253  0.9632040613921384
  0.3845726268688602  0.2927090826719433  0.8298094386925020
  0.6079588791642443  0.2641121160407767  0.7088121310990764
  0.6818464107385368  0.2466609191536641  0.5603858400586582
  0.6822966628840677  0.3600040629458037  0.4505967297919488
  0.6788216399147142  0.2752207950369302  0.3082257923671072
  0.7473003732792323  0.3575004374625302  0.1793986015487063
  0.5954268611136357  0.2845614817165006  0.0315760164578775
  0.3862570316902180  0.1773012205800178  0.9343298424900685
  0.4620408174928038  0.1535816872977467  0.8111921228935538
  0.6767608704793999  0.1403341085060067  0.6731629898738389
  0.6100658283067925  0.1157985787699279  0.5363473667931969
  0.7502905093226294  0.2258839185381537  0.4247532367176147
  0.6016784389804294  0.1409337422637288  0.2811200050345417
  0.6731069011445150  0.2133905182870541  0.1542015007032259
  0.4744741264191999  0.0413821748992012  0.9161881738029179
  0.6097194805025380  0.4928322129682580  0.4609633976131778
  0.7615814477413260  0.6441995551495685  0.6202198075068335
  0.6097483428195591  0.3835010517406726  0.5874977254311188
  0.4640109592526714  0.4194914407866413  0.8477071857838586
  0.6883519769951170  0.7729662682769353  0.6236286118080490
  0.6801608514244982  0.8887944921783979  0.5022410296613534
  0.5356022048847566  0.8208751509815483  0.3579918959489011
  0.5992251420336268  0.8890664909963336  0.2351956665864975
  0.4598518993699154  0.8120846437291667  0.1141983589930718
  0.4622422764656119  0.6971589613599454  0.8857223664882947
  0.5375394436032201  0.6597776692677139  0.7445222527232623
  0.6090671921378586  0.6474326320082154  0.6120667281674314
  0.6040855562199982  0.7608685026701056  0.4895144204008217
  0.4569564317263479  0.6934560683612275  0.3396977762643797
  0.5367618927826688  0.7431638523390074  0.2213592140651043
  0.5283664220075399  0.6882571818638625  0.0879341011659935
  0.3839492008212022  0.5660246221582734  0.8601166969698594
  0.6049629706574429  0.5357400264976413  0.7372472911287179
  0.5394253073973858  0.5062034275863326  0.5905223532189595
  0.5353395577998636  0.6256850901559794  0.4747693599350974
  0.5286735170606455  0.5511265050849680  0.3362157954844254
  0.6022845476378748  0.6124313295729225  0.2100900363394393
  0.5995541724476685  0.5500508733958578  0.0734451583758524
  0.5302447815992800  0.4039689627903466  0.7072449348461023
  0.5379394753171342  0.0170506442765743  0.7721524714867851
  0.6842881627585310  0.6612551173924107  0.7416927622120560
  0.6016668940536209  0.8256413120867427  0.0916965917811103
  0.9083232399405518  0.1506700635875695  0.8024780238838268
  0.8981117521784483  0.0278069611676745  0.9150417423026881
  0.9822280889050569  0.0238011603944373  0.7691644319383130
  0.9057371763354515  0.9529243952980954  0.8956621715168845
  0.9802769962744232  0.9346695655398087  0.7643225882618091
  0.7622106462523883  0.8979188161618827  0.6313304361952325
  0.9015463679039721  0.9539443908653549  0.3731211329280000
  0.8233352612399026  0.9540680266916896  0.1130824176923162
  0.8353188952671082  0.1758670449945378  0.9430805297391648
  0.8351457213649810  0.8256845846259599  0.8874176215790603
  0.9758437443799658  0.7720204542054762  0.6307450243653275
  0.9719761938991239  0.9012446198902806  0.4933378914148863
  0.8314224824692451  0.8239907738051775  0.3628398376652990
  0.9037745387780094  0.8919286603759771  0.2379153923795965
  0.7467115820119996  0.8133828199056783  0.0958249647899174
  0.7570789262860175  0.6912368052785237  0.8796487187530339
  0.8366927415573177  0.6611252997747596  0.7491445669635516
  0.9131605642733062  0.6398599376452281  0.6163231600140301
  0.9118502150805433  0.7945036292244024  0.7627919802482045
  0.8339681388305157  0.2827749440259673  0.8279678306442597
  0.9088081268665080  0.3071868379357114  0.9630028260756089
  0.9667867492987107  0.4802646312213577  0.1941436620144315
  0.9894321232335505  0.5496119662123705  0.8709041295438326
  0.9853221292897305  0.2863047468678169  0.8336938901055153
  0.9827245207578217  0.1703899778879201  0.9379215879881292
  0.8998781259801463  0.9046260597405290  0.6314158087537606
  0.9722013199718892  0.9589454600405849  0.1217355363030944
  0.9925434810084367  0.8201147906495914  0.8871188176242127
  0.9749663299425211  0.8260493103136465  0.3599920530344085
  0.8979847579835550  0.8221918725320108  0.0983617493861712
  0.9115789093005440  0.6800415812039360  0.8803865815803089
  0.9888952841369559  0.6645129214163246  0.7492848218811332
  0.9024757345120550  0.6952240606778107  0.3413869333152503
  0.9738464720420981  0.7530176276978662  0.2232557044723994
  0.9700943708293412  0.6918117118709790  0.0821104730664208
  0.8324730708088171  0.5538774022209103  0.8736848357358794
  0.9822280889050569  0.5067350616395710  0.5943885105122886
  0.9731364590433764  0.6233298276643074  0.4666223786355904
  0.9788107905697460  0.5500941459350750  0.3251905393545534
  0.9061758835541738  0.4129696509474972  0.8505915586541186
  0.9760169182820930  0.3999384348518423  0.7152272690684484
  0.9034743706809888  0.7606768671392875  0.4908254989782118
  0.7610330637179230  0.6884549991859976  0.3537110719427231
  0.8291192695709527  0.7567328842792174  0.2235789005868263
  0.8263311697467040  0.6822917532432237  0.0886170816342158
  0.9730267822386959  0.1302577886597461  0.6655892243244469
  0.9010095288073776  0.1107913278033813  0.5384267983973373
  0.8949426697695197  0.1451435421504181  0.2743328866315842
  0.9663884493238180  0.2112268913262006  0.1504268140083191
  0.7584931798200568  0.0395090921302338  0.9117975850786326
  0.8352669430964701  0.0203455390483884  0.7732440206279615
  0.9732288184578443  0.0954790307118553  0.3999159202259296
  0.9732692257016741  0.0498883197510138  0.1790144250353316
  0.7646523982723825  0.9628585339440716  0.9023151330421554
  0.8354689793156185  0.9258605129134768  0.7620968037001929
  0.6069891053123316  0.8977889985442317  0.6349831620922419
  0.7469020733043396  0.9536043923429353  0.3697184266666796
  0.6749021372632341  0.9593843672240724  0.1102102409018463
  0.6824582918593863  0.8256351302954258  0.8932595437983173
  0.7560225654830413  0.7952639895563598  0.7575110776992723
  0.8383667559445478  0.7689419221297477  0.6265983572368361
  0.8268680088432986  0.8925839302555501  0.4868617730465655
  0.6741863518011081  0.8150766307264607  0.3647119359130157
  0.7537135801213447  0.8937646523970441  0.2298110973593531
  0.7613794115221775  0.1540082308986007  0.8122043975160971
  0.6029252910757457  0.6953353329215117  0.8719346982860601
  0.6906321000397925  0.1751314118278476  0.9516299816717309
  0.9644084943761632  0.2822865825119460  0.3006947130969796
  0.6893910204078806  0.5579944752378487  0.8656110309151103
  0.9028278547797137  0.5262200678698860  0.7406682915097235
  0.8272028117207445  0.5121935833722385  0.6005292366863931
  0.8231101351671372  0.6248567301195384  0.4798368310877092
  0.8326577896377528  0.5553424867629740  0.3334350892923785
  0.9012173374899304  0.6143044123418899  0.2120962914648417
  0.9026489084141822  0.5545697628483833  0.0738415309690172
  0.7574310465536762  0.4261245028694864  0.8454935973020317
  0.8281437232556359  0.3957348167564699  0.7144955042810675
  0.9030356634622664  0.3807686999786805  0.5774725478440009
  0.8960048030359001  0.4923067607063366  0.4577436325487025
  0.9015348229771636  0.4182303553580297  0.3093051454284943
  0.8224232120220325  0.4828609835743817  0.2003514666273789
  0.9683222245642389  0.4131921954348992  0.0595843136948799
  0.7597573493055856  0.3172940667385555  0.9630881986341361
  0.6846460554895939  0.2865458367291691  0.8389260083352889
  0.9091140674269328  0.2607739487297457  0.7004151301638812
  0.9779102862786841  0.2479281863735925  0.5528364666688454
  0.9752780429663500  0.3601709713113551  0.4287779430482095
  0.8942095669171810  0.2799807743508078  0.0383692329007300
  0.6775574704291852  0.1037069949544153  0.4151488238832409
  0.6804263847410933  0.0463152443699471  0.1725687968664853
  0.7437214459686025  0.1221040059129867  0.0554986269653372
  0.0074565189915633  0.8226307797154978  0.0974165532024708
  0.0187992133171423  0.6976411410826501  0.8765082282071907
  0.0898369951580288  0.6720917975706284  0.7426379583957565
  0.1663781281592512  0.6436184667657965  0.6082127669538925
  0.1713401377015372  0.7608685026701056  0.4849835767589547
  0.0235450441049396  0.6895677216230081  0.3544062484907345
  0.0887055923307975  0.7529063554541650  0.2198286060514996
  0.0857847258482512  0.6884055448554640  0.0784333550098320
  0.1581333186789729  0.8928682926561191  0.2409095299679629
  0.1666800279952930  0.5374091101531567  0.7328749965241168
  0.1031881257656992  0.6230145563071546  0.4705190261283929
  0.0932837330567015  0.5467992511632610  0.3288798534909322
  0.1615644709264541  0.6127836916779759  0.2114377031561987
  0.1582054744715259  0.5538341296816933  0.0701156285932699
  0.0148343506482318  0.4286837644746102  0.8547382257826101
  0.0954189672699305  0.4077336737022317  0.7204532892583269
  0.1714330743623455  0.3783454377825244  0.5758626653117633
  0.1689820864009046  0.4838624337676911  0.4567862402852120
  0.1006690227360882  0.5106975898735913  0.6001389621331233
  0.0950818554071227  0.8293256597115106  0.3549489740413760
  0.2349590341260243  0.8892148539879351  0.4933013031755177
  0.2412544827146902  0.7788636971930900  0.6190245916874441
  0.0954807326283558  0.1904066181714732  0.9390375292888857
  0.1763108059389297  0.1598129329450047  0.8004046903195807
  0.3802259619254664  0.1356050381487124  0.6831881674609568
  0.3095196349332514  0.1180796597657991  0.5440308970606954
  0.4636149682631405  0.2274231845760182  0.4348332966637862
  0.3027900970965866  0.1442657277834432  0.2823640051730889
  0.3818728457346965  0.2045072841649213  0.1532075202003669
  0.1641972914851287  0.0429214409370655  0.9196762526227664
  0.2489422494764592  0.0188680909236914  0.7839521786833016
  0.3800914635281475  0.0996084673114270  0.3991841554385488
  0.3826596324966946  0.0493072313672417  0.1794595819476550
  0.4451725249329290  0.1194025631075781  0.0418695078003686
  0.1600399633413939  0.9615170852283423  0.9056873491040024
  0.2383624785491652  0.9378779152331884  0.7664569022250040
  0.0164759468809836  0.9037853361214543  0.6320987892219828
  0.1719710679516209  0.9675628771360986  0.3692000932756183
  0.0899957379016455  0.9580552820909769  0.1051976521082873
  0.0888989698548396  0.8382768935381272  0.8746422279993691
  0.1609941515421150  0.8037948615734392  0.7572244698242149
  0.1707796315049854  0.4138969196450059  0.3219524801703940
  0.0930308991595957  0.4830958916444174  0.1924423088837708
  0.2353521388838532  0.4051125941839406  0.0630906866344135
  0.1679788322612474  0.2643284787368619  0.7010249341533648
  0.0158264985682992  0.7622841328816355  0.4917706951619122
  0.0196137079034808  0.5364571142903812  0.7337775064285538
  0.0206578310840400  0.6181247593756257  0.2016808393244541
  0.0127902289973753  0.3671749408732038  0.5794483127699298
  0.0268727538082168  0.4893085919177252  0.4582192796604994
  0.0235501815973693  0.4204990727712674  0.3144092048204754
  0.0949109904903572  0.4222237925486335  0.0515836853528496
  0.0154956036485778  0.2661644707579292  0.6974087964957247
  0.1046982021922488  0.2445158375667607  0.5674961545760416
  0.0907034419150055  0.3525179136612505  0.4426753759685514
  0.0979172894312862  0.2791524143143669  0.3075550079786750
  0.1654118177853811  0.3498659251863758  0.1812706997964230
  0.0986613599640930  0.1273770739061525  0.6719006956156066
  0.0183194638836158  0.1190007466719911  0.5391829553442975
  0.1741114973819136  0.2297537199024231  0.4234848444194882
  0.0104399705223384  0.1443151821139770  0.2738694355995757
  0.0889359136206267  0.2145897858024986  0.1609520308668141
  0.0951978819215480  0.1039480848157674  0.4012148027235305
  0.0846261924430199  0.0554024776055317  0.1712699143688844
  0.0148196424114777  0.6459366385095682  0.6049137273707834
  0.3102844863343134  0.2786145984698118  0.0354299776714164
  0.0112837915317558  0.8880774043856577  0.2299574503168298
  0.0989286250197094  0.7743942620710985  0.6192807093630280
  0.2452877028952339  0.2527994379311713  0.5609651538486682
  0.2432073070843452  0.3569873487832422  0.4522614946832409
  0.2384733098465267  0.2794615038802031  0.2978286343464048
  0.3180282459911035  0.3353510791747072  0.1868930925794654
  0.1568091155740399  0.2782127820342248  0.0327956244368454
  0.0327061167013731  0.1501755202822316  0.8026487690008820
  0.2428984802922182  0.1325265060729839  0.6753887744354551
  0.1676382569203971  0.1205832852490725  0.5321092290662824
  0.3145295559217927  0.2273304577062673  0.4300280412266517
  0.1613895652853056  0.1400559278967541  0.2702228077424613
  0.2331141548220287  0.2081112685025716  0.1526586966098312
  0.0186345826608534  0.0470817864932209  0.9162796444013401
  0.2348187632653013  0.0995899219374768  0.3977511160632614
  0.2386551424437603  0.0551242969962791  0.1754836599362187
  0.3033413673516916  0.1208676476496418  0.0492542341130203
  0.0162174444248149  0.9707403178728949  0.9134806440896091
  0.0985262843204337  0.9362273769516232  0.7525838614642414
  0.0191696900184266  0.9654487045057790  0.3705477600923777
  0.0214040374283064  0.7993377900340810  0.7564622148373604
  0.0881843388853945  0.8937522888144106  0.4967405976762075
  0.4598022561846389  0.3430659547379791  0.1752946206994793
  0.3853328602991989  0.2805927716911636  0.3076769687765716
  0.3836651956217135  0.3532411832453073  0.4505662395924753
  0.3831964715932891  0.5432694483214113  0.3427711883713791
  0.4520146258059766  0.6143724120463741  0.2160112330773293
  0.4537821541003554  0.5518683200429749  0.0813604141593556
  0.3158427913462576  0.4271877709759631  0.8453228521849766
  0.3883634035864257  0.4029056946838701  0.7115013666927010
  0.4579821984732815  0.3811705164142675  0.5721428609759102
  0.4671644560104086  0.4840664328811430  0.4572192011177462
  0.4608112827877003  0.4103856621771064  0.3116528907880078
  0.3884517222765106  0.4769264639103264  0.2005283097843291
  0.5296028836687283  0.4228543352629394  0.0515958814326389
  0.2409750954859249  0.2988908739886674  0.8365538708161951
  0.4569477730312415  0.2721360811698847  0.6996711692967102
  0.5338554574586332  0.2468587364757993  0.5652154876553719
  0.5418866857929545  0.3578033452370497  0.4386140813985880
  0.5304658669476625  0.2789731423661819  0.2981701245805159
  0.6064811285327585  0.3474921173207537  0.1806974840463080
  0.4533809678937606  0.2836960309321592  0.0393327232041148
  0.2392398929866100  0.1880699010537514  0.9551424526511595
  0.3131181886194556  0.1602023857979583  0.8151314566656207
  0.3872752942347262  0.6197938430311413  0.4776110465260930
  0.5326853791265934  0.1363839438546198  0.6752363234380843
  0.3925876923056498  0.5183321021497457  0.6000109032953318
  0.2424170568443045  0.5624391831945734  0.8690137371764316
  0.4652757059845409  0.9684159643378067  0.9089985847669007
  0.5369096678458174  0.9333775711546135  0.7786773741742645
  0.3094526743577622  0.9118773009550466  0.6250982394227057
  0.4626140231088450  0.9643483456514020  0.3741090153909649
  0.3789283121521929  0.9600458188949619  0.1121250254288256
  0.3891473041167217  0.8340980026080216  0.8823867386658171
  0.4583499043921317  0.7935021790310933  0.7545291361906959
  0.5296288597540475  0.7768607968064717  0.6116337673348980
  0.5337307722491015  0.8876879515327044  0.4973747938252712
  0.3860359463418355  0.8276874850125784  0.3568576605284604
  0.4590501042030663  0.8888563100915650  0.2360920784510393
  0.3111226480206093  0.8197747921271713  0.0949285529253756
  0.3176311005088917  0.7057454694988755  0.8648182857287816
  0.3929992689463722  0.6670227286909147  0.7392596442940154
  0.4657600156641567  0.6451824599689278  0.6112983751406811
  0.4521029444960615  0.7526652655928125  0.4897583419966148
  0.3047013597297309  0.6952549696343943  0.3486557968699006
  0.3766493436001982  0.7573325180369397  0.2265181558161391
  0.3775221400669196  0.6896109941622250  0.0822141397446330
  0.4606744754050198  0.5270360643236934  0.7363569773040711
  0.0189334808159250  0.2299824461811420  0.4213505304562942
  0.4563936165444343  0.1157738516046611  0.5343594057874789
  0.4552420100952881  0.1426522802497781  0.2731315727723005
  0.2332088232218583  0.7553481630242708  0.2149684682553116
  0.2333721839361983  0.6853331945710519  0.0815311592764107
  0.0933068229103184  0.5648871725559962  0.8592629713845820
  0.3142524776783891  0.5387752860341529  0.7352959183623683
  0.2447797261156606  0.5121997651635553  0.5993828051861632
  0.2382320208762293  0.6234349181166917  0.4755438110017419
  0.2403614826260541  0.5473123398425490  0.3365145994392730
  0.3106146712410361  0.6202203866319952  0.2026565257076280
  0.3068313987258961  0.5429974495034756  0.0696338834415771
  0.1550577501771930  0.4297717597463537  0.8580189712460340
  0.2384958224538032  0.3998333443994580  0.7154772887041373
  0.3175185374725090  0.3800948847251575  0.5828022347120917
  0.3183318775661667  0.4915216732091124  0.4678358885746632
  0.3138813082814964  0.4126172888424439  0.3237879901787404
  0.2346761834192165  0.4813464447017843  0.1969426623261626
  0.3828772543670346  0.4205176181452175  0.0593525881788761
  0.0973233029469898  0.2975988796034720  0.8285227522746904
  0.3140821900079639  0.2729891683715927  0.7013054439885271
  0.3921738066795656  0.2434216605037006  0.5669595270652961
  0.1711248248165591  0.6935611588136119  0.3414784039136733
  0.6044549938778697  0.2222799342005035  0.4222896286000996
  0.3142195746369850  0.7664568420204246  0.4914962833666448
  0.2392450882036737  0.6680427242581742  0.7430892133479750
  0.5275438459724354  0.2071283636832122  0.1540307555861699
  0.3153273103642589  0.0530595786964932  0.9209202527613145
  0.3939707745373061  0.0194182703508797  0.7903063362537249
  0.5195951638647947  0.1000535562862312  0.3996293123508722
  0.5326980785460828  0.0545370268211904  0.1730444439782830
  0.5998081608374551  0.1238596346469364  0.0536265287176206
  0.3166988476691067  0.9829493557234252  0.9084741533359443
  0.3917801246753963  0.9323637573786705  0.7728293539151124
  0.1644472391505324  0.9164950990686396  0.6277203965774867
  0.3166976931764258  0.9648737979133234  0.3713161131191280
  0.2376801733747839  0.9647192531304055  0.1138568687589606
  0.2445973162720866  0.8435561433226096  0.8872834647013736
  0.3128491918248180  0.8012355999683151  0.7477237236680534
  0.3837050256192028  0.7721193628665440  0.6202441996664128
  0.3852693632017523  0.8971646376212423  0.4970089114315808
  0.2351933961402366  0.8247202251805510  0.3615470532075933
  0.3086554971616364  0.8878115873590386  0.2357261960573489
  0.1676671192374183  0.8249427696679530  0.1063867698877809
  0.1626924102756429  0.7027782096668478  0.8692820509318048
  0.3119007760875011  0.6423388359632347  0.6108715123480428
  0.0215093848854338  0.3560786254596837  0.1751360716622134
