Cu
 1.0000000000000000
    17.3236264999999996    0.0000000000000000    0.0000000000000000
     0.0000000000000000   16.1765408886351629    0.0000000000000000
     0.0000000000000000    0.0000000000000000   16.3987119999999997
 Cu 
 370
Direct
  0.1325893426529370  0.0552819326748558  0.2147824780385193
  0.5718888161205739  0.5517106843643985  0.2477911679892910
  0.6495902142660488  0.4623652544637826  0.1498505492382575
  0.7148363681241916  0.5324296772475356  0.0329206342546903
  0.6533134531617847  0.5928999599077324  0.9722505035761349
  0.7951255616137880  0.5975672123518593  0.7475743216906304
  0.7220981270867275  0.5245664386926623  0.6343154267237573
  0.6492669563154113  0.4802306313691159  0.3672456714893220
  0.5673522371311804  0.3881590314978245  0.2564320905202800
  0.7218095039165153  0.3815197876236626  0.0381893407238328
  0.6425189465958527  0.4356413706015835  0.9743970136191185
  0.7236970994497024  0.5171791980691768  0.8669678447917132
  0.6472408216605224  0.4385529943117606  0.7516539103802790
  0.7984447280712269  0.4466820498932532  0.5206723552435094
  0.7147209188561067  0.3558220811200397  0.4243111288252396
  0.6506234852154079  0.3093659193748567  0.1528812750659929
  0.5687641816798579  0.2266102790178690  0.0315485752783511
  0.6539830589166766  0.2734558936160055  0.9802999162373242
  0.7226580560369390  0.3581155256985445  0.8760173359956566
  0.6486666201213701  0.2769609692925883  0.7548248911255960
  0.5818849909976990  0.5667695280119389  0.4732966833004936
  0.7221269894037488  0.3638336826665143  0.6348947405137673
  0.6538618371851875  0.6518557036953317  0.5888362451880369
  0.7130122696884512  0.6946769721462808  0.0138276713439447
  0.8599618705702297  0.0298191342412685  0.2158557330600113
  0.5668321381784582  0.9569085598017246  0.5856225781634559
  0.6413759988418130  0.9598387288858518  0.3337918246262269
  0.5719095969888291  0.8713711133522106  0.9478644420366674
  0.6552183660851844  0.9489835033336838  0.8311052721701557
  0.6452724116396761  0.8166622601992010  0.5800855579389406
  0.7177225998263124  0.8886801290390387  0.4549659753766028
  0.6399732902345822  0.9367744654831535  0.1146038786460791
  0.4983106885847486  0.7993285173471061  0.8266841932463965
  0.5839111256525878  0.8926055665251584  0.7155962004820867
  0.6543294067209311  0.8003979672448993  0.3439999434101899
  0.7205799692114119  0.8740663743663023  0.2300214797357256
  0.6454455855418033  0.7732660851557966  0.1223239971529474
  0.6558302472060340  0.7457632955876901  0.9695063856234565
  0.5739420813534626  0.7349389789921059  0.7087054154009169
  0.5790882324783441  0.7305313617832814  0.4707172124249757
  0.4978644771636009  0.6286739862576157  0.3615744943871201
  0.7089253655982483  0.7093649083148177  0.2382965198730241
  0.6405101293311768  0.6220285605921371  0.1319406060671108
  0.7238356385714042  0.6721381610055041  0.8512044116635505
  0.8685743859693581  0.0321063970284565  0.4349766006013158
  0.6424554494984062  0.2812696778403450  0.5356247490656586
  0.7102876669616492  0.1875537214788051  0.2130689288280690
  0.4857284501025233  0.7855802134587112  0.1305990372902460
  0.5042551713984367  0.7389509615566601  0.9611093846882610
  0.4315394498952053  0.7312360859933881  0.7003937870242495
  0.4290492091826155  0.7214317649650634  0.4677352709163989
  0.3462362946926846  0.6417484748924877  0.3537080229227760
  0.5602145861318356  0.7090620005402982  0.2381928531948119
  0.4850819342012482  0.6160754955541317  0.1377032537677349
  0.5611312533204292  0.6924268001069931  0.0242980058433859
  0.5806439113657871  0.6728923395461445  0.8520764313685126
  0.5035959560776724  0.6582414941255080  0.5785610479652306
  0.4359109364312375  0.5724258670667416  0.4835596844435103
  0.4288229286171692  0.5532437686109460  0.2553832276583673
  0.4981502141021108  0.4592558134314703  0.1459660978252438
  0.5622453387574479  0.5308595022530876  0.0347988305423011
  0.5060371308513261  0.5872992569747802  0.9708113661609523
  0.6500577838017924  0.5919603276275902  0.7453607332088035
  0.5728516630164013  0.5208079095720939  0.6273392690840599
  0.5011796028966569  0.4756313786294730  0.3607756511608963
  0.4221794004852275  0.3901557500931264  0.2557613061318474
  0.5731778071987409  0.8644660524514297  0.2249296164235337
  0.7903401894516717  0.2677748273959359  0.3210530192859050
  0.5028749753984826  0.7889678351002761  0.3536287484041430
  0.3486122406298705  0.8047808572884569  0.8248608793178394
  0.6555300791090134  0.1200671056741263  0.9841355833311788
  0.7213592517709846  0.2032801985885517  0.8743281789447857
  0.6512873185068958  0.1235659995593922  0.7676612651042350
  0.7227330980611940  0.2022540212299754  0.6428038982573754
  0.6426978929613842  0.1186391118799630  0.5491014172332560
  0.7135837435654711  0.1941620563963833  0.4390074049718052
  0.6350089717069345  0.1110664175169756  0.3213701173604369
  0.7912580111329461  0.1144849481151241  0.1147136433641864
  0.7083596641846325  0.0393638200342908  0.8749623750938489
  0.7133701624195142  0.0349932935733668  0.6492922127054858
  0.7210879459909852  0.0375525551784906  0.4302384236030247
  0.7132200783710039  0.0278904153504504  0.2214293415238956
  0.4177940600370252  0.9650994332963839  0.5992151090890556
  0.4955670367287126  0.9525813058800177  0.3320111969769333
  0.4225800094454819  0.8820037944169766  0.9487730499809985
  0.5032628849392476  0.9480376892622251  0.8280745463424204
  0.4966586095584547  0.8159698995717276  0.5911230101486022
  0.5781173041337505  0.8876848606370460  0.4491545433568201
  0.4905940595059585  0.9282621388400244  0.1070849954557407
  0.4302048563561446  0.8821521574085777  0.7173707300914853
  0.8614511661285239  0.0365449231938645  0.6582685274306909
  0.8656304296331949  0.0462626991437550  0.8704498255716669
  0.9372840178700459  0.1192511092203186  0.1054995050830824
  0.9514842778444804  0.5942043178755612  0.9786717395854019
  0.9328045862683544  0.4923283969759452  0.3802832807844910
  0.8742025377884937  0.4046891414787452  0.2660426013945488
  0.9444130101742843  0.4381635414588070  0.9789766415801436
  0.9402395191330177  0.4373722721702664  0.7555383617932923
  0.9465084143900238  0.3108742764561375  0.1533752162974754
  0.8653302615361743  0.2264990067741680  0.0424579686502207
  0.9490309808976775  0.2765344256917343  0.9811597398624967
  0.9404473278155703  0.2811645873879607  0.7538553027823163
  0.9416884074474821  0.2681024623357224  0.5301731013996709
  0.9428024928845007  0.1110664175169756  0.9756227196379814
  0.9415729581793975  0.1159933051964048  0.7613619898928650
  0.9306052777113384  0.1123336847369042  0.5435704950486357
  0.9322331123913346  0.1187627477062974  0.3268766473854778
  0.7230794458654486  0.9709659532559554  0.5895619119355228
  0.7831996522206248  0.9654023410709038  0.3426034922742714
  0.7341741205284009  0.8882535854381846  0.9610727964488920
  0.8048002102792969  0.9546460241798036  0.8406852928449502
  0.7966321745622951  0.8249087698157113  0.5891289511029890
  0.9337166354862247  0.4605107170687653  0.1414718424227467
  0.8676738816782964  0.8776518133300028  0.4622897212903063
  0.8602966734476757  0.5551044877972802  0.2469191482843289
  0.9419250784470560  0.6585134929434439  0.6060815020106460
  0.0601769641015985  0.2746242521748665  0.3217542938738115
  0.0601273209163220  0.1293397926492126  0.1081643485171274
  0.9485114591912956  0.8062892143697377  0.8234278399425519
  0.9395930032317424  0.6396528476361180  0.3632392592784118
  0.8738446450574306  0.9645801628257794  0.5900192649276358
  0.9305706429309127  0.9432468009917638  0.3390544330554743
  0.8769213680518915  0.8785234459056609  0.9507854031462960
  0.9445919565398155  0.9597089112682006  0.8271964285975633
  0.9442860159793909  0.8197469740662464  0.5907998140341754
  0.9302185226632542  0.9356431976721931  0.1027553871304041
  0.7928454385691126  0.8127120955478139  0.8200373297610203
  0.8703811670148857  0.8869554092616724  0.7183525145145547
  0.9361641599696232  0.7908656450345107  0.3499821205470287
  0.9252888389160320  0.7782300635831259  0.1259096446111135
  0.9534295980117096  0.7418007673536701  0.9625851103428124
  0.8641930862455388  0.7335295305718930  0.7198953186079494
  0.8670966353378723  0.7316502660116088  0.4740833304469281
  0.7982253744618657  0.6480600838268632  0.3581108077268509
  0.9315288718560171  0.6242169147182576  0.1341359004292535
  0.8672005396791486  0.5830338209662406  0.4947739798101217
  0.7848332593640253  0.9400322695070672  0.1055056031229770
  0.6515239895064697  0.8083044783389899  0.8216045260139943
  0.7296081019756459  0.8913568446791804  0.7085285722439668
  0.7937170805431530  0.4368035473691278  0.7482024197997991
  0.9366490468955792  0.4366057300469927  0.5286485914259609
  0.8619245081276717  0.3560940799379756  0.4247135994582990
  0.7938671645916633  0.3060586610204093  0.1536130398533738
  0.7119097291782410  0.2223139340527457  0.0323352224247856
  0.8004131380920733  0.2744573438093149  0.9875870739116588
  0.8603370806915054  0.3553460831886519  0.8658580015308521
  0.7893011460389082  0.2793656861147940  0.7501172043267789
  0.8635927500514976  0.3535100911675849  0.6386999174081480
  0.7923374617895392  0.2793842314887441  0.5342831802887934
  0.9374629642355772  0.2723555347616287  0.3245532941855436
  0.8644470746353253  0.1975682234118984  0.2082514773111449
  0.7957836224418715  0.1084700651639515  0.9817207595328220
  0.8667964672408517  0.2069336372567356  0.8645103347140923
  0.7972902353903786  0.1231085470019545  0.7603863035096906
  0.8733886204484956  0.1976918592382328  0.6589454098590182
  0.7909405256457128  0.1149609460465118  0.5382530042603346
  0.8551418636276880  0.1962144111135359  0.4333484239493930
  0.7849717984857271  0.1105038745071537  0.3170405090350998
  0.8689611410174423  0.5102061374639119  0.8684069822068956
  0.7980983802669723  0.4334962890146803  0.9839709362540183
  0.8719628219876480  0.3741016380435934  0.0348842031008291
  0.7134047971999397  0.3911633820777524  0.2711527588264250
  0.7950274297359159  0.8031117736329413  0.3469513947192928
  0.8652205847314938  0.8710991145342749  0.2313020681136421
  0.7852373318023221  0.7844674910217009  0.1215556441261972
  0.8100069722699228  0.7537748971341650  0.9565480508469205
  0.7173300723148239  0.7355757034977285  0.7022536891921756
  0.7268604093952268  0.7324786260480496  0.4832974687280321
  0.6420513770601093  0.6467742712329844  0.3613793571104852
  0.8570121417706621  0.7158248802407946  0.2399917749637898
  0.7845504086572174  0.6316165189243764  0.1227508599455861
  0.5689829580428787  0.3780641662776136  0.0310607320867641
  0.8614107588846942  0.6949056984249996  0.0145960243706945
  0.7963089166116576  0.6591996717796003  0.5977820697137677
  0.7241415791318290  0.5731491366507984  0.4733637617393369
  0.7125793349331332  0.5548510343532946  0.2551149139029945
  0.7941442428350669  0.4673848690129627  0.1510640591773308
  0.8576067055012991  0.5422339982758603  0.0265969668837409
  0.7941615602252796  0.5993352046684425  0.9671830324235222
  0.9433046972006700  0.5889065227171285  0.7423726936603317
  0.8672467193863825  0.5225573565147269  0.6336385442954301
  0.7911367894014570  0.4892189559436328  0.3667944165371040
  0.8745142508123227  0.6722432514578883  0.8583086281410394
  0.5029459766983547  0.4245512369793803  0.9816414850141890
  0.5780295626900060  0.5140450298715974  0.8598819224339085
  0.5028513082985252  0.4490496759675586  0.7507026161566834
  0.2064653293004210  0.3168706140333601  0.1424170386064467
  0.1242204252094676  0.2293179036145943  0.0247797509950783
  0.2164707401189930  0.2728253509016997  0.9846478186823455
  0.2860531684864021  0.3586842504996832  0.8677605899780423
  0.2059723609256988  0.2904187289890969  0.7470681843793587
  0.2794748691909283  0.3653358579564783  0.6420843295497842
  0.2073508251866317  0.2837114854104511  0.5385883964545511
  0.3520353114285857  0.2806576804999894  0.3188272347242880
  0.2786742285167600  0.2011660259582319  0.2159593997382236
  0.2082161174509275  0.1177551157216713  0.9911422311703505
  0.2906255367489019  0.1968634992017919  0.8739196102718312
  0.2089982862422022  0.1266568952177544  0.7654049903431441
  0.2732567716118793  0.2017409325506872  0.6448711337817266
  0.2033372313816625  0.1189172924892154  0.5467658679535321
  0.2805167988353939  0.2007209369834279  0.4367755223702937
  0.2060895419328049  0.1198940155172580  0.3237971372385834
  0.3540631778224957  0.1247467217008864  0.1083594857937623
  0.2736579578184741  0.0386714594068177  0.8665409819990745
  0.2818092533916037  0.0359576530187757  0.6562805664249732
  0.2808723825810953  0.3581773436117117  0.4289334430655288
  0.2773373259923377  0.0446554334014067  0.4432638368184040
  0.3562134204405758  0.4414213454827208  0.5297157484075579
  0.2877179469321854  0.5138039400102453  0.8632175502563860
  0.1320305681954064  0.7314709940634235  0.7031135128173480
  0.1299467089064752  0.7277371921081224  0.4746504481571480
  0.0530190517557048  0.6471699058772548  0.3658370242736139
  0.2636086762780299  0.7117819887196567  0.2400039710435798
  0.1935708005480261  0.6262259968961930  0.1329345865699699
  0.2765845967644246  0.6954002417303375  0.0095407492978716
  0.2848270972593412  0.6656534619142602  0.8571682946807045
  0.2075620973472269  0.6566713191310600  0.5945623046492921
  0.1348417578732721  0.5744720399925773  0.4870416652234641
  0.1324386813580863  0.5517972294428327  0.2479009327073983
  0.2074472253254825  0.4716935775607196  0.1433805289098314
  0.2824234434978150  0.5463757984580656  0.0292618103177858
  0.2118631598297274  0.5898523367885873  0.9773484649282214
  0.3505310074654404  0.5939879551794759  0.7485744002333845
  0.2772380396217847  0.5263591581745123  0.6397853685094292
  0.2110180711873464  0.4790190002710379  0.3753377704297753
  0.1360591704052266  0.3929499197682857  0.2632192089232375
  0.2810813457563288  0.3952000918075733  0.0320181243502538
  0.2093169262221164  0.4351468272962456  0.9717992486239164
  0.2066904553731864  0.4461071433007979  0.7429215172508673
  0.2769811650002960  0.0443772527921541  0.2205390276992488
  0.0533068667810403  0.9484765964457127  0.3408045705052936
  0.0595669878936723  0.9400631784636510  0.8324712331066003
  0.0586728910369893  0.3102993698636822  0.1478381960729601
  0.0581858105749394  0.2827780349216257  0.9859832894193153
  0.1363033456072261  0.3640067728233827  0.8586684124948353
  0.0636563164185051  0.2781293278514491  0.7645024804387077
  0.1339239361919977  0.3610271494087217  0.6433039375287525
  0.0608872657234904  0.2845089364903086  0.5436802597667426
  0.2109851681459422  0.2766951522659691  0.3268278630663192
  0.1403752412925781  0.2058889145242092  0.2151849486715787
  0.0585868236076320  0.1126798650506406  0.9918922900774161
  0.1409576828500661  0.2033111075451352  0.8673337271854036
  0.0596259824696636  0.1182558408183259  0.7639963431274360
  0.1315081602573226  0.1972591338460622  0.6507252520807733
  0.0548827492903983  0.1263230784866511  0.5456194364533021
  0.1372026954056069  0.2060867318463444  0.4350985613992123
  0.0594076679037152  0.1208583749626669  0.3299195692930033
  0.2067793513096118  0.1333517752137667  0.1041457402264275
  0.1338592846018702  0.0441114357655351  0.8814567875818543
  0.1380905002771793  0.0379049172835439  0.6551158408050586
  0.1287194831867335  0.0433758025988449  0.4344948554496234
  0.1420053849579359  0.3624365978289348  0.4266283839852788
  0.2154103385916338  0.4482893156356015  0.5308743759875779
  0.0656662881758620  0.4335333797625806  0.7576726757564862
  0.1437694497742721  0.5204802746323076  0.8618271971603626
  0.0548030892954198  0.8204022439458190  0.5935988143459073
  0.1327094098917452  0.8893848532491453  0.4588565248295111
  0.0514636614914319  0.9324843023093466  0.0998710142601445
  0.0465704019882904  0.7972699808386371  0.3432193943036504
  0.1281791806120964  0.8626300604303626  0.2369061667770007
  0.0507274992334890  0.7809809607190685  0.1204031145860726
  0.0583444955939220  0.7391425970874786  0.9638900908803083
  0.1227132350146201  0.7060947407082704  0.2438823244166980
  0.0541710045526553  0.6271161748458012  0.1255376641775280
  0.2251594520350575  0.7405829544642754  0.9687075423972323
  0.1264283924615900  0.6991649526422227  0.0081077099225842
  0.0619268863825943  0.6487586262456529  0.5945988928886610
  0.0586065077078405  0.4711310345508976  0.1363677830307651
  0.1294294961854552  0.5400641895236901  0.0213709466938624
  0.0634196454189312  0.5955210394260234  0.9776472688830685
  0.2105199075955603  0.6068584447008957  0.7455741646051226
  0.1309222552217920  0.5222482669488908  0.6396634077115327
  0.0652397031302886  0.4800699047948809  0.3770635157200153
  0.1366035137042466  0.3880539410454401  0.0359391640026364
  0.0652160360303312  0.4364450034727578  0.9747385038532296
  0.1416573054146602  0.6699003525488498  0.8593757851226365
  0.0634479304896120  0.4357650064279182  0.5359662392997694
  0.1981050705520579  0.7774635214598521  0.1268670368746032
  0.1883011187062940  0.7979994322140102  0.3555191407715435
  0.2695254512673775  0.9721095846495496  0.5920072259333540
  0.3416425683155891  0.9570754681672761  0.3396764331247479
  0.2798541200365871  0.8784987187403935  0.9474009910046594
  0.3611985198364788  0.9611369050623638  0.8324041546677571
  0.3555010984564924  0.8275916672471695  0.5882264411985531
  0.4356771516633656  0.8854532339717086  0.4584296620368724
  0.3513356888639916  0.9336835698247915  0.1101340154031608
  0.2030659256016631  0.7925409104813428  0.8244035263257262
  0.2855659725750841  0.8846372375179011  0.7164682201870488
  0.3462588072999611  0.7933198161872500  0.3534580032870874
  0.4186703199817891  0.8654056847315718  0.2389612062215617
  0.3394680813512113  0.7818031389641925  0.1178541339100291
  0.3638838698121320  0.7426600363466948  0.9633900516089312
  0.2829827952016860  0.7313411764457723  0.7033757285328263
  0.2769055457297004  0.7302717265479791  0.4828279196561294
  0.2046083278232765  0.6389048508867943  0.3698434364845241
  0.4215022905279099  0.7139394338891935  0.2468337757258009
  0.3410237602386544  0.6244147320403928  0.1362824104722371
  0.4176976598981743  0.6890453602567451  0.0181267894698074
  0.5579754475773303  0.0346842040075306  0.2100869873194922
  0.4315030833757585  0.6631869271788873  0.8518629999721931
  0.5719794437960204  0.0366314682722986  0.4342875220931989
  0.5730779435818477  0.0395863645216930  0.8785907088312790
  0.6449376087622301  0.4370817279783804  0.5216785318261582
  0.5690493413720273  0.3580846167419608  0.4087184408141326
  0.4977559548516011  0.3014346811154996  0.1414657443828516
  0.4192954777684684  0.2171583200945976  0.0194012798078289
  0.5146623456699438  0.2706122696103124  0.9897701721940113
  0.5778690882073680  0.3604769699815332  0.8627540992243784
  0.4975088934178995  0.2810594969355764  0.7695211672721617
  0.5742612985797171  0.3622202351328493  0.6406086038952328
  0.5019005835758465  0.2850343887522301  0.5374175727947414
  0.6432982291554254  0.2681519166662561  0.3187357641258659
  0.5729838524283585  0.1929442435069886  0.2107516736680298
  0.5060948554853685  0.1226696398184671  0.9784583081890823
  0.5797191627284275  0.1955220504860626  0.8653274720600012
  0.5090434297922551  0.1224223681657982  0.7654415785825132
  0.5787245672838767  0.2074529077273405  0.6506825658015092
  0.4966210885463272  0.1241470879431642  0.5486074760017740
  0.5737082965855907  0.1957816857213651  0.4332935415903398
  0.4992914301171293  0.1219649156083606  0.3234678430842619
  0.6363077759728888  0.1124820477285055  0.1100425448047382
  0.5677984485523282  0.0448161599756416  0.6631225671869839
  0.3560269698726188  0.6561458668691383  0.5871531861770610
  0.2889515223616718  0.5680182498579172  0.4824742333422286
  0.2752286451107683  0.5508452335800571  0.2576821886987223
  0.3629169821919215  0.1266568952177544  0.7678320102212907
  0.4338011010569872  0.1995649420072003  0.6560305467892846
  0.3551507099278549  0.1188431109934149  0.5517235743880373
  0.4286526409467440  0.1968078630799413  0.4331837768722325
  0.3521588421454365  0.1164631213364758  0.3283157848006603
  0.4952830315292240  0.1220020063562609  0.1083472897139726
  0.4309731712352492  0.0429987133285247  0.8753038653279600
  0.4269538049668757  0.0453292486549298  0.6661593910546147
  0.4297090017497203  0.0432398031898768  0.4367084439314503
  0.4190345624225967  0.0427390780932222  0.2118615169288908
  0.1178118363380785  0.9659772476633589  0.5844700486233309
  0.1957931989586592  0.9655754312277721  0.3345174913737127
  0.1336451262095728  0.8809899806410336  0.9492547951326908
  0.2035646664397896  0.9409224474566756  0.8323980566278619
  0.2099490109648808  0.8116735546066044  0.5864824017886283
  0.2793582654301627  0.8847856005095022  0.4576003286111738
  0.1985322328439718  0.9322555760306281  0.1136403883426944
  0.0623344222989338  0.7911376438524463  0.8212813298995678
  0.1324329088946821  0.8903121219466540  0.7174256124505389
  0.4322621623134163  0.2073045447357390  0.8769503360995670
  0.3517074355072248  0.1245921769179684  0.9841233872513891
  0.4229829273910979  0.1978773129777345  0.2221184200320125
  0.4958810587379034  0.2719413547434081  0.3186564896072329
  0.3484679290447644  0.4588169062479828  0.1424658229256053
  0.4200418572866368  0.5305565944785682  0.0229442409867315
  0.3632581347791122  0.5940250459273761  0.9797145044074196
  0.5010023882701465  0.6028464621363417  0.7437081643973015
  0.4291773578701896  0.5216857239390689  0.6366082897242176
  0.3536059987208799  0.4768801004754512  0.3726363387563610
  0.2747847426749821  0.3970731745765408  0.2617739734681604
  0.4197520796237439  0.3740336383391096  0.0332011440898531
  0.3581927981418902  0.4368962742388787  0.9806353084315403
  0.2713853389762242  0.8675816752750589  0.2281310873683251
  0.4273751947953854  0.5107501350997836  0.8644981386343026
  0.4985704494379395  0.4426144312068485  0.5284290619897467
  0.4245207116419879  0.3517730078075853  0.4287444038287885
  0.3558959349533425  0.3080553796157114  0.1452282349979684
  0.2758682340559582  0.2238222911340265  0.0172669658446345
  0.3638301859024726  0.2790689601315912  0.9803669946761675
  0.4259170705394739  0.3544806324043105  0.8754441202455412
  0.3587105881092507  0.2793656861147940  0.7501172043267789
  0.4289637767242327  0.3628507778471552  0.6464871143538592
  0.3507457431040781  0.2796562303066800  0.5440461421604330
  0.3551253110888762  0.4436715175220085  0.7475682236507358
  0.0591281652256818  0.5978763019176954  0.7519893025744950
