Cu
 1.0000000000000000
    17.1025312499999984    0.0000000000000000    0.0000000000000000
     0.0000000000000000   16.1885049381434385    0.0000000000000000
     0.0000000000000000    0.0000000000000000   18.3606875000000009
 Cu 
 395
Direct
  0.9797155391837096  0.1318869455351063  0.9297959975627275
  0.5197485386848799  0.8632639346542662  0.3114422458309364
  0.5893639647639876  0.9303918136123479  0.1986850301765664
  0.4474609935298316  0.8635542641206350  0.0782047921680495
  0.5976902176395672  0.7744540040588545  0.8849120573507936
  0.6135533665521000  0.7116563582055498  0.7705644873047378
  0.6747899159663863  0.7801679350459002  0.6540111175030895
  0.5254962258876150  0.7073446567688386  0.5286617807748214
  0.5967897661347644  0.7903418208141857  0.4133447481201346
  0.4500454062903698  0.7204218372008124  0.2988664640144876
  0.6647387722212169  0.9127558428361150  0.4358820305612197
  0.5174681744844055  0.7918305314821618  0.1836964846768401
  0.5921939552076537  0.6157426215181352  0.8800701907267908
  0.5400730155075725  0.5656453455127941  0.7607772720928885
  0.6068175215291592  0.6382709526638174  0.6524371023688519
  0.4453618890478563  0.5664854477984572  0.5247185733105038
  0.5221166092007576  0.6527874259822578  0.4044943170020187
  0.5239350534734440  0.5729962405123448  0.2748205234689607
  0.5973452394656490  0.6532754265746649  0.1681796365196023
  0.5895803070086482  0.6005960714854478  0.0327707636220050
  0.6141205340583721  0.4706087744471749  0.8771073387094031
  0.5076509142469771  0.7335978531958055  0.0516099274605051
  0.5958893146299615  0.8428173275546755  0.5517654908074657
  0.6012510940449236  0.9123975639201705  0.6757641155866307
  0.5279110731050408  0.8411309457606612  0.7822906277338475
  0.7502465826513253  0.2861877910760947  0.0299713041791056
  0.6086242716264586  0.2501066333514094  0.9551654179616097
  0.7601398550287696  0.1965809987538409  0.8258401952541268
  0.7576022189697794  0.1541805422186174  0.6923865868312397
  0.8282759679214153  0.2315811425080039  0.5920962246103256
  0.7621687944584228  0.1499367902314819  0.4943330008748310
  0.8343861745611481  0.2242117158403872  0.3911233579897267
  0.7524100050979293  0.1525806415422446  0.2860673790129047
  0.8980258770174735  0.2216234595338228  0.1588009027439742
  0.8137576491783930  0.1477685850677489  0.0541479587842231
  0.6873260719813039  0.1232450109936177  0.9265335924921113
  0.8270656207688554  0.0695773002742091  0.8027963958321277
  0.8325560361130755  0.0735369000176645  0.5921397959635224
  0.8273813635043054  0.0644625598879672  0.3909980903492858
  0.7515914128208361  0.0059210204671757  0.2829955986125247
  0.8191662052949036  0.0870341315924697  0.1797696164699715
  0.7500945583712935  0.0091084673745440  0.0764891701359224
  0.5331792991169068  0.9992925554820860  0.7712943074707850
  0.5163981574364903  0.9859621089198755  0.5617324378512519
  0.5972867685887139  0.9954688546377818  0.3304448022439248
  0.6024672882851769  0.9318002203853708  0.8834415241803989
  0.4635989555639605  0.4264231005549177  0.7503364865830868
  0.5243501966996843  0.4962380713825831  0.6418056921888138
  0.5261394055339029  0.4394199770919383  0.5156284997498053
  0.5948017563189656  0.5050220820459116  0.3878555064999608
  0.6009645867479410  0.0122156103869591  0.0745230128229134
  0.3766235261227778  0.9851034749661465  0.5723148302589436
  0.4447888744538909  0.9994284543812370  0.3260277563135913
  0.3724545525972945  0.9974888064569859  0.0951322628850366
  0.4546529113928675  0.9277356078562078  0.8730116315088968
  0.3778748028891921  0.8382585372104164  0.7841206245681159
  0.4543605570081911  0.9114895121849316  0.6785254500954825
  0.4563368726486025  0.8432188470294411  0.5490967454241574
  0.5156263418609451  0.9221637529910020  0.4321131085096896
  0.3839206915642969  0.8575252947764657  0.3045906505407274
  0.4485953285423757  0.9331468549315070  0.1982384238062982
  0.3004418205638418  0.8611636789401089  0.0739729244888028
  0.4514954840383639  0.7652314105846281  0.8895251743705129
  0.4590791567768657  0.7018901691347185  0.7687780618236653
  0.5232158616871402  0.7722857988951214  0.6548226339563812
  0.3764188780535043  0.7115760543105968  0.5326485595923357
  0.4458179618879514  0.7851714854237454  0.4228160710213060
  0.3020731580303350  0.7175185425371244  0.2887633564919617
  0.3774479654875648  0.7907742264023944  0.1780431015995452
  0.3680750839148444  0.7263087304231417  0.0500903765177639
  0.4542377681666272  0.6198072340472988  0.8830983997739738
  0.6731118017983446  0.0904068951804989  0.1800038124934048
  0.8166636517620749  0.3595484877270727  0.1394661147628598
  0.6791459962980624  0.0722767465891700  0.3973758471734788
  0.6785905229671778  0.0703000353287868  0.7939296254565629
  0.5985380453551282  0.4229267925131146  0.2551970752729168
  0.6779414962331961  0.5040151947476538  0.1376905821200869
  0.5912584211766898  0.4527318919860828  0.0401561079888760
  0.5358280298420738  0.3380393983250262  0.8569338021792484
  0.5277941313511706  0.2943911428066857  0.7233331404393216
  0.6035314582453984  0.3632795302310464  0.6171987704708775
  0.6067824390029982  0.3100442250998466  0.4823944500988864
  0.6731585784998931  0.3747135694278264  0.3749311538579371
  0.6797014696289474  0.2869908300256255  0.2693250865470044
  0.6675746097525768  0.3611360339580681  0.1429191445037121
  0.5970002612917312  0.2930939260420590  0.0410384278911127
  0.4610437782418901  0.2556784882166150  0.9512004248206938
  0.6114016382808829  0.2099485086521835  0.8180899408042318
  0.6063380603382905  0.1610063732896289  0.6898376626692220
  0.6801166128551878  0.2270532382771883  0.5814049038196422
  0.6026368538282889  0.1535751743951251  0.4855697124631090
  0.6825899309495486  0.2221917640211830  0.3890373794554263
  0.6016194605696159  0.1551503661807432  0.2889921060962451
  0.7478668179600605  0.2236557657984044  0.1562792106777048
  0.6733398382183922  0.1551380117353656  0.0454827059171943
  0.5343721050063859  0.1274825857580646  0.9242460964492751
  0.6764387946959602  0.0763290046729561  0.5963553243853210
  0.3875575801096692  0.5524013800682256  0.7683532411299956
  0.8180435644577461  0.2896593902271430  0.2626967944419295
  0.7494104491111512  0.3141150148516986  0.4826123068648710
  0.8858756287903284  0.5948203682715152  0.0339471901583207
  0.9002711586917869  0.4754826031485575  0.8776029628520178
  0.7435458201545455  0.4341693378065452  0.7460392618740452
  0.8271240916457909  0.4981591876387681  0.6378788239819455
  0.8207449189721545  0.4445532491462465  0.4996487059648500
  0.8863901725073591  0.5119961664614517  0.3909708582535377
  0.8883606410600767  0.4266022400128899  0.2546034155856093
  0.9594436861502589  0.5046699803526558  0.1510669875515282
  0.8891499978987031  0.4381227603273119  0.0411691419507034
  0.8943363646828589  0.6450041253944979  0.1677384765684836
  0.8329945676900895  0.3497019947612881  0.8452131081692885
  0.9010546684427194  0.3690614106676676  0.6112240486637553
  0.9060480813329893  0.3095315156166846  0.4781789216770886
  0.9666706865394562  0.3861290769565403  0.3720064267745967
  0.9575316884744767  0.2915249114791298  0.2637479533378043
  0.9717284173943544  0.3517898960300680  0.1378430818562760
  0.8972423672665409  0.2814931018326841  0.0364797750628893
  0.7476329344523196  0.2539859291999118  0.9497026595545509
  0.9036156928524836  0.2068290111943908  0.8220168090111007
  0.9017270835274747  0.1519505648279976  0.6889825748627335
  0.8215518170738612  0.2947617761680075  0.7191775226281699
  0.8226627637356312  0.5683262601596893  0.2797331935419085
  0.8047063574288159  0.6494640801757381  0.4081597570897061
  0.7480246893277860  0.5684003868319536  0.5222622382740295
  0.8800928590614323  0.9785556189161264  0.3315613181695947
  0.8182774479654874  0.9958641968898584  0.0999360045749924
  0.8975288745635240  0.9257465421504468  0.8775212665647733
  0.8366548445862363  0.8395125134162220  0.7740992133328342
  0.9023117922968275  0.9136268312352214  0.6680029682984370
  0.8957805953431602  0.8403340840338189  0.5471523737877464
  0.9631799751864215  0.9102046498656827  0.4347110504440534
  0.8016424834774094  0.8490686769156378  0.3178526811700270
  0.8843963156038666  0.9159062264073508  0.2123718814995356
  0.7473990509445784  0.8583839287301948  0.0707105194181866
  0.8976575104927816  0.7725020016892256  0.8818511697887127
  0.9134504943529924  0.6940450963200717  0.7607228079013929
  0.9688458031614474  0.7793834277644354  0.6579543249674070
  0.8182482125270196  0.7058250599874188  0.5302249030707594
  0.8863200074550369  0.7759180058360757  0.4195917908847369
  0.7379910868456969  0.7076844040167173  0.2931422774882478
  0.8107990228054692  0.7756585624831506  0.1863379979644010
  0.8142604987200361  0.7212063444822772  0.0586630402592497
  0.8866240560150995  0.6249096199881633  0.8840079517719586
  0.8257090964239574  0.5622725819247654  0.7614362888099915
  0.9004699596733666  0.6320319577482320  0.6471377365362814
  0.9707110241356814  0.2331192709574899  0.5897215858610959
  0.9022767097706660  0.1445378976015599  0.4924104149150191
  0.9792009954666797  0.2295055956846014  0.3870058651126217
  0.8990549644515340  0.1583131041973564  0.2846785421297542
  0.6638909445056559  0.7831638880499185  0.1809297037488386
  0.6624116313191940  0.7229606757258673  0.0558363487206021
  0.7416689050049240  0.6262994950931203  0.8947428439158397
  0.6798184113828176  0.5679926901344996  0.7736689462200147
  0.7527491361841538  0.6319454766305904  0.6461737203468010
  0.5971055088702144  0.5727182654913537  0.5280572282492147
  0.6584122233368233  0.6449114670541675  0.4001644137780792
  0.6664636630908067  0.5660221560968048  0.2713239223749113
  0.7464284343874534  0.6370416853487665  0.1739419479798892
  0.7355294629267231  0.5891682095113563  0.0329069241007452
  0.7603152676595754  0.4749760708880844  0.8748906461155118
  0.6072151234923193  0.4302962191807315  0.7407453424606245
  0.6755500373665444  0.5061216276845000  0.6412991752079003
  0.6744390907047748  0.4380486336550475  0.5062116410401302
  0.7368216693069922  0.5163758173477387  0.3904262163385768
  0.7409847957447817  0.4372023541466958  0.2564116267432798
  0.8207624602352357  0.5112240136253645  0.1397329893011907
  0.7368216693069922  0.4335577927603639  0.0393282522781353
  0.6831863338942880  0.3427835053499462  0.8432850757903269
  0.6799938240136234  0.2883807051305824  0.7185293987493657
  0.7477849587323514  0.3690552334449789  0.6143720789322298
  0.5867795520034493  0.7135157022348483  0.2955550411715249
  0.8183183775793418  0.3810699315744968  0.3677364341613025
  0.7384471596857920  0.7811006956718934  0.4217431264488329
  0.8244870550960108  0.7730888378446521  0.6475407715533528
  0.9586894118377940  0.1442475681351911  0.0584669691698638
  0.8335149584948131  0.1227446559558330  0.9292350163903176
  0.9792536192559216  0.0754827251646045  0.7947302490715558
  0.9851942603525423  0.0750626740217729  0.5933434545955867
  0.9728802936699790  0.0733515833370036  0.3912486256301677
  0.9004699596733666  0.0005715456187632  0.2869660381725904
  0.9717518057451293  0.0854095220253421  0.1846986258003687
  0.8978387702112803  0.0110975330803047  0.0816632683280516
  0.6726031051690081  0.9777216938531522  0.5683934084712244
  0.7390786451566925  0.9872284395710584  0.3271115937243636
  0.6756552849450280  0.9889580619238939  0.1020601080433399
  0.7528251483241697  0.9333012854987247  0.8709474386511943
  0.6713167458764328  0.8474502445711992  0.7783746523652781
  0.7468494247013870  0.9102478904245034  0.6720605505648963
  0.7464401285628405  0.8453129255209094  0.5495651374710232
  0.8147691953493723  0.9123666778067269  0.4391988998233318
  0.6660777553030341  0.8516260471087590  0.3077277879709027
  0.7412771501294582  0.9140036418192318  0.2050954655156570
  0.5999939701908160  0.8579206370285424  0.0780904173659074
  0.7500010049681973  0.7757079802646600  0.8761160904241737
  0.7649169256743793  0.7056088571933148  0.7657934241296791
  0.6675044447002542  0.7031256136724577  0.5322673102518627
  0.8173594551976042  0.9787409355967874  0.5618141341384957
  0.4500629475534506  0.6332982883994154  0.6488097872152122
  0.3742437614315131  0.6543935038813190  0.4013027153803475
  0.2308205473970409  0.5254933980362568  0.1430934299164996
  0.1614448519133678  0.4552274899523167  0.0331411201241784
  0.0855613478268015  0.4003799296993668  0.9706931589571470
  0.0935777050546244  0.3343454191571847  0.8383778521365282
  0.0815911752828985  0.2907342269749764  0.7096898604695498
  0.1570829244939984  0.3674059149870967  0.5979021074238097
  0.1548201015566040  0.3179263612506252  0.4727815202998257
  0.2274409307101835  0.3949995687375109  0.3711840174830058
  0.2384860793632518  0.3019705950457183  0.2616020641928580
  0.1600415508669218  0.4398585599028360  0.2447290576673669
  0.2284173943550022  0.3680359917013437  0.1345044269175651
  0.0156535673630179  0.2656917661949945  0.9507756041270240
  0.1599479974638256  0.2009359407493730  0.8181716370914763
  0.1567730288462413  0.1554406956471119  0.6864282042815661
  0.2286103482488882  0.2343176521590971  0.5857729319776286
  0.1581003177526715  0.1583007497519791  0.4920455048319948
  0.2249734597035159  0.2361522872976406  0.3879971133978507
  0.1694962916673518  0.1628595400962381  0.2776798935225056
  0.3107443890798328  0.2283628094871923  0.1627550030465909
  0.2269205399054595  0.1570529507688621  0.0556293847929170
  0.1541652277349295  0.2950459284116876  0.0253636335785356
  0.1574395968433032  0.5231151673011082  0.3661188476738685
  0.0874382629764230  0.4508787251794732  0.4905314003084033
  0.0731830631796093  0.5024152940712809  0.6234675989120781
  0.1557673297629553  0.8481482707350220  0.5465042499089431
  0.2249208359142741  0.9204588395289214  0.4449557648644692
  0.0694233857926730  0.8574449908815126  0.3024066364617338
  0.1553054098351669  0.9245666926169054  0.2047632339475306
  0.1565216040754197  0.7784136038023096  0.8745366288707871
  0.1539488854902689  0.6971954798913079  0.7525640720152775
  0.2338259504715128  0.7697840237061986  0.6539947782456401
  0.0834856316956003  0.7167155035875938  0.5257316072723316
  0.1575331502463999  0.7853815109951611  0.4154851908459310
  0.0724229417794512  0.7933624827089591  0.1754723917609296
  0.0773169541789315  0.7262037176374339  0.0464412756875253
  0.0822402020168797  0.7004385218028745  0.9718804783317618
  0.1584862255404441  0.6287456752778449  0.8759200193347881
  0.0796850246948092  0.5656144593993508  0.7505652361873703
  0.1541886160857035  0.6429162241257180  0.6247529538313861
  0.0704349319636528  0.6479074200581862  0.3970000442521557
  0.0806030174626928  0.5802668316169427  0.2703054419939342
  0.1614448519133678  0.6633442995572425  0.1561484966181144
  0.1487800599691929  0.6037341006113066  0.0243233675209605
  0.1604391528300814  0.4717206745311404  0.8616612940011095
  0.0148700576120857  0.4337245777729588  0.7360941005068574
  0.0778782745975099  0.1280879535815569  0.9227102062490853
  0.2376090162092231  0.0694166924843029  0.7943489997310835
  0.2290898094397574  0.0726288482824258  0.5945852381616972
  0.1649823399679503  0.0028756496816474  0.4890663135571584
  0.0128645065332066  0.0157675134329603  0.0820118391536266
  0.9688341089860599  0.9956171079823106  0.7725197517794475
  0.9643961694266743  0.9795439745463180  0.5600712800106208
  0.9573094991421228  0.9967722486250968  0.0939394970912720
  0.9842645734092725  0.8464680661636961  0.7803843810314834
  0.9547601689077453  0.8458256350040717  0.3106906399882904
  0.8921554009731749  0.8626215034946414  0.0776056860615923
  0.9675769851319519  0.7066157444915722  0.5328282914242726
  0.8891616920740897  0.7100317486384223  0.2919331724370345
  0.9620573343492649  0.7755226635839991  0.1818283629085242
  0.9605253973735611  0.7327701053555198  0.0503518046369453
  0.9733656019485418  0.5628903041936351  0.7608371827035346
  0.8914420562745644  0.5721499610039931  0.5219953637356991
  0.9627122081709397  0.6414954629073177  0.3998975392397483
  0.9687580968460441  0.5697593758234670  0.2736767754475427
  0.8996747557470475  0.4286716096136037  0.7457506016591157
  0.9720266188667250  0.5024400029620359  0.6361632019498180
  0.9673080190980500  0.4380301019869814  0.5055253922272790
  0.9871354934667931  0.3445007732574041  0.8510571159168194
  0.9781368255064578  0.2904933152901173  0.7100928954866205
  0.8962366681832545  0.2661674123420245  0.9483519476054477
  0.0895724499845598  0.1006672620664263  0.1749223034268189
  0.1587961211882012  0.9168513414787217  0.6742227789672911
  0.0138935939672671  0.0196221003907079  0.2788508736396719
  0.0855905832652693  0.0721284932446414  0.5862249847670465
  0.2345860718716709  0.0790469826559831  0.3885090767979140
  0.1653214710541747  0.0065387427360454  0.2798421219249008
  0.2312298435355875  0.0948050777348519  0.1810495249701301
  0.1576150094741090  0.0203448354452856  0.0743814059250235
  0.0138409701780253  0.9109891571471471  0.6727032280245498
  0.0137591109503161  0.8552706084950907  0.5416623832849394
  0.0853917822836895  0.9266360622176195  0.4453043356900442
  0.0775274493358984  0.7791981110837745  0.6499916601706772
  0.0177468247572999  0.4758470592871907  0.8625545067416457
  0.0795505416778582  0.5257590186118709  0.1322659486470755
  0.0153495188029545  0.3145165343264639  0.4803084715645862
  0.0738262428258972  0.3846774296246963  0.3664075078887978
  0.0957060449750675  0.3091052872511645  0.2476537847507073
  0.0792698814685689  0.3742873410623063  0.1194723100646425
  0.0790359979608280  0.2409149259906266  0.5872434651480233
  0.0183900044035878  0.1574791791343822  0.4806515959710114
  0.0889935883029008  0.2342682343775877  0.3746479400621572
  0.0201675190624190  0.1726380836124472  0.2772169478947888
  0.1594159124837146  0.2353368939027324  0.1516824329154344
  0.0804568402703544  0.1505545125003518  0.0462669902747378
  0.0873096270471658  0.0621522786023940  0.7922793604542313
  0.0917417195188573  0.0808754405718378  0.3858457778337551
  0.3021257818195768  0.5810389844530297  0.5064294978061148
  0.0818484471414134  0.8442627976638309  0.7770892974459701
  0.1450262296699499  0.9965004508267944  0.3292901613842075
  0.4575472198011625  0.1531798321430485  0.2856098798043374
  0.6010932226771987  0.2222164729119378  0.1631634844828117
  0.5243852792258454  0.1480898006475613  0.0528462646074665
  0.3756587566533462  0.1258456217455595  0.9276446619986314
  0.5298464591315978  0.0756000923956897  0.7921486463946409
  0.5312556072657372  0.0751120918032826  0.5962355031640295
  0.4586640135506254  0.0010101284296608  0.4844150716033921
  0.5323724010152004  0.0801774144080148  0.3842172985080219
  0.5286828886805863  0.0821232395549548  0.1856136242175029
  0.5299341654470007  0.2261946043234593  0.3862052414976292
  0.4560445182639265  0.0204622026763708  0.0765218486508200
  0.3032659639198143  0.9907926970624371  0.3261530239540322
  0.3047101945801151  0.9250546932093126  0.8771726957391982
  0.2313175498509904  0.8447137349201059  0.7764847449203635
  0.3122821731432298  0.9118848544370083  0.6853715989665424
  0.3081716704946816  0.8469004717519049  0.5476806764452583
  0.3634968142508141  0.9240663375791209  0.4343461403610295
  0.2306860643800895  0.8552211907135813  0.3100479625286364
  0.3062421315558183  0.9232880075203450  0.2014518111045678
  0.1535162010009483  0.8709792857924499  0.0701114133117294
  0.2295575764552396  0.9853690955417606  0.5612694922235345
  0.4494782387840978  0.1538531494161165  0.4916969340064198
  0.5240519952273146  0.2359237300581586  0.5910178336187027
  0.4563778022624573  0.1540446433194662  0.6911393568459786
  0.3740625017130136  0.5765110802222143  0.2741887388476060
  0.4573367246441952  0.6548567955829714  0.1644161608872217
  0.4409181024007773  0.5859251675997901  0.0355266517117077
  0.4675983635463314  0.4724742956991616  0.8826191148888084
  0.3061895077665765  0.4269666961515231  0.7389807026561505
  0.3747583051485434  0.5015443056721747  0.6336088313686514
  0.3697239626444183  0.4434537035076582  0.5020287911332295
  0.4464962240604004  0.5104827469027207  0.3922562131728456
  0.4548809478129151  0.4409581055414243  0.2691399082959177
  0.5242098665950397  0.5204836704357229  0.1475812792957780
  0.4506885859366577  0.4346449839535749  0.0359296867287787
  0.3894403423469840  0.3442289754591016  0.8548532700640973
  0.3832833590057023  0.2932607110546539  0.7268134022759224
  0.4529631030494388  0.3663866732434615  0.6198076052435404
  0.4534133288018402  0.3105260484695651  0.4847146246566205
  0.5242274078581204  0.3771103318310413  0.3803340016543501
  0.5224732815500629  0.2983939831089621  0.2618035817013933
  0.5119602178771051  0.3694629301424331  0.1447110164039339
  0.4458705856771932  0.2778300087782862  0.0333807625667615
  0.3079494811623278  0.2601507974432325  0.9534389030911833
  0.4673761742139775  0.2112333709714326  0.8218860949515097
  0.3030788571136215  0.7705129359834650  0.8821507228419420
  0.2990385195173958  0.7023102202775497  0.7621279840419917
  0.3787927956570753  0.7701052392860110  0.6628669950403548
  0.2332763242283210  0.7146523112095687  0.5293970473600184
  0.3749337177793491  0.3776662818730241  0.3758515986942211
  0.3864232450971256  0.2962875501721159  0.2629418833036620
  0.3729690963143248  0.3638663663864726  0.1322605022279261
  0.3026871022381551  0.2818390263032513  0.0301020182386963
  0.1628247646090398  0.2587918084517188  0.9464892722562813
  0.3101070565212382  0.2077370629296295  0.8216137739940294
  0.3007458691239048  0.1524632743111594  0.6935085491760593
  0.3769509630336149  0.2281836700292200  0.5981199641897943
  0.3041079445476819  0.1438398714377369  0.4968111215879036
  0.3740157250114656  0.2279612900124270  0.3964336166605965
  0.3120658308985693  0.1603762965753816  0.2881696968046543
  0.4525304185601177  0.2282948600376165  0.1603150072675656
  0.3753897906194438  0.1494302579710087  0.0543494762927588
  0.2342410936977527  0.1339872012492636  0.9267623420963947
  0.3834178420226537  0.0743275845218178  0.7948282846162489
  0.3835581721272980  0.0743893567487048  0.5927443484891290
  0.3804007447727948  0.0765266757989944  0.3915536251025459
  0.3125043624755837  0.0103686208030383  0.2760078428435756
  0.3806287811928424  0.0888008172814374  0.1780921193718918
  0.2974130291385960  0.0202336454368891  0.0687661477817756
  0.0830938768201340  0.9917439893564965  0.5727886687249590
  0.3011025414732101  0.3141459009651421  0.4813215055264132
  0.1537617786840761  0.9259318588311077  0.8770201960030095
  0.3048563717724531  0.3670167499577087  0.6082067324548712
  0.2418598489624159  0.3371313465897874  0.8465692665375415
  0.3027455731150907  0.7820643424113303  0.4182683110313818
  0.1562117084276630  0.7208480655663326  0.2880498755833627
  0.2358198073750045  0.7950488645029735  0.1759789087418431
  0.2180972845759304  0.7411155332079509  0.0465665433279666
  0.3079845636884889  0.6198072340472988  0.8804623329055625
  0.2381820308031884  0.5635574442440142  0.7584679903734539
  0.3020146871533999  0.6393025488528300  0.6410758720227658
  0.1585739318558469  0.5859436992678559  0.5019797733608830
  0.2309316420632178  0.6543811494359416  0.3926810338665154
  0.2294581759644496  0.5845476469402103  0.2619942063716297
  0.3066280393435909  0.6499088402093242  0.1637299120743709
  0.2954542547612649  0.5970441684394466  0.0318067474325242
  0.2319197998834235  0.5367359433296874  0.9756766324790397
  0.3084698719670513  0.4679402142456572  0.8699616367851147
  0.1544985117334602  0.4270717089372310  0.7345691031449664
  0.2255640155605620  0.5109460386043730  0.6292952674021605
  0.2270842583608783  0.4463569981713463  0.4990768319541414
  0.2962845412137456  0.5193779475744460  0.3768047220454027
  0.3094287943487897  0.4440528941084620  0.2446473613801227
  0.3803071913696983  0.5164499440200030  0.1370424582412835
  0.3052949033494674  0.4413596250161896  0.0374111127374725
  0.2292593749828694  0.2837601425594363  0.7248254592863147
  0.8277146475028366  0.9889951252600260  0.7626072689271577
