Cu
 1.0000000000000000
    17.2079324499999977    0.0000000000000000    0.0000000000000000
     0.0000000000000000   16.1901773955141302    0.0000000000000000
     0.0000000000000000    0.0000000000000000   19.3447050000000011
 Cu 
 462
Direct
  0.1119487905125987  0.0123370295999603  0.1493071359837231
  0.8430668395028481  0.1685552067214027  0.1466087231622298
  0.7730932965743947  0.0834604010040965  0.0554416570322476
  0.6822689047108620  0.0126643885825413  0.8738516560474818
  0.8354424488108682  0.0279823183334971  0.5451053660420258
  0.8448334666144044  0.0084210749781435  0.3358594767922287
  0.8517082030386516  0.0110028873313287  0.1470481198860364
  0.5199437672711227  0.9806525469051469  0.9664299610668661
  0.6847909973635443  0.9294980734384464  0.8475085301119872
  0.4567723198495006  0.8835936968621945  0.7365479339178348
  0.5984645311064084  0.9955937049969060  0.6346492489805355
  0.6058274144956909  0.9230373659709062  0.5169839757184206
  0.7768764355534182  0.0830774527603226  0.2429916868724543
  0.6804964663259123  0.9851676302309325  0.4140824323761985
  0.6228079553508475  0.9875209089547689  0.1821791802976581
  0.4717601750581024  0.9220058763465475  0.0786211265563370
  0.5360369266791258  0.8321365707512215  0.9575748247388630
  0.6138644055985936  0.7893204864634686  0.8407418205653692
  0.6783869740841527  0.7528909906283325  0.7263229136862003
  0.6825362232869527  0.8664536746610243  0.6179780203420009
  0.5367459020331057  0.7831006657944315  0.5091627140346675
  0.6072918553907969  0.8593567789820532  0.3985898208321092
  0.4670844244858712  0.7848980519063380  0.2741681767698192
  0.5492471133567240  0.8530875456363998  0.1725227911203610
  0.5525415242433730  0.7854539445182679  0.0581865942127319
  0.5332225269747616  0.9241059151027269  0.2942718692272643
  0.8443336971025824  0.1657510373234456  0.3351822889002444
  0.7691300081201794  0.1004768915137269  0.4450366392250492
  0.9075080501609013  0.1674310683283892  0.5525957878396180
  0.7621216124078869  0.5772598081813841  0.3640739158338165
  0.7599656299789811  0.5092309056503243  0.2556721593841830
  0.8487793212484398  0.5828063811315286  0.1439723428193921
  0.7889115827508958  0.5031963825185969  0.0361133705579903
  0.6063329952809060  0.4197816078062341  0.9176052309921503
  0.6861043451504251  0.3916472650580065  0.7983116051653415
  0.7620053869400214  0.3455328846061367  0.6901734867499917
  0.7554793269193708  0.4501209912484500  0.5877992194763378
  0.7572168976639608  0.3765578689363996  0.4789684050493409
  0.6923921429619513  0.4420481952063131  0.3595041899062303
  0.8268243303686377  0.3678118251753699  0.2463259326001614
  0.8662886879823846  0.4299976786965892  0.1290431929564191
  0.8445022240309875  0.3653473679291476  0.0154720632855349
  0.5360962016677373  0.2840141022192332  0.9065065866861248
  0.7616973894501777  0.2470410669413209  0.7860136662719849
  0.8349601131192260  0.2130142625066371  0.6702093673695211
  0.8299275503606478  0.3057556799302674  0.5765248164807891
  0.8370463602674126  0.2415006705757534  0.4583219284036645
  0.9189039572851183  0.3031121017313121  0.3605380645504803
  0.7649110236366601  0.2371338252798156  0.2481248744811569
  0.9315492881888899  0.2980040662861344  0.1197228130385035
  0.8609655615541425  0.2215379492228947  0.0235621323767927
  0.6139922536132457  0.1483515985700412  0.8908123695864066
  0.8328215645104999  0.1088276338618287  0.7736226786606464
  0.7524458422080801  0.0620894183676822  0.6728560864588012
  0.4643275563881005  0.6944481473607738  0.9443515680389026
  0.5415948285524563  0.6518297137794853  0.8327241226992094
  0.6033576233035480  0.6134978298946336  0.7076407988645991
  0.6077858136292255  0.7270358075890171  0.6105599697695056
  0.6226219946022626  0.2366458750982328  0.2401330234811028
  0.7803980672297444  0.3085722024973787  0.1238531422422831
  0.7109649727268659  0.2258800881805245  0.0214892137150713
  0.4687365695115800  0.1410570521846061  0.8820606207228284
  0.6886961730838269  0.1120023983344059  0.7849539447616285
  0.6110924281900003  0.0640906317706296  0.6599843471378866
  0.7645449134128837  0.1562638034131761  0.5609598337116029
  0.6223837323931382  0.0873516492876054  0.4476730195678873
  0.6885044010618486  0.1700808231119215  0.3451074854850467
  0.6321466716938443  0.0805079935762912  0.2456487447081774
  0.6964251666968858  0.1716929116865180  0.1422199252973878
  0.6281543268726627  0.0902052313621786  0.0536323764048096
  0.4586766741404776  0.0185012610078048  0.9879965861459249
  0.5370626164330392  0.0032883331946578  0.8772324261341798
  0.6849537130185561  0.0147335444158358  0.5523063029392287
  0.6937636034827648  0.0102308142592040  0.3447869843453287
  0.6980407007002170  0.0080504799035236  0.1433675261525054
  0.3792109972514449  0.9923324683402506  0.9648274553682780
  0.5401112104551525  0.9211658608440755  0.8506308315376222
  0.3159105395604920  0.8865152213671147  0.7358087135471956
  0.4532483636638171  0.9881632737507769  0.6367790307476904
  0.4568472852762738  0.9150448655282701  0.5167720314163489
  0.5270538602677977  0.9907883221960011  0.4127745809512219
  0.3924130481462925  0.9193067088863991  0.2873604172304519
  0.4717694730955316  0.9778051414151505  0.1950819358579002
  0.7648296658091541  0.3111293085122560  0.3593749555756992
  0.6849130341048032  0.5163586842521802  0.4714314588927566
  0.6895446189992454  0.2409509545484005  0.4673166378086408
  0.6879407075427008  0.1987648818875017  0.6715172187944977
  0.4708175865137127  0.6443807527796255  0.4913025295552453
  0.5406417797159588  0.7236633924099763  0.3854699515965743
  0.5415175386163258  0.6536888657371616  0.2605882333175928
  0.6206868405623013  0.7175115141712859  0.1512766671810198
  0.6182925959242710  0.6653131979110726  0.0298635983334979
  0.3840297051491505  0.5535787829131725  0.9407691923965757
  0.6166480055539735  0.5288045021748321  0.8154480773937881
  0.5392871718879859  0.4824862944319214  0.6997781821950760
  0.5447282671661114  0.5807248721290802  0.5893810476820402
  0.5315523670015336  0.5117015394811235  0.4659622620246729
  0.6140561776205716  0.5790695474624445  0.3709491822180802
  0.6148523220754507  0.5141536435581919  0.2491380716325219
  0.6979302865057446  0.5893906202906088  0.1478958970943214
  0.6219130192482828  0.5225723283366406  0.0485715600212051
  0.4615334961406127  0.4145068045774775  0.9144829295665147
  0.5382841461003062  0.3763355118916275  0.8056883007520662
  0.6087621075592961  0.3475773341011232  0.6835773665196762
  0.6178509391463819  0.4479591866465005  0.5851938553728268
  0.6106391488653246  0.3766505177050546  0.4616251578920433
  0.5386159698110623  0.4428264448630148  0.3561440973124173
  0.6869702248860234  0.3746863638095690  0.2497739045387360
  0.7180431037198778  0.4431970399376347  0.1286451512183828
  0.6955186080475345  0.3766381645359004  0.0189045271044456
  0.3920114891548170  0.2767689685104141  0.9016887308439183
  0.6161772924091179  0.2548173869237620  0.7840544738211311
  0.6825478458337393  0.3099989935346653  0.5793111086470433
  0.6872549772822940  0.5932571622358098  0.6013429773160154
  0.6780789765943090  0.4833510162727011  0.6968523169518486
  0.7610465268301306  0.5222573225232138  0.8289970046066871
  0.7544274864351876  0.8860458009392630  0.7319006673919302
  0.9002381471459112  0.9967116668053425  0.6316871981247582
  0.9023883183014239  0.9273115624981892  0.5171752425276066
  0.8282945825371368  0.9133401281850185  0.2888285192252871
  0.9074441261535752  0.9887376961164376  0.1816622429755327
  0.7660732783153156  0.9307580966921541  0.0667729231332298
  0.8255865291358696  0.8262317558956108  0.9556518179005578
  0.9046314698312290  0.7890487167420809  0.8379348509062300
  0.9708974203347712  0.7555963346730576  0.7203367794959913
  0.9756510419704723  0.8601906178999480  0.6240365257573068
  0.8247264606736645  0.7872328008764432  0.5049806910986755
  0.8974313020969582  0.8477015638852571  0.3998614866445365
  0.7638766169726567  0.7804941471029381  0.2788567982814938
  0.8405156904831992  0.8585229400641584  0.1693746428286193
  0.8468499784818716  0.7824830073367314  0.0543767661486698
  0.7489183992583607  0.6829473468784029  0.9385670394043232
  0.8281202443353385  0.6502979208043898  0.8338820623007691
  0.9029287667269986  0.6231394784193278  0.7130944876130192
  0.8971233046071145  0.7181847618901787  0.6112681739008170
  0.7589835247755171  0.6501126232670797  0.4858695182997109
  0.8332399761948159  0.7184009423503738  0.3813964854982285
  0.8354773164512277  0.6472281582696214  0.2554860619482180
  0.9168177101369317  0.7156647153827634  0.1594546156170385
  0.9150627055721618  0.6517432415954074  0.0297860577351791
  0.6780731653209158  0.5479519143635270  0.9337595223085596
  0.9702988591752636  0.9334325578139946  0.8451564652963178
  0.8989771008195701  0.5221955566774437  0.8225766430658933
  0.8080248609413853  0.9874097304323831  0.9597976552240005
  0.9087516626670626  0.0301997121966396  0.9845486142073506
  0.0276316882566562  0.1665354635647244  0.5539656717432502
  0.9660624408715646  0.5603792025324477  0.9350105106281020
  0.9760520198346084  0.2781895829631237  0.9047231529247928
  0.9574443224293342  0.9891268209447887  0.9638090888436915
  0.9011505170686558  0.8936862360610099  0.7316680455969734
  0.9746166353064688  0.9279415741250429  0.3008938363236867
  0.9160680558691989  0.9284109945528946  0.0612365244132699
  0.9735299271819261  0.8358548746665742  0.9487455352769664
  0.9751570837320438  0.7821494717695737  0.5023598188755016
  0.9068048860803147  0.7782705766552186  0.2826614569723345
  0.9841471236714439  0.8487392300941931  0.1728484616333000
  0.9017258331345902  0.6910757321817330  0.9382155220252782
  0.9756859096108318  0.6521076600854502  0.8234812833796121
  0.8998952820157079  0.6581915958937936  0.4844944650228580
  0.9778302694929514  0.7083886987510593  0.3806779426204742
  0.9827059278699111  0.6445907566552433  0.2608777182179829
  0.8279459061335401  0.5533934853758625  0.9482596141941688
  0.9760462085612149  0.4901576124765533  0.6986512588328434
  0.9718969593584151  0.5840478746315052  0.5855298646322082
  0.9785624899405042  0.5118188945880865  0.4735715794063550
  0.9007611617513062  0.4209736886295946  0.9272667895426681
  0.9708044399604790  0.3775893585607583  0.8094412657106949
  0.9866517825039465  0.4443582378381105  0.3622439577134932
  0.8311653515934159  0.2821487736769797  0.9047696772837841
  0.9017316444079835  0.1512978294132694  0.8761365190112750
  0.9783997742854924  0.0181121361794539  0.8698660692938973
  0.3196123207120097  0.9184728699685043  0.0732139621669086
  0.8286142025737671  0.4806456722279758  0.7062295599751977
  0.8305493566137284  0.5175940011675801  0.4768076070428575
  0.7505455558084784  0.9947536894944340  0.6391517730562448
  0.7605583798650953  0.9211349779211908  0.5094832151743854
  0.8314210476227201  0.9864523598229482  0.4021877045940996
  0.6826756938483914  0.9230867786475221  0.2865953499937067
  0.7652364549466837  0.9871132543726870  0.1873330453992453
  0.6178102602326289  0.9216785173639667  0.0638729047561080
  0.6771491728513847  0.8334645364352758  0.9474014982394413
  0.7632025092590365  0.7928287865032039  0.8362237883699964
  0.8281899796160579  0.7517359693124337  0.7196802690968926
  0.8231922844978393  0.8642424573824588  0.6168666050994318
  0.6841459460168906  0.7879184017644899  0.5058956701588372
  0.7522656927328885  0.8495545392583567  0.3935238350752833
  0.6171652088859751  0.7930511435479757  0.2763754991352932
  0.6962973186822337  0.8434150141888206  0.1635952835672606
  0.6979825879662841  0.7796911911079284  0.0451597736951793
  0.6039329393694824  0.6873018390051868  0.9481148717439734
  0.6848084311837243  0.6585683675529903  0.8323829440666065
  0.7543926187948280  0.6217250405511952  0.7201403433135838
  0.7590997502433827  0.7307849944272553  0.6096294825896804
  0.6137598026775146  0.6483461200780584  0.4880406550526364
  0.6816645322779612  0.7108778623355897  0.3836141466101453
  0.6937810373029445  0.6462460813218786  0.2669310542600679
  0.7741858159723309  0.7186974184100694  0.1522019849876236
  0.7660209768547761  0.6478581698964756  0.0394838018982458
  0.5312949275902115  0.5553082265947319  0.9376572297173830
  0.6109006561680220  0.8919259094565654  0.7336944398997043
  0.8220590861861501  0.5834178630046516  0.6063159143548587
  0.8316593098318444  0.9260206563215962  0.8519128360964932
  0.9838914276421398  0.0313856164354234  0.5452604472386633
  0.9036493646277651  0.5854870188379460  0.3679250988836485
  0.9088969445018946  0.5068899800956419  0.2511179415762611
  0.9319502660530259  0.5008060442872984  0.0335907164260198
  0.7629758695966987  0.4192565981171891  0.9208981217340870
  0.8319789298684747  0.3863909915829809  0.8014907696964106
  0.9076184643553735  0.3509621024493184  0.6916881131038186
  0.8935145038298893  0.4492747991614012  0.5899600174828205
  0.9062702489281332  0.3774967097921034  0.4756083124555271
  0.8446300720456397  0.4445558885445745  0.3615409229554032
  0.9791610511000118  0.3715610120136079  0.2502701643679761
  0.6840587769159915  0.2836064476371511  0.9012131485075636
  0.9047476952990945  0.2440701297597849  0.7841733694052202
  0.9819795186957512  0.1996110739745505  0.6666218223539728
  0.9827466067836641  0.3097951662436244  0.5749740045144137
  0.9820201976095043  0.2362691034390359  0.4576292323920166
  0.9103148952098543  0.2437798302846657  0.2402467496919704
  0.7617090119969643  0.1453188955427351  0.8907089821219811
  0.9729313660224185  0.0949550249018905  0.7665923310797452
  0.9009703675934642  0.0725525526411174  0.6533003475628090
  0.9147140291685653  0.1008227802500388  0.4379856141512631
  0.9885055787164020  0.1735829465670795  0.3417370541447908
  0.9275220757273487  0.0862460406483227  0.2445528375852722
  0.9201940599784258  0.0911008361258435  0.0500189845231553
  0.7535674179729825  0.0313670866816922  0.9803097281659244
  0.8357388237539252  0.0083284262094885  0.8726006677279394
  0.6571583923785104  0.9902633125069563  0.9679394180474709
  0.3929215345682043  0.8335077725273150  0.9541268528002887
  0.4625824309880993  0.7871772116152501  0.8464539779748516
  0.5290767645359974  0.7488391511458213  0.7244050762211164
  0.0229344940856040  0.6511008767993993  0.4880975181580698
  0.0935659893876442  0.7129593713380379  0.3832833067239853
  0.0931051554075573  0.6461904920606859  0.2600454491293615
  0.1704996944592259  0.7094016586216868  0.1522123237340660
  0.1708675480650204  0.6512058787372084  0.0283282944867861
  0.1683146556633536  0.5197187462620674  0.8138869266809706
  0.0971056360114895  0.4682060308899011  0.6941642428767977
  0.0972329028988023  0.5852028959474040  0.5962563140663039
  0.1003122966699000  0.5099844489687181  0.4881853975028311
  0.1754776312479073  0.5770312745520352  0.3675787508778243
  0.1701167315426089  0.5129245032273693  0.2444701276137324
  0.2442249954903791  0.5848631837956692  0.1388960183161233
  0.1953039526837519  0.4986504162699260  0.0406365721265848
  0.0250909995291153  0.4212454583509826  0.9120946791382968
  0.0943313340935388  0.3824750369611638  0.8005034194111520
  0.1727044915846353  0.3388312903400936  0.6914296444427562
  0.1702701491601914  0.4463038619798649  0.5841186257428069
  0.1707548093611908  0.3692818523046953  0.4707852872401000
  0.1046602914227501  0.4492253864847851  0.3632313079987526
  0.2470271915206175  0.3699489234390111  0.2445580069584936
  0.2716297985583968  0.4363286778880125  0.1376657074894659
  0.2693511982608927  0.3628643809291941  0.0120034138540757
  0.1650016487018461  0.2509631981477150  0.7895753644214275
  0.2487572076097962  0.2062323726410929  0.6786251069737171
  0.2469045736520194  0.3088439722187664  0.5721980510946023
  0.1680020091547953  0.7209148122732117  0.6074014827313214
  0.2433730628109247  0.2363679287922679  0.4589474225634353
  0.1737458717767107  0.6156596344965829  0.7083179867565833
  0.0220973801533024  0.6893648182539043  0.9372385104864617
  0.4029930524860934  0.1752382712337150  0.1479320827068703
  0.3306950002003291  0.0903658225611806  0.0562635873744266
  0.1680025902821346  0.0327012289503241  0.9875106650631273
  0.2443214626287075  0.0101566952442799  0.8752318786975561
  0.3899624341563475  0.0292423415872049  0.5455706096319384
  0.4091506777736101  0.0128373329506973  0.3376118943142322
  0.4021457688253535  0.0147767805078747  0.1532513677515374
  0.0774408679759780  0.9894171204199076  0.9687871952557562
  0.2499636279662406  0.9252485832494718  0.8587674249878717
  0.0214032816592093  0.9039146601205191  0.7309805189585470
  0.1675487298301196  0.9942966222357363  0.6414211279003744
  0.1624034283677118  0.9117403927795760  0.5135049875405185
  0.2414053656399609  0.9755012753679300  0.4148061446271734
  0.0909247656303996  0.9162740058590928  0.2922558136709764
  0.1651248476977836  0.9868106017284142  0.1927143629225673
  0.0145252328091280  0.9148039787297675  0.0615053318207750
  0.1025217428140240  0.8246320204901681  0.9595960496683716
  0.1685378085616555  0.7894007820629696  0.8311371251202848
  0.2448520318895137  0.7471405903871471  0.7233712015768656
  0.2396503610751912  0.8507342669125634  0.6219842845884704
  0.0921044541292349  0.7791970643417684  0.5007986681626835
  0.1533268004547518  0.8489121744623490  0.3994531061600581
  0.0233356462879419  0.7737987294214717  0.2745610491346342
  0.0937287050426560  0.8453359319922668  0.1752935751669517
  0.0907847139416216  0.7785546995457607  0.0504015181415277
  0.0890732939273014  0.6531576794635401  0.8148794463394508
  0.3277091679308631  0.0880372501756522  0.2501926237696573
  0.3225412025022215  0.3086833810197646  0.3510832809288128
  0.3339952223603713  0.2999373372587349  0.1162748410999292
  0.0423171829106058  0.5060314348394391  0.0349967859422001
  0.0160484837909739  0.3367806642605300  0.6791368749226211
  0.0124174258366523  0.4463594512410580  0.5783392664814482
  0.0202383537947929  0.3808135357099514  0.4587923413667978
  0.0931208458457192  0.3686024280012256  0.2434931160749158
  0.1241228271441755  0.4337839250422892  0.1369264871188267
  0.1101054545922511  0.3724010275160795  0.0182066617195767
  0.0133489148488608  0.2543788494187950  0.7858740931950117
  0.0958184389548785  0.2045832245590342  0.6773482717880683
  0.0906371075974324  0.3171329487210982  0.5654106640550993
  0.0939361675027960  0.2356267386430280  0.4492031540413777
  0.1702579454860656  0.3074048280123259  0.3557925799333723
  0.0327930869463634  0.2376155988768215  0.2436637053912172
  0.1924918774887449  0.3030070997935030  0.1121445118961496
  0.1178454896247573  0.2219888398970156  0.0137299845099735
  0.0870445783857083  0.1079937949439339  0.7752872168378894
  0.0252379085204974  0.0616879403701772  0.6520080042574959
  0.1680891782556944  0.1800745369575048  0.5637926502368477
  0.0160323865636745  0.0959803379416722  0.4397018460607181
  0.1007673193765936  0.1590123835499404  0.3351099176751467
  0.0283806451715818  0.0785994289419987  0.2473236216318629
  0.1087938501873884  0.1728232266641087  0.1391338094843010
  0.0347392242930381  0.0910267171109194  0.0532498427864372
  0.0984648928581771  0.0265555272962105  0.5473798902593761
  0.1034056374971415  0.0103728757044748  0.3495221302159946
  0.0961676964858145  0.5753759498853995  0.1366835265774279
  0.1743031728951260  0.2411671350085956  0.2386804296059312
  0.0291323914977362  0.5123686106154394  0.2487038442819368
  0.0233321595239060  0.5170134022173420  0.8131942306693227
  0.2565658156683430  0.2120136558051633  0.0176018450526905
  0.0210170063167582  0.1510075299381505  0.8847073398121094
  0.2390791129006320  0.1115391544911310  0.7759540659834308
  0.1715492104340518  0.0753752517928057  0.6658826019833336
  0.3196210376220996  0.1661278089826425  0.5658552301521269
  0.1701399766361820  0.1000815901007990  0.4383733171428566
  0.2534405128374385  0.1756088663083349  0.3380047666790478
  0.1774302191080485  0.0965609368919100  0.2403191209170678
  0.2536572733350077  0.1748862059128262  0.1480303007980740
  0.1838447026795481  0.0887290276482761  0.0466847387954483
  0.0923444597203773  0.0114167184979877  0.8773616604647118
  0.2400751651602397  0.0258513966544328  0.5471524378376408
  0.2510974074052690  0.0166050495426663  0.3445181769378236
  0.2528105708016072  0.0116205457890286  0.1590307270128962
  0.0957905448425908  0.9276883341573859  0.8528898476353090
  0.0901158363740554  0.9916468674522038  0.4065661637124990
  0.0195151408209996  0.9749083232485383  0.1877517646301665
  0.0278691950002395  0.7919022988166541  0.8306770509035937
  0.1001356339587443  0.7581534406879351  0.7168577913180899
  0.0912147481727242  0.8663795556461000  0.6195236629351548
  0.0114944212835981  0.8505427927906762  0.3903911949032048
  0.0237093111671297  0.6127936992528558  0.7051801772112835
  0.0189366285546988  0.7277152318924871  0.6056904201950871
  0.0189547016149519  0.7206183362135160  0.1485213912540930
  0.0214319893497721  0.6447328181005142  0.0314402571659792
  0.0284768798589745  0.5795574976440276  0.3750846807950808
  0.0415682841084141  0.3072504133979010  0.1253677685961096
  0.4031238061374421  0.1646701350224708  0.3382632353401102
  0.4626004459356184  0.1696731685298395  0.5523838435375471
  0.4018633409384403  0.4513933676713115  0.3597057954618592
  0.5424949948010750  0.3610175821406718  0.2457779790387089
  0.5672144084340591  0.4393860872536268  0.1374692713070580
  0.5597742351086460  0.3713571847225668  0.0140866712622399
  0.2413507396700641  0.2795299018163323  0.9111538532120295
  0.4699708839803122  0.2362629268544589  0.7861842555882868
  0.5425594999357404  0.1912603316264489  0.6756527173714983
  0.5369068743060994  0.3116604947858777  0.5654933740266399
  0.5418214682147940  0.2334278745336165  0.4514311538997366
  0.6197512255459836  0.3089427975719986  0.3511246359145827
  0.4648860197611945  0.2339961203147005  0.2410376637948216
  0.6365864845663083  0.3040880020944778  0.1226641864013956
  0.5592831825069141  0.2228967978298345  0.0222956359375864
  0.3139928193407104  0.1466406846422127  0.8865011123198835
  0.5399775511671072  0.1097170620409166  0.7784146876367464
  0.4632681612485060  0.0682721795292574  0.6488753640854182
  0.6170954736052559  0.1556584981246304  0.5543585441080651
  0.4726992768384560  0.0961285759715201  0.4422038226998036
  0.5490274472224581  0.1617239041792427  0.3427709287890408
  0.4722802840268006  0.0832071610364395  0.2436947216305447
  0.5481842314530936  0.1652877934801708  0.1437655678905418
  0.4797710154307352  0.0899519913945218  0.0457645903620659
  0.3910224104232812  0.0171424124008650  0.8795224584711944
  0.5382306823850881  0.0226581024281247  0.5445108881215820
  0.5525996369773057  0.0136094060228221  0.3466324505853156
  0.4638062851647235  0.3685530153246097  0.4647577980641218
  0.5408155367904177  0.0089275549134573  0.1404985240147114
  0.4652875787526700  0.4475268257261105  0.5838394795888596
  0.4016483238228890  0.3776573009911052  0.7994333591543528
  0.5359718404171211  0.8596038423651330  0.6300226599475159
  0.3847247334469865  0.7845089270779869  0.5014758560546677
  0.4553973725646511  0.8528466588378968  0.3970286701192910
  0.3172465513136065  0.7830821360407003  0.2808780232110029
  0.3846486057655346  0.8555211199597372  0.1727657516617598
  0.3936061025739324  0.7888572426201937  0.0505307524720593
  0.3176812345634236  0.6929534138931401  0.9456852663299856
  0.3947212859381023  0.6556839025555324  0.8300257098777164
  0.4655380446359202  0.6166046519368639  0.7159686591240346
  0.4594420188463722  0.7212915839324088  0.6063572693406286
  0.3183977645728147  0.6418421765184791  0.4891158846826563
  0.3917784570917466  0.7104084419077377  0.3796388986030028
  0.3906685038736306  0.6478396401427444  0.2595543586733428
  0.4658280271782447  0.7209456951960969  0.1474668391169577
  0.4716462740995941  0.6603348707420121  0.0277028003270149
  0.2430505371375978  0.5507807900997922  0.9340334990892862
  0.4679154365811100  0.5191628536501375  0.8200074645749315
  0.3916349186389326  0.4819427549891455  0.7001762239331124
  0.3921701369184535  0.5869261630443866  0.5961477572286576
  0.3942058259881186  0.5059758455782460  0.4778466510603289
  0.4731513939084530  0.5841528765693141  0.3617683753771385
  0.4748709497055237  0.5036163902698327  0.2466205868737729
  0.5370992274554169  0.5888161979249481  0.1409120738724113
  0.4777469489078567  0.5071308668941447  0.0440793746919380
  0.3203927747287268  0.4106340860476995  0.9275149194572883
  0.4638597488799416  0.3430066615141444  0.6843372643831995
  0.3173813728563306  0.0996862886878711  0.4483191912205438
  0.2200663697398463  0.9850688048777008  0.9698003924071212
  0.1707478358331188  0.8848166606084403  0.7391067736623537
  0.3193792886489393  0.5803110409624214  0.3707630847821148
  0.3278689779491782  0.5073964600309556  0.2406861464157766
  0.3924031689815239  0.5827199089474506  0.1364767516485780
  0.3329921965726916  0.5041599297126086  0.0427301682811915
  0.1787883137000575  0.4182621680002925  0.9165610176014575
  0.2464652413834876  0.3787752627995419  0.8082884954823558
  0.3197244782885000  0.3472067390265033  0.6814010603935292
  0.3193252438063818  0.4510104194275376  0.5771451412673392
  0.3194821481880003  0.3719501368419588  0.4634706241320302
  0.2486374953778947  0.4403187515247536  0.3568419626972859
  0.3901059726091614  0.3741798838742550  0.2487607073873706
  0.4193477191967940  0.4255628909703045  0.1362803154661705
  0.4111241862179671  0.3748160720856860  0.0166610191264228
  0.0944405860333325  0.2855458951943287  0.9085898440942883
  0.3252509992855068  0.2447124945557925  0.7874559214007141
  0.3956348181155255  0.2140642818847268  0.6760766059756402
  0.3907271977349028  0.3161261654350476  0.5723789791573456
  0.3930377600360698  0.2327669799838777  0.4513381051817540
  0.4697366896625632  0.3059162711292692  0.3518328400458941
  0.3230566624522052  0.2442616038816718  0.2390112694920912
  0.4937965237654103  0.3097334003978543  0.1159388318405477
  0.4112549398693159  0.2242741761905050  0.0239033110093952
  0.1640892787791016  0.1448124156074211  0.8885171678761706
  0.3924851079363691  0.1084385090334778  0.7706244421923212
  0.3208117675403822  0.0603537981015456  0.6533882269075703
  0.2486613215988071  0.5053705402897003  0.4776347067582580
  0.3921643256450603  0.9154278137720440  0.8523780796864058
  0.2423421429109573  0.5744618153680040  0.5912265139220272
  0.3248599005861392  0.5066737996354470  0.8181878452010517
  0.3084755963811329  0.9856926399199777  0.6438455639411408
  0.3108593807270553  0.9153722245108513  0.5266610423886019
  0.3819475258923392  0.9890156424224025  0.4115546088710066
  0.2370695745612366  0.9131918901551710  0.2935584957227315
  0.3098970338531286  0.9862114730244452  0.1895351983914982
  0.1625585893673123  0.9133154218467107  0.0681324682904188
  0.2441872222133228  0.8288506277562582  0.9533462774438797
  0.3084413098681125  0.7838233261899401  0.8388756768324981
  0.3891407200985380  0.7429158065364799  0.7267829879028914
  0.3853354982806200  0.8467874293678612  0.6193375654991895
  0.2372229921788191  0.7830388999486612  0.5016205985048624
  0.3143002357032149  0.8436991370793623  0.4027408275287734
  0.1753654736714171  0.7799567842447395  0.2842174383119312
  0.2371799887557089  0.8542425669522982  0.1705842761623922
  0.2415605266395614  0.7817541703566460  0.0493469660043928
  0.1715236408311214  0.6866656507937560  0.9395750671824669
  0.2401233987294039  0.6481731757099024  0.8249752322405540
  0.3184721488722487  0.6087974490315377  0.7059400750748076
  0.3137661796783726  0.7148308764648686  0.6128241552404138
  0.1709843546602252  0.6478396401427444  0.4935873925190384
  0.2428308710033319  0.7119093519599484  0.3891608840765474
  0.2421317748141206  0.6435036777696915  0.2657989615246138
  0.3147924505596255  0.7195127275742335  0.1613569449624592
  0.3232803964778464  0.6494579053019182  0.0287625218373712
  0.0964971956872133  0.5547399808136481  0.9238498338434217
  0.2485154586366358  0.4804356683523579  0.7017735602584790
  0.0186478663797869  0.3051009619651056  0.3492274759423838
