Cu
 1.0000000000000000
    17.2744060249999976    0.0000000000000000    0.0000000000000000
     0.0000000000000000   16.1810892951712049    0.0000000000000000
     0.0000000000000000    0.0000000000000000   19.8062699999999978
 Cu 
 470
Direct
  0.0072970967752856  0.0048602814156072  0.1263354988092154
  0.6737454819376347  0.4008904795749085  0.2182861790735966
  0.8135476839065444  0.4092397320594318  0.0350714697921415
  0.7617658745230289  0.3221195157201840  0.8893060126919407
  0.6818499574140932  0.2494606249277790  0.7877220193403404
  0.7593055873248182  0.3210565464919546  0.6892380544140820
  0.6842291998575392  0.2427923470367349  0.5986354321131643
  0.7534240536933312  0.3140174653817607  0.5010097812460399
  0.6863074189261454  0.2439850973916668  0.3976132305577980
  0.7519652481075687  0.3199317767272002  0.3093078605916208
  0.6785676448461274  0.2451902078539038  0.2211590067185797
  0.7400285135129563  0.3238066703673157  0.1281480561458567
  0.6609461995958849  0.2486201376310394  0.0347786332307899
  0.8469612785137719  0.1821042201692162  0.8976619525029198
  0.7586630181977563  0.1083885402022340  0.8046964420862687
  0.7518552587975311  0.1662214822822992  0.6916211381547361
  0.6845823234318705  0.0810974232728082  0.5876641588749422
  0.7537424438013349  0.1609128161948045  0.4965364503260838
  0.6704052802591228  0.0926973839785447  0.4035759888156630
  0.7468594285573998  0.1646023082253451  0.3061220007603654
  0.6673950465107240  0.0842554306892339  0.2189879770395942
  0.7438723504532194  0.1571677036813914  0.1254367935002400
  0.6633312309503855  0.0924687219934022  0.0355965560400824
  0.7684404889689981  0.0483060585926601  0.9206395247565543
  0.8241298133143774  0.0246611733182072  0.7146592972831333
  0.7515195019563635  0.0093655405282775  0.4946986484582914
  0.7527699067441600  0.4839195003962034  0.3127916058904578
  0.7368677680771374  0.0016590136236139  0.3056675991996475
  0.6821741364331515  0.3994752472884867  0.3978858714942288
  0.6838066093505526  0.3967004031985157  0.5933946674462179
  0.6153874695960786  0.8167648300123769  0.8406698989764352
  0.6998708375271043  0.8827121825381706  0.7434885518575685
  0.6852769927584241  0.8106465768964052  0.6315694474527510
  0.6218536832440817  0.7174081074411859  0.3994661791442811
  0.5956878052772298  0.6935840006108106  0.1871041341958885
  0.5725090054145583  0.7684924309327246  0.0786738239961388
  0.6997724260391759  0.7366775147296708  0.9374220890657352
  0.6923336753339977  0.6693643703466756  0.8268863849679926
  0.7643535177644409  0.7392854973710246  0.7224346128776392
  0.6154395697955701  0.6769843765002037  0.6106770734721886
  0.6889761069223220  0.7513613222080033  0.5135310686969329
  0.7433050371698674  0.6325745109533619  0.3080860252839127
  0.6685123063442643  0.6141146906933539  0.0954664861177800
  0.7723422150198074  0.5855134023895985  0.9211444153795745
  0.6156363927714270  0.5317407555592236  0.8064837548917592
  0.6923626198892709  0.6054564355262059  0.7124024361982344
  0.6858211503975578  0.5434086968551377  0.5920112671391434
  0.7549696929449130  0.6273276454023921  0.4908008928485776
  0.6724892882387835  0.5569800946760207  0.4042676889692003
  0.8242976917349613  0.5642725579859671  0.2206036270332576
  0.7475540978839534  0.4888573632645483  0.1241493224115392
  0.7702061068406552  0.4063598270573682  0.9972364811749006
  0.6903480788422655  0.4663496078621548  0.9019080826425170
  0.6878067468892902  0.4016135458522507  0.7831224657646290
  0.7654997221532545  0.4725420216219567  0.6837246488107048
  0.7580899160033494  0.4720476173297570  0.4894528348851147
  0.7415046858318826  0.0073137627156487  0.1220388796073164
  0.4686501521837422  0.9784041332934315  0.4143655014295977
  0.4768009389486377  0.9535664976640464  0.6412078094462005
  0.5947384238642731  0.4804463102435002  0.1230082696035144
  0.5429160921033754  0.4514247782913751  0.9043467043517028
  0.5339953801682165  0.3973863891539428  0.7839706820113026
  0.6144091436278489  0.4696621166198931  0.6912424701874712
  0.5352457849560129  0.3937895979281897  0.5974337924303769
  0.6062004677524073  0.4640938882789935  0.5053568895102408
  0.5356162752635082  0.4025652741147352  0.3999407763299198
  0.6058994443775676  0.4791917593520432  0.3114940369892970
  0.5252772801199689  0.4042833290301293  0.2144035701825736
  0.6643385014738882  0.3983319373627748  0.0308354374650047
  0.5504300986522634  0.2772276059884473  0.9944949250919027
  0.6112773427473033  0.3225150391539438  0.8922293293992256
  0.5358941429941295  0.2399866026785013  0.7782805646898683
  0.6091296567460416  0.3208464246677698  0.6848657016187301
  0.5364209339000994  0.2398382813908415  0.5980800524278422
  0.6148259452237812  0.3204261810193999  0.4983338609440343
  0.5309909353308723  0.2408765304044609  0.4090389053567380
  0.5944374004894334  0.3183002425629411  0.3118878516752523
  0.5227591038112123  0.2501095305612912  0.2119851440983084
  0.5954041486355538  0.3283860901238159  0.1281379583333963
  0.5184232094313068  0.2530883164217945  0.0351371055731341
  0.6956565102793458  0.1832907904704954  0.9081636774617332
  0.6207537901437050  0.1095071299133359  0.8018438100662063
  0.6114799546342147  0.1585829359678132  0.6876627956702601
  0.5292311063702698  0.0837981067189491  0.5935360368206635
  0.6734039361854125  0.5590998530788273  0.2187203850093934
  0.5225912253906285  0.5650512447461816  0.4083320584845104
  0.6001742113445551  0.6144360534832837  0.5002423474990497
  0.5387596539661632  0.5465667042715636  0.5980093677406196
  0.4689106531811998  0.9114308918613234  0.2954385151772645
  0.5540771126166697  0.9813890992075873  0.1947027380723378
  0.5700255625721292  0.9203363491745714  0.0740237813581256
  0.4011225047316788  0.9440183147709389  0.8642432421652336
  0.4729976243857569  0.8861915527445264  0.5234875117828851
  0.4029170671586090  0.8495685547998300  0.4110079787865156
  0.3891684034039026  0.7673367608997075  0.2948427442421010
  0.4915279286715739  0.8577942062113035  0.1747595584630523
  0.4851832821557177  0.8699318315848071  0.9534624641590770
  0.4668382230236484  0.8075689101774620  0.8377415333629199
  0.5474024981707007  0.8835341296739528  0.7362282246985425
  0.5411562631427731  0.8208745656912876  0.6236830559211806
  0.6300507812974139  0.8699874520676797  0.9515186352604504
  0.4719729871290902  0.7169013430416810  0.3986381585225287
  0.4367416744507142  0.7611072668179907  0.0636937192111388
  0.5536892555760107  0.7341560528394518  0.9407291226465154
  0.5409015510563701  0.6674238334997913  0.8313950582315602
  0.6211705917396373  0.7404164471894312  0.7315327419044575
  0.4735533598469997  0.6854448699504722  0.6161096965758823
  0.5456889804985351  0.7531782579818371  0.5018125573366413
  0.5981365146533312  0.6256034104333456  0.3095502080906702
  0.5197083476854311  0.6154928426578605  0.0920837189435468
  0.4372279429793015  0.5415794009739987  0.0027635188250994
  0.6211127026290911  0.6004567721213360  0.9256076484870702
  0.4718803645522164  0.5327048439290131  0.8133149250212183
  0.5380765624617188  0.6083919610111418  0.7102869444877808
  0.4521517556780945  0.7077610436896382  0.1873010415388663
  0.6433421210788060  0.8457245614279771  0.1827873193690684
  0.5304062553143563  0.7752966700041233  0.2860626963077855
  0.5456253024769345  0.8512062690177420  0.4001376836728976
  0.9750467245081442  0.2390163342550593  0.7810776587413988
  0.9718396677838886  0.2408023697606309  0.5921778810447398
  0.9702419283328154  0.2457525927362808  0.3899035507442846
  0.9700161608016854  0.2464200385307506  0.2138885817470931
  0.9550981370139471  0.2439418370160993  0.0345009433881291
  0.9760887284979747  0.0860723664630682  0.5862908563803280
  0.9669596157648497  0.0875617593933197  0.3986735008661398
  0.9585599058246059  0.0882168450804844  0.2088396755168946
  0.9606728583595400  0.0885938283532867  0.0312443988696507
  0.7660149352371151  0.9903378168964029  0.4188186367246331
  0.7621189980973604  0.9436351514444842  0.6346543291594027
  0.7720064581786398  0.9233213150887273  0.3046729646722983
  0.8570339837487990  0.9844729459801832  0.1947027380723378
  0.8552452102329234  0.9178890479281827  0.0745286719811453
  0.6973179277520198  0.9389692109368492  0.8585985649998712
  0.7555370062282650  0.8810435680519965  0.5261331386475092
  0.6855895939553733  0.8569846191828264  0.4094024266053126
  0.6812247550201949  0.7757230937061457  0.2949235267417843
  0.7977439567274502  0.8441115674246754  0.1696601631705515
  0.7787158060909365  0.8703644353404818  0.9526445413497848
  0.7601855018051195  0.8033108532108912  0.8403871602275440
  0.8419191369852037  0.8666440430416791  0.7331483918981213
  0.8329058024731710  0.8152136365456005  0.6204315603089325
  0.7580725492701856  0.7205290345356967  0.4008091882015141
  0.7380487059322784  0.6987072650887302  0.1908857649623074
  0.9826996649223432  0.2764859995501476  0.9883756507409017
  0.9728411493963366  0.4136831906355770  0.2122173937848974
  0.9784737598524755  0.4035355425381771  0.3993702499259074
  0.9787516275830968  0.3986594802063573  0.5885022773091553
  0.9125612185846490  0.9902574761989205  0.4054895242769084
  0.9135684891081518  0.9458785109203408  0.6408796305412378
  0.9064076061335953  0.9121168778167505  0.2954031728336530
  0.8448309592456742  0.9405513046718882  0.8534183872076875
  0.9105408886265890  0.8914260581881911  0.5191656480498349
  0.8339883288403835  0.8590054967271927  0.4091398834813421
  0.8209343344122310  0.7718234798514202  0.2881630412995480
  0.9366488774828947  0.8481286022987983  0.1836557312406627
  0.9263851381830657  0.8675834111968586  0.9526899815058567
  0.9207177942605992  0.8079953338794839  0.8339700004089614
  0.9873655272323613  0.8809694074081666  0.7327192348685542
  0.9771770437762423  0.8195520342096533  0.6219815745216037
  0.7158482320378368  0.7555328584234384  0.0733522768295091
  0.9088563155096965  0.7311092863887713  0.3960682652513571
  0.8753848317919231  0.7625719395336323  0.0728574840189497
  0.9796141753302343  0.7367145950515858  0.9440361562272956
  0.9944337876300443  0.6722504554023913  0.8182981954704242
  0.9055219027422396  0.6872061852414338  0.6063552097391384
  0.9862482673988209  0.7579986998307848  0.5062707415379071
  0.9612980607534379  0.6207026278869155  0.0959360343971883
  0.9129143421589806  0.5212779247255466  0.8023285050643054
  0.9904104944470882  0.6192626753858836  0.7051774513828197
  0.9778369796364679  0.5518444700907960  0.5895373030863460
  0.9755619375920050  0.5640562561081295  0.4028994353808162
  0.9967551409629439  0.4517955815105249  0.9008528612404052
  0.9890153668829261  0.3922198643004555  0.7865355263762437
  0.8871478990548969  0.7016242504127089  0.1855036309209155
  0.6059341778438951  0.1657394380974045  0.5041703965461442
  0.8458266519470679  0.7321166351341283  0.9402949167107186
  0.9184022298387539  0.7486977190837770  0.7211319950702482
  0.8930815328858758  0.3355302321461021  0.1291931797355081
  0.8045459272166208  0.2505483143706183  0.0314059638690171
  0.9863582567088589  0.1764803713454440  0.8928402470530798
  0.9097362299899977  0.1065407041601376  0.8078267639489918
  0.9041557197333508  0.1636629400701656  0.6845425716199973
  0.8270069021085200  0.0969369007841575  0.5931220265097871
  0.8956460204830694  0.1623156883739214  0.4936383781499496
  0.8185550919687848  0.0841071094015741  0.4020461702279126
  0.8955939202835779  0.1681311188609209  0.3021586093696591
  0.8158806150615534  0.0881674046512645  0.2155597697092891
  0.8877499458045769  0.1703744783367771  0.1162982732235802
  0.8181788127502349  0.0904540245026883  0.0281140770069276
  0.9224544675769832  0.0452840123565891  0.9215735724091413
  0.9854551865843388  0.0323120797399982  0.7084541915262188
  0.8962422783216942  0.0086980947338078  0.4992679085966212
  0.8887456385059701  0.0137286584069404  0.3086313071567739
  0.8824415143674964  0.0121094843499860  0.1196053068043605
  0.6249912730356819  0.9958751449690398  0.4189802017239995
  0.6238508575579231  0.9482949118984669  0.6413542277268764
  0.6227220199022735  0.9156951288815459  0.2990989721941589
  0.7106555788218487  0.9788429171027588  0.1973382671245015
  0.7095441078993628  0.9179632085720125  0.0751496874474600
  0.5529019636725833  0.9980505238547185  0.9767328729740634
  0.5439986184705881  0.9421704787288425  0.8532618711145511
  0.6167189191386396  0.8888922361906676  0.5151669143155174
  0.8254438961237747  0.2445474822740440  0.2140198533090783
  0.8970643036914495  0.3291462367230730  0.3045871332663850
  0.8270011131974655  0.2436142941725170  0.3938669421349906
  0.9092789060166834  0.3229909032851860  0.4985560128181633
  0.7663217475230096  0.6822497822121311  0.6049162714635317
  0.8387468137272757  0.7571643925876977  0.5085377004352662
  0.8906791347982109  0.6386618638010712  0.3097269198087272
  0.8075214274986920  0.6223959625876995  0.1008486201591720
  0.9253952343927269  0.5986398363475017  0.9184634461713389
  0.7650539760020492  0.5346886411514645  0.8056153430201649
  0.8405818985315882  0.6056294770284758  0.7051421090392083
  0.8341330516167490  0.5534574640940976  0.5906733069881408
  0.8984536423445567  0.6327042920800643  0.4867365233332676
  0.8199502195329466  0.5567019922616583  0.3993652010196770
  0.9653734541358857  0.5699087669170440  0.2180034403247054
  0.8881435917562905  0.4935356638794884  0.1201253441460710
  0.8441999679407214  0.6670221300123793  0.8269419229365249
  0.8402982418899121  0.4620173902517545  0.9045284649759899
  0.9028069034576260  0.4704160831654977  0.6751415082193668
  0.8352618892723986  0.3986965605282722  0.5813126348373521
  0.9037736516037465  0.4792782801031781  0.4927447217472045
  0.8323037557234911  0.3913113964135386  0.4060701484933812
  0.9005376503242175  0.4769793001444494  0.3117414333945767
  0.8266653563562979  0.4099257180148588  0.2162413720503660
  0.9538766767814238  0.3975470705489078  0.0280686368508557
  0.8289346094897063  0.2659181078043781  0.9944141425922197
  0.9133137770217490  0.3282748491580708  0.8828787550608976
  0.8315685640195554  0.2451902078539038  0.7764983007906081
  0.9053192908553280  0.3213037486380544  0.6878193117633961
  0.8274873817260531  0.2487375586504368  0.5972267872749386
  0.8344572306358075  0.3963914005158907  0.7874897696537511
  0.5275175886981044  0.0924192815641823  0.4061610288055249
  0.5963824746037834  0.1679704374659559  0.3114839391768363
  0.5273381324554112  0.0866100311308352  0.2199775626607130
  0.1150403093237472  0.9215723599050706  0.0806126039885349
  0.0296712380013659  0.8913333573834036  0.5105067738650438
  0.0567864973811742  0.8465897689393268  0.1826711945257739
  0.0372315558386908  0.8720948503631808  0.9576682030488326
  0.0341807997129095  0.8094105661659057  0.8460217395804460
  0.1033756535487016  0.8826503820016458  0.7362938604795352
  0.1098997563072507  0.8209734465497273  0.6179172050062937
  0.0351186033037570  0.7262394041106036  0.3977091597761720
  0.0076212757943440  0.6957840997110992  0.1854026527963114
  0.1050486488434848  0.7315233499834882  0.9398152706188496
  0.1015637243886077  0.6687031046058585  0.8224584942041080
  0.1741219355471300  0.7440750389517097  0.7094336793348772
  0.0362532298704612  0.6879477916797335  0.6124795329963695
  0.1038908666325622  0.7513057017251308  0.5029435123322060
  0.1584687200554557  0.6394529106685909  0.3028503095231964
  0.0807352224141093  0.6248803441560034  0.0977132493902185
  0.0032448590370563  0.5470981888856783  0.0073580234945804
  0.1807328719714983  0.5957970116673532  0.9184836417962596
  0.0324904376849625  0.5379208092117206  0.8027677599063329
  0.1101197349273261  0.6071744904415999  0.7036425838888393
  0.1014537350785699  0.5427474311143206  0.5905521332386159
  0.1692013611507087  0.6153383413165483  0.4915329842519567
  0.0897196123708689  0.5652613665703664  0.3941042407278099
  0.2296086480055979  0.5703413706727188  0.2100817064495234
  0.1552906078864730  0.4878623746264962  0.1230234163222052
  0.1067390108714318  0.9859005383739100  0.2025588361665271
  0.0407975250483325  0.9259910982666057  0.3034814228019713
  0.0361085070940958  0.9599628531943809  0.6248644999790471
  0.0421984415235489  0.9991196731366009  0.4224689959290668
  0.2623796734857634  0.2722403026908823  0.9967012971144997
  0.3226248708311234  0.3185659848699983  0.8882104000399874
  0.2444977272380630  0.2429777486463098  0.7877573616839518
  0.3155855549887137  0.3206115826289748  0.6933428151792337
  0.2401155215697209  0.2419085993644279  0.5929200702605792
  0.3242573437485242  0.3193014112546455  0.4912754900342163
  0.2367521642469907  0.2474644675980226  0.3934731274490352
  0.3112149271424806  0.3324649255344638  0.3054504962317490
  0.2297881042482909  0.2420940009740028  0.2140501467464594
  0.2942939401298462  0.3279782065827510  0.1237302631944328
  0.2257648110653346  0.2472976061494051  0.0378433193125208
  0.3994552983479502  0.1791748747379327  0.8929462740839139
  0.1074857803974770  0.4554974336483705  0.9033470209181234
  0.3177795522784121  0.1052985133759857  0.8114064384662029
  0.2451981854756712  0.0824941153982725  0.5920264138578338
  0.3064159198782063  0.1602700906149448  0.4912653922217559
  0.2264942138582159  0.0824384949153999  0.3937306216667754
  0.2991682032378306  0.1637618209286055  0.3026130109303770
  0.2246301844986304  0.0805721187123458  0.2154789872096058
  0.2987224570866253  0.1690025064259229  0.1250480277205147
  0.2307143300170289  0.0935811316508516  0.0333043526115721
  0.3301446662910660  0.0459699983120162  0.9272687386368056
  0.3893825931129232  0.0224054537350459  0.7037334642009830
  0.3047950247829146  0.0094397011721075  0.4925730589353775
  0.2994518598795066  0.0070789206768537  0.3041630251430482
  0.3024678825389600  0.0144331845233249  0.1204737186759548
  0.3149661415058700  0.1578413295295135  0.6925046967450208
  0.3722937276797050  0.4093880533470916  0.0372980374396592
  0.1001164966249543  0.3981588958605049  0.7824610590484732
  0.0976793650709622  0.3936845370160973  0.6006247011678626
  0.1543817488508988  0.0138089991044226  0.1129205549555774
  0.0338103094054143  0.7452121688237691  0.7277561600442689
  0.0120729483953417  0.6443969535905882  0.3050617304520237
  0.0329072392808947  0.5839869291374319  0.9225581091240300
  0.0263773476112910  0.6301457498679306  0.4906443767554417
  0.0829697420811899  0.5651872059265365  0.2219163426531095
  0.0148342589683922  0.4894444683615354  0.1272695464618024
  0.0329824951246045  0.4747112204539831  0.6934639889287585
  0.0206115922008961  0.4765096160668597  0.4882713908272480
  0.0113667012466787  0.4868859261494018  0.3069045812260460
  0.0743732091650892  0.4017865873545206  0.0351724479167456
  0.0354312045007060  0.3233617065043359  0.8804300355392510
  0.0233555360407827  0.3193323115229081  0.6825381558466083
  0.0320504804448119  0.3190356689475881  0.4977582856337919
  0.0148400478794468  0.3313710560379717  0.3087676276249895
  0.0051320440408604  0.3285529515724332  0.1256437986556782
  0.1046607918028258  0.1788596920016552  0.8932996975200278
  0.0257695119505566  0.1057063969170505  0.7958507583709605
  0.0174971580535142  0.1679333571440408  0.6825634003777593
  0.0204379248692577  0.1611043978580319  0.4944159097094002
  0.0048136539328566  0.1642871254890678  0.3047587960782117
  0.0109383218286375  0.1609437164630670  0.1267596069325522
  0.0279171979518180  0.0497274709327343  0.9151160213407168
  0.0988429361929395  0.0290366513041749  0.6980282001608583
  0.0109672663839105  0.0044771180891524  0.4884935427013770
  0.1578956178610491  0.0052187245274521  0.3069247768509668
  0.1583876753006913  0.0002746816054547  0.4928810422154197
  0.2396524086853517  0.0311069692777613  0.7078483227785950
  0.1796792901595587  0.0470638678085080  0.9152674885276227
  0.1665095175103136  0.4638219659182836  0.4916844514388627
  0.0934650378232038  0.3998460505076366  0.3994005433632885
  0.1586944875865857  0.4871084080808916  0.3044659595168601
  0.0810420347000037  0.4124224596904677  0.2177257504820442
  0.2276925184465209  0.4133803680066047  0.0341273243270945
  0.1121458537964407  0.2630752831242294  0.9969032533637076
  0.1821858886462062  0.3286085720553057  0.8786982607022927
  0.0967936616796064  0.2437996957820919  0.7758166984495313
  0.1761943657046814  0.3245482768056153  0.6856684777093314
  0.0949412101421302  0.2374836809492402  0.5911378063613191
  0.1792682774746811  0.3131398977631062  0.4949662404884919
  0.0878092717228466  0.2357779861411511  0.4014503992927491
  0.1785446635928545  0.4673198762855968  0.6864258136438612
  0.1597364915764161  0.3273169408419339  0.3033501512399861
  0.1535713013032530  0.3254258444242698  0.1238766814751088
  0.0742226974776694  0.2453508892488685  0.0426296824187493
  0.2449550512113776  0.1774320996079285  0.9011709423329078
  0.1654559356983740  0.1103352571027705  0.7919429049487864
  0.1637018956488262  0.1741813913867153  0.6786757425805060
  0.0896212008829405  0.0837672064506867  0.5892949555872963
  0.1658843151164152  0.1648124300495299  0.4957791143915539
  0.0771055751828666  0.0790889058357466  0.3937659640103868
  0.1521877515612003  0.1654057152001698  0.3099036315267844
  0.0833170767444668  0.0923018605447849  0.2194878187563836
  0.1515625491673021  0.1689777862113130  0.1221297599194597
  0.0787438370113223  0.0900770412298860  0.0297145802819006
  0.0797858410011527  0.2458638337020259  0.2161555406444526
  0.9665717587241904  0.7689250346883991  0.2857749086526639
  0.2267257703004005  0.4045985117664067  0.2170491970471977
  0.2354380814375935  0.4060137440528285  0.3971335844659293
  0.4510518625777180  0.6312272592571174  0.3031179015533971
  0.3672226415958637  0.6320615665002045  0.0906397317617097
  0.4789254693056808  0.5975892272265773  0.9313785483081874
  0.3264687077713865  0.5364499564424262  0.8119365736203737
  0.4031196790455204  0.5993999829467588  0.7167091532125939
  0.3903493412590436  0.5403310301361942  0.5958585336865549
  0.4562213601494877  0.6148315769170434  0.5063212306002088
  0.3822969659820766  0.5573508978951706  0.3983251263362563
  0.5343253480983295  0.5537911869913323  0.2160949537696900
  0.4486147310237258  0.4939559075278581  0.1250783211578958
  0.3985464393123759  0.4660097049112674  0.9041598948211854
  0.3968329216402105  0.3976768516756102  0.7911906179204869
  0.4662014428076409  0.4743280571275283  0.6891017339458668
  0.3846009525818126  0.3892657986545621  0.5958282402491738
  0.4608930113705606  0.4619741298761872  0.5026607735833148
  0.3869165170036579  0.4036035231283546  0.3999054339863083
  0.4606209325509936  0.4795749226784979  0.3047638449844417
  0.3798772011612482  0.4086588070160971  0.2177156526695838
  0.5123332750018537  0.4069716523689654  0.0373384286895007
  0.4069229936084013  0.2736864352455665  0.9929752043166130
  0.4666356111367370  0.3196536743128379  0.8818033380338651
  0.3866212825398727  0.2480824729632721  0.7815875982706485
  0.4585658691266060  0.3212110478332669  0.6884605228546314
  0.3878369538613415  0.2385466501774696  0.5903501769894081
  0.4632085757924059  0.3163535256624045  0.5032767401433991
  0.3949052142590243  0.7431603910111401  0.5125919721381159
  0.3215076109975830  0.6774169802558788  0.6111011815955250
  0.4737733384670749  0.7449958669459315  0.7284478601978062
  0.3905808977012282  0.6720403335782064  0.8253010284117099
  0.5976907685021260  0.1722655747544411  0.1292285220791193
  0.5153550865723620  0.0971655627692998  0.0292399830962620
  0.6208695683647972  0.0385230336607576  0.9244716445852754
  0.6873494229159758  0.0262309069459413  0.7103323846438527
  0.6027560656749125  0.0120167835451986  0.4951278054878582
  0.5991553629989430  0.0068687988526688  0.3211929858575088
  0.5922202475555165  0.0097116235328173  0.1270221500565226
  0.3328133542872426  0.9890152854147686  0.4194598478158685
  0.3386775211855659  0.9428688247915746  0.6325994243237116
  0.3267234198577895  0.9195514823607042  0.2974378820444232
  0.4066161813225067  0.9821554258604969  0.1992316069608261
  0.4135339300327697  0.9206515319108487  0.0752102743222222
  0.3878022203950137  0.2483976556995496  0.3949676036931739
  0.2600583201528636  0.9972409368262418  0.9668875058251757
  0.3284311486189003  0.8801721804869944  0.5184234588339954
  0.2567065406522425  0.8549266613165447  0.4053380570900025
  0.2448740064566130  0.7814025630127904  0.2916114442547738
  0.3529008756467506  0.8462004255592194  0.1710334656651656
  0.3328943990420072  0.8694745076145226  0.9553305594642505
  0.3205177072072442  0.8075503700165043  0.8399630521042076
  0.4000920785639578  0.8733185009863754  0.7449426368518656
  0.3979038701853139  0.8108196183986752  0.6242889246688044
  0.3298262761830622  0.7107707298184039  0.4027227236627595
  0.3066822097867185  0.7045721360049498  0.1803941378159543
  0.2899638346609956  0.7679980266405246  0.0638148929606633
  0.4051573757367443  0.7333588259182801  0.9424558485772437
  0.2508481626649737  0.9446734004581039  0.8507727603430630
  0.3085809726126317  0.4882887983285186  0.3055514743563527
  0.4519954550796200  0.3187761066941834  0.3038651396754662
  0.4434857558293385  0.3242948946058629  0.1229527316349822
  0.2549640784248038  0.8111718814568674  0.6187553234405064
  0.1809123282141913  0.7219504468757708  0.3986129139913775
  0.1604832611024611  0.7026563193726759  0.1950612104146820
  0.1464798852613518  0.7704453278869133  0.0750234647917047
  0.2579222119737111  0.7349903600825389  0.9402949167107186
  0.2518033329889850  0.6671766313536915  0.8183638312514168
  0.3211892208895792  0.7363623319933936  0.7232525356869314
  0.1845072419791062  0.6756742051258748  0.6057139986479030
  0.2443645822838070  0.7509781588815485  0.5070230285662065
  0.3067921990967561  0.6427468792653717  0.2995836671922579
  0.2256316661110787  0.6235330924597591  0.0963601425205251
  0.1487259827505417  0.5410046559843166  0.0100844328588875
  0.3235510965998614  0.5967301997688802  0.9207354539749281
  0.1723273731202000  0.5348493225464296  0.8071653572328361
  0.2463154453092117  0.5958711723111833  0.7088429573059442
  0.2495746022329589  0.5422283066075109  0.5847307443551968
  0.3155218769671129  0.6222105609781248  0.4994799626582895
  0.2487699435963677  0.5627955251630202  0.3995621083626548
  0.3805950261320204  0.5669856015394130  0.2127525778452987
  0.3064738089887525  0.4777209065827491  0.1322881592546198
  0.2491114893485899  0.4591313051960385  0.9106780327643721
  0.2504082054248231  0.3999634715270339  0.7852682509124637
  0.3201124834334211  0.4693531139372683  0.6919139747160873
  0.2451750298314528  0.3923372853198528  0.5854880802897267
  0.3183815990280919  0.4710217284234425  0.4947996265828951
  0.2581248238606227  0.8805059033842294  0.7347539440793244
  0.1770742801849826  0.8054738719892653  0.8274064223097032
  0.1857055465674110  0.8636096366983029  0.9512459943240197
  0.1969476118354700  0.8477763392406061  0.1789955907901891
  0.3700013189020782  0.2526557126661199  0.0347079485435673
  0.5495328174387984  0.1867948808914613  0.8903864786252031
  0.4635038102561911  0.1066457650722300  0.8026617328754985
  0.4617902925840257  0.1681311188609209  0.6827805033456579
  0.3877616980176316  0.0859982058192381  0.5922839080755742
  0.4516944317047800  0.1648186101031824  0.4943704695533283
  0.3715701137978782  0.0886988892653791  0.4048887044355146
  0.4531995485789795  0.1662276623359517  0.3029866299914119
  0.3704702206975018  0.0911709107263780  0.2164180837684227
  0.4561287375726139  0.1663945237845692  0.1254670869376215
  0.3744819360583487  0.0871538758522550  0.0313655726191756
  0.4772872074772251  0.0521129716425980  0.9215937680340620
  0.3770869460329247  0.2399248021419765  0.2144540592448755
  0.5369303580729053  0.0311440495996762  0.7100193524575804
  0.4493730783718802  0.0154034529467668  0.3178253654019663
  0.4489736435091118  0.0071716214816411  0.1224680366368832
  0.1913844683119865  0.9945958738629732  0.4180360562589525
  0.1878069212802357  0.9516197807635103  0.6336445479133627
  0.1840151845394640  0.9212324569541833  0.3014416646849711
  0.2557803148835043  0.9859314386421726  0.1907999335563940
  0.2668602906420341  0.9166777574122931  0.0697221132499961
  0.1187857347760821  0.9997253183945454  0.9754353040729024
  0.1145424629730506  0.9482887318448142  0.8535597565821331
  0.1811033622789935  0.8853263452331767  0.5190848655501515
  0.1079778378371190  0.8730774788939279  0.4033588858477645
  0.0953290671827892  0.7911237874081678  0.2960039926750469
  0.4512892079309572  0.0113307975897715  0.4899425787894441
  0.9824160082806672  0.8547721599752325  0.4015261328862021
