Cu
 1.0000000000000000
    17.2744060249999976    0.0000000000000000    0.0000000000000000
     0.0000000000000000   16.1810892951712049    0.0000000000000000
     0.0000000000000000    0.0000000000000000   19.8062699999999978
 Cu 
 446
Direct
  0.1530930301552872  0.0514022654725608  0.1163639090045728
  0.5343900768072863  0.1471127563887790  0.9819382952973983
  0.6029660960513403  0.1161259673751600  0.8728970674437944
  0.8327800760084312  0.0831492010854369  0.7504307979240923
  0.7469015805132438  0.0589357508749544  0.6380370963336363
  0.8982295043918885  0.1865538587990138  0.5475505988760125
  0.7492113560240344  0.1123746748080946  0.4258113718534589
  0.8198244930682068  0.1939081226454850  0.3168458775933075
  0.8198360708903160  0.1217312760379747  0.2049924089694830
  0.9051646198353152  0.1987718248700001  0.1122843927705724
  0.8264122738483566  0.1138455275773887  0.0184302748574066
  0.8282068362752868  0.0615375534626557  0.5260220627104447
  0.8882725773779537  0.0593683546306293  0.3030623635848649
  0.8936388979255800  0.0451171509079717  0.1178482874362514
  0.5409628064186942  0.9645113726826186  0.9606975467869521
  0.6846534199429877  0.9226662294015624  0.8512776509660835
  0.4599481539915929  0.8741651683367675  0.7279227739498657
  0.6010962777807002  0.9816363013536871  0.6385318891441957
  0.6068736110132041  0.9222027253776250  0.5205389505444490
  0.6742391689557384  0.9874517318406868  0.4188640768807050
  0.5267643442750444  0.9317756284853429  0.2945145653371387
  0.4577611033951600  0.9411816701444431  0.0753516436966678
  0.5414479171650709  0.8183531038010686  0.9558505968059610
  0.6008936658937888  0.7853577973503884  0.8483947255086397
  0.9716328965643843  0.3371370460957512  0.1181259772789123
  0.7385076594840546  0.2515865633842378  0.2217194353101317
  0.8908602206193659  0.3201789788732999  0.3431304834277226
  0.8218332452041576  0.2518152253693803  0.4431644625666521
  0.7513821976695144  0.7309980454230262  0.1773698429840653
  0.7511448523162753  0.6645624686586853  0.0557164473674246
  0.5320785646231793  0.5294788559224098  0.9234113742769336
  0.7398854203150526  0.4985847677135782  0.8012177456936621
  0.6780077500522916  0.4732898081139089  0.6970234678210492
  0.6759121642505217  0.5874601192901349  0.5889415321511825
  0.6745228255974145  0.5165254634667766  0.4767598846223953
  0.7497960360405503  0.5959700531696231  0.3748174189284505
  0.7496165797978573  0.5220442513784561  0.2642716170182475
  0.8204554843731596  0.5897158388732963  0.1539176735447917
  0.8248319011304472  0.5363819758522487  0.0312292521509604
  0.6864885047473001  0.7527085739042475  0.7280237520744695
  0.6066420545710197  0.3870965998225357  0.9048566438809533
  0.7415352599656173  0.3373966083491561  0.6760048711847311
  0.7477583393493266  0.4582413774700790  0.5807976464018719
  0.7466584462489501  0.3869668186958331  0.4628198545208164
  0.6717788817575278  0.4493606403714411  0.3638562435026887
  0.8163974577238757  0.3863920737061509  0.2383606302448670
  0.8868600830806280  0.4581672168262490  0.1327678053464888
  0.8875605413182363  0.4017371469253005  0.0123311961313263
  0.5265872035967732  0.2570497308130449  0.8818790716273185
  0.7484472197648255  0.2244314076351668  0.7655270275523864
  0.8189793120542331  0.1931974164754478  0.6491598367587640
  0.8167274256539886  0.3194435524886530  0.5644088967786464
  0.6726761629709929  0.3566721956912938  0.7908321455781427
  0.6810874507333459  0.8620213629096112  0.6275202246561317
  0.5248181123784834  0.7841835871564136  0.4934919598692736
  0.6008878769827342  0.8593639398390376  0.3981080233683581
  0.7387334270151845  0.4615168059059024  0.1340603253414199
  0.7445165491587432  0.3966077023937283  0.0161380714288963
  0.3836943020158055  0.2500168297565037  0.8891091053489628
  0.6011078556028094  0.2201300902930289  0.7784320318767747
  0.6717962484906916  0.1939266628064425  0.6612115759302483
  0.6700827308185262  0.3153585370243525  0.5664688505205677
  0.6613241083928962  0.2583784423483317  0.4445478628737266
  0.7489508550265769  0.3165883677011994  0.3508401632412367
  0.5938890835177068  0.2538793632893143  0.2220678098400155
  0.8176768070669452  0.3280461871729285  0.1215188422656058
  0.3796293286732561  0.1390972268014907  0.9842052541947575
  0.6760105757384500  0.3846122182542318  0.2433893408501451
  0.4569367624609831  0.1224543423153169  0.8675199823086327
  0.6034407867578185  0.0550114168056191  0.6508360736271896
  0.7474052157749951  0.1905461734585267  0.5409718740580639
  0.5916719305837899  0.1111757443995101  0.4206513896861959
  0.6730640200116519  0.1879876312463930  0.3260702292758813
  0.6729250861463412  0.1159343857119326  0.1978785000911328
  0.7449391396657299  0.1931294358852705  0.1032064593686749
  0.6693764836698634  0.1220155585059895  0.0169812387693395
  0.4579978698572937  0.0022213985059911  0.9651759266131386
  0.6738513119150793  0.0468846462525856  0.5238106417816181
  0.7424035966238093  0.0525950158274927  0.3018051859335453
  0.7479667401472926  0.0417861019892757  0.1117542576164015
  0.6839876951717071  0.0804546976929485  0.7608769849143732
  0.6747370153064352  0.6574245066900515  0.2644988177986061
  0.5279614910811384  0.4510107146966577  0.3498758221512683
  0.6034581534909824  0.4446576195418910  0.5887648204331254
  0.4596685495876551  0.7980269073380067  0.2828818853827604
  0.5352132599592524  0.8667182036855089  0.1787380965724494
  0.5310255617023452  0.7986634528642139  0.0645116420204309
  0.4655813433388371  0.6751118202434974  0.9349026848568659
  0.5280923204709727  0.6347684299999983  0.8222615868611305
  0.6006100092521126  0.6154866626042080  0.7074242146552582
  0.6012525783791748  0.7175687888361504  0.6064612367699729
  0.4507941489409331  0.6536979343375960  0.4902909533193282
  0.5287829375597880  0.7224942915971906  0.3844456831094400
  0.5357336830630621  0.6520725802269892  0.2680784923158175
  0.6085755508632605  0.7352004819067238  0.1638488720995928
  0.5905604596613041  0.3897540228931092  0.4575386986040282
  0.5963088483385350  0.6664350249153919  0.0475776105243441
  0.5962741148722074  0.4944008713908379  0.8071653572328364
  0.5347489892926723  0.4762994942426748  0.6911414920628675
  0.5227398933098772  0.5869286346760203  0.5933340805714556
  0.5174575119725427  0.5261478070037141  0.4784411703970514
  0.5968414281555595  0.5814840074081705  0.3753576518950817
  0.6081645381783830  0.5228043979777133  0.2522249267529929
  0.6825867786964908  0.5899445008584387  0.1466472485733055
  0.6666672732963043  0.5361162335451913  0.0311787630886585
  0.4605432540480072  0.3953655116095762  0.9067095924674361
  0.5250485110384570  0.3665541014816363  0.7898476088632543
  0.6016230686866699  0.3195115330788303  0.6844213978704728
  0.3911695228606276  0.5303935038629795  0.9244211555229732
  0.6659668150586961  0.7235387206644625  0.3847890087330934
  0.5999327066587229  0.6561699557985947  0.4912855878466767
  0.7436250568563327  0.7260725426619860  0.6067035842690218
  0.8432753717504450  0.9614646062319374  0.9638379664621359
  0.9670307122759667  0.9137545920346620  0.8457289030190944
  0.7618948601446921  0.8883051310936801  0.7391212479684468
  0.9036421362279518  0.9907209802228577  0.6474684531716471
  0.8998967107756171  0.9313059444077529  0.5200239621089688
  0.9730280241285461  0.9972409368262418  0.4181875234458588
  0.8230431276145718  0.9334936834007370  0.2996846453168617
  0.9024496205507014  0.9919817111679667  0.2002110947694850
  0.7480188403467841  0.9276720728600850  0.0744074982316208
  0.8341636257504838  0.8099420507800205  0.9464293377804101
  0.8958907843258247  0.7752595896822083  0.8335004521295530
  0.8955376607514933  0.0032720076269155  0.9691746603474560
  0.9694446881857406  0.7402186854725514  0.7286952566030859
  0.8284673372727442  0.7839116647957040  0.5101836438663111
  0.9004466573258053  0.8571700207924013  0.4078019233303395
  0.7394628298080658  0.7950728416921131  0.2869765483354513
  0.8252776472816524  0.8635725563763881  0.1812675985937786
  0.8239925090275283  0.7953880244283904  0.0644712507705894
  0.7531072931637891  0.6706374613990896  0.9342160336095591
  0.8149791745154955  0.6380314983285164  0.8178336960972462
  0.8919832693639608  0.6133792643087067  0.7023904551437500
  0.8992888751148828  0.7264000855055687  0.6048556845887694
  0.7432371998156736  0.6597605669706953  0.4890489223866990
  0.8196103033591861  0.7246016898926921  0.3882222649696285
  0.9724143995567570  0.8590487571027604  0.6273233173131538
  0.8220358570910691  0.6590560408543106  0.2740311527612215
  0.9043136499102870  0.1261252941849000  0.8718014547918415
  0.8254397367911817  0.2601088573710310  0.8854789417694499
  0.9806635978095810  0.2618887128229501  0.8812883495983850
  0.9757198677689413  0.1460621472678546  0.9797218254623413
  0.9959289562605961  0.9620887916508397  0.9577893767983578
  0.9040126265354471  0.8886388539909151  0.7348448243914685
  0.9718470862734050  0.9296620501361887  0.2993867598492801
  0.8994278089801934  0.9263001009492308  0.0803349141458741
  0.9724664997562485  0.8081251150061862  0.9529727202547476
  0.9786548456736301  0.7886764861617791  0.5102745241784549
  0.8835140924910616  0.7925142994799796  0.2835786344425281
  0.9694736327410135  0.8580290482500984  0.1822117440588260
  0.9753320107282820  0.8003567875649981  0.0592607795410242
  0.8312865369563409  0.1434603446801536  0.9753090814171474
  0.8990631075837527  0.6669170691002864  0.9306464569048084
  0.8994914870017942  0.6556384711844798  0.4936939161184818
  0.9640494230828410  0.7230443163722625  0.3872326793485097
  0.9615833469735757  0.6588026586545583  0.2720317858940632
  0.8165711250555141  0.5294912160297148  0.9144394679058703
  0.9761135137206549  0.4768618791250518  0.6851989294299234
  0.9703303915770963  0.5939615357325615  0.5982466663334393
  0.9691726093661738  0.5212964648865041  0.4810060147619922
  0.9014712945824719  0.3963234199257135  0.8944003590782110
  0.9725070221336308  0.3675738103342980  0.7815320603021170
  0.9632273977130859  0.4564800621791174  0.3653759642779788
  0.9029995671008898  0.2925850393149017  0.9923642866627591
  0.9689005305466070  0.6343729065662382  0.8248314801323017
  0.4006430758015022  0.9669524938753545  0.9583750499210603
  0.8959313067032070  0.7205599348039590  0.1581991460280004
  0.6742333800446838  0.5334897107428803  0.9162722208674323
  0.9719744423166063  0.1256123497317427  0.2071987809920800
  0.9748225865554763  0.1247533222740456  0.0238023110863382
  0.7528120587000039  0.0064918155798665  0.9692251494097576
  0.9774218076189976  0.0686446151630269  0.5212003572606048
  0.6962601866074872  0.9591470861122511  0.9691191223789234
  0.8298161535484692  0.9216465205489004  0.8444414319303941
  0.6091833865239950  0.8787445880932677  0.7442963768544001
  0.7517121655996274  0.9919137305777892  0.6378704824280391
  0.7494139679109459  0.9207936731448561  0.5202966030453993
  0.8252950140148163  0.9832801956252513  0.4166577048581080
  0.6714373360053056  0.9272950895872825  0.2966956928285845
  0.9643678131908446  0.1947238897276147  0.3230762278813730
  0.6018951475062367  0.9318312489682151  0.0791787146191586
  0.7559785930468774  0.7831947785720142  0.8395036016372593
  0.8301345436564729  0.7547294514486139  0.7169868430552551
  0.8287220493591473  0.8569907992364787  0.6223602424888687
  0.6774462256799942  0.7905737626330953  0.5036200657670529
  0.7446381162908901  0.8463858271687943  0.4048584109981334
  0.5983349672076497  0.7952706034089930  0.2819730822613246
  0.6852902001589951  0.8712790832810514  0.1774203320463671
  0.6761842430700885  0.8009871530375526  0.0665211067000504
  0.6064915428835997  0.6713049071935595  0.9312119344025908
  0.6771973025046458  0.6386618638010712  0.8197674271834120
  0.7439202913201179  0.6185581492694990  0.7013857228039408
  0.6911485781462637  0.8032861329962814  0.9562191669607656
  0.9020443967768785  0.6622325884316940  0.0459821561556014
  0.8948140468696666  0.1186227090507688  0.4218227359316014
  0.9730801243280376  0.0910349495460230  0.7508498571411983
  0.8946172238938098  0.5076200061535285  0.7965323607120377
  0.8227710487950048  0.4791237787618658  0.6922017623712092
  0.8169937155625009  0.5940356963763915  0.5881488538730415
  0.8170689714062108  0.5237623062938502  0.4747201265053947
  0.9014655056714173  0.5922743810854301  0.3727221228429181
  0.8949819252902504  0.5197576315270324  0.2530226539373642
  0.9680669273547425  0.5944744801857189  0.1614052014841765
  0.9662028979951570  0.5306592461700368  0.0375605805636296
  0.7564069724649187  0.3964841013206782  0.9029834996695492
  0.8215032772740446  0.3687727407428825  0.7865809665323156
  0.8965333534528868  0.3423653714857636  0.6766915224320380
  0.8923479707604014  0.0480279561782977  0.6367445763387047
  0.8955145051072748  0.4520366036029722  0.5810197982760009
  0.8202065611978112  0.4585627402600088  0.3569745843109282
  0.9660986975961741  0.3872202008955856  0.2460804078708414
  0.6751422390802581  0.2470256837886952  0.8839390253692391
  0.8839887831975399  0.2201362703466814  0.7714291989354889
  0.9706429927740453  0.1890753206892326  0.6621910637389070
  0.9657745185771157  0.3157787806727224  0.5628487847535149
  0.9785043339862102  0.2492381429962890  0.4436390597522908
  0.8966201871187059  0.2596638935080512  0.2242287417065406
  0.9742900067384518  0.2764612793355375  0.0076357133372412
  0.6841382068591271  0.1450918788444127  0.9868660277780724
  0.7544387427063503  0.1172136568179995  0.8704281522972277
  0.8964407308760129  0.3779192201485778  0.4595784567210288
  0.5315552470638423  0.9191435988196395  0.8468144178585874
  0.3117387164980684  0.8795727152827021  0.7312298075306459
  0.4582300051905837  0.9951582587453501  0.6383400307074482
  0.1557987671822134  0.8469543921048239  0.4016069153858858
  0.0049510103199047  0.7902585798968181  0.2874107542712485
  0.0865778632466756  0.8594628206974774  0.1864730209171139
  0.0951865528759910  0.7941334735369335  0.0691465379397537
  0.0183000887001554  0.6681839800990486  0.9433848473236003
  0.0949926243556614  0.6315795223153098  0.8275174982467676
  0.1653788360864929  0.6108392622575305  0.7115390732328705
  0.1592917961125671  0.7189098604787424  0.6095612651953145
  0.0203626198198036  0.6494151571564156  0.5076389951262911
  0.0797428959644938  0.7244410084977271  0.3873538530980342
  0.0853685597273669  0.6573750662608316  0.2732233277643902
  0.0855294914546852  0.7853021768675158  0.5046500426380132
  0.1582301098251510  0.7287485058935173  0.1716696278501710
  0.1599459430617383  0.4980594631531161  0.8032978950605034
  0.0877761678349806  0.4712194901403224  0.6930196851805013
  0.0941520744705316  0.5903276641848936  0.5986606766443158
  0.0959605302839928  0.5199368530829548  0.4743566052568206
  0.1607870718379736  0.5920580792075926  0.3744841911172578
  0.1618036046191637  0.5322413399050758  0.2493874414516217
  0.2224198711631244  0.6016495224762677  0.1498634018419420
  0.2289138715841895  0.5266174910813038  0.0282604952876035
  0.0111236335548619  0.3923125651052429  0.9066086143428324
  0.0862467375343517  0.3584829514114753  0.7858185816915554
  0.1599088940309888  0.3354004510193997  0.6755050294679413
  0.1587337450869023  0.6596246057903402  0.0532323855021668
  0.1673169635075774  0.4449171817952958  0.5770967981351360
  0.2337672946123772  0.8544260769706925  0.6195530506248782
  0.1619778508419076  0.7786400790301239  0.8379182450809773
  0.2935725347175867  0.2706025884729705  0.2187355317280841
  0.5206917765787551  0.3290782561328955  0.1139606296389984
  0.0954864184686199  0.1401416558687626  0.9809285140513587
  0.1674663174127864  0.1229054862319490  0.8676108626207765
  0.3846384734088130  0.0940755359430513  0.7552070632178604
  0.3156329169645068  0.0519213899793706  0.6322661965125189
  0.4585356596942673  0.1780253847585681  0.5447434070120221
  0.3001377387446235  0.1073935515641821  0.4182279146957003
  0.3756563990164750  0.1832907904704954  0.3273021623960498
  0.3714559651552476  0.1321384863887792  0.2043158555346365
  0.4388869377926991  0.1954654961659143  0.1048877451433309
  0.2325985134704509  0.7498163087948787  0.7236059591230459
  0.3714137061045490  0.1173928783739219  0.0142901717486435
  0.4553743353673430  0.0508584207511412  0.3001844870336515
  0.4414983155694351  0.0448081482253467  0.1161215615055235
  0.0958968522623920  0.9680525434254991  0.9647114272399600
  0.2378554235991451  0.9208431135740759  0.8480665466036766
  0.1588385243769908  0.9879152358646240  0.6344927641600366
  0.1628091384693501  0.9200520667065564  0.5216850522587042
  0.2252408075200374  0.9977786014940089  0.4223781156169238
  0.0862681565052538  0.9265596632026355  0.3015779851531867
  0.1581606428924956  0.9904861381840625  0.1971110663441426
  0.0172745252177201  0.9272518292117153  0.0819758086706886
  0.1013760565755834  0.8010242333594675  0.9570522364887487
  0.3847200970546830  0.0447587077961268  0.5187819311763396
  0.4479054823246810  0.3204632613413148  0.3329720840925626
  0.1600206200143428  0.3859594699504763  0.4558018748608396
  0.2288837692467055  0.4026579749195226  0.2370782080623966
  0.0107505382373921  0.8551429631943822  0.4072263480200971
  0.0123332265197234  0.6601499103508026  0.0373838688455729
  0.0734607696880275  0.5915945751836553  0.1537813530765765
  0.0813863678128985  0.5277546209533632  0.0326126524580348
  0.0112721191234128  0.3432614792653756  0.6702592158947650
  0.0224698413327933  0.4511837561989276  0.5717348597186649
  0.0842756133202559  0.4025220137391676  0.2385979288376863
  0.1501111620710559  0.4626044953487417  0.1380439123570466
  0.1522189045860406  0.3956497940775911  0.0181677317334361
  0.0229909012168191  0.2203402121172140  0.7743272711116230
  0.0873234749905098  0.2002055973173793  0.6528202937756583
  0.0901438324563174  0.8518737148122114  0.6178919604751428
  0.0970083231848778  0.3202902198390451  0.5562347175919543
  0.1568650845984732  0.3245668169665728  0.3373141434505335
  0.2215000131965464  0.3311485741064820  0.1207059683625441
  0.0913612404511025  0.0874319782666174  0.7484516266818539
  0.0185691572859738  0.0564822695749132  0.6396779908584508
  0.1671658729290520  0.1814923948576189  0.5400529731241673
  0.0845540599419828  0.1900888494882419  0.3268326141166408
  0.0702120328041785  0.1341655439867983  0.2028819661652598
  0.1471646063442578  0.2054339227073915  0.1013181684385806
  0.0821707652607986  0.1200935618200629  0.0154110289317475
  0.0878635803919052  0.0436524781923298  0.5225433663178377
  0.1591945424068495  0.0538001262897297  0.3048193829529743
  0.0872076967694175  0.2563390246430080  0.4364948574365598
  0.0805516068388232  0.4559856578869177  0.3537028930737591
  0.0898086545062553  0.7425114853776279  0.7290587778516601
  0.0040710437394040  0.9954858015889324  0.2005897627367495
  0.2952183221304132  0.4633337416797364  0.1337472931551476
  0.2993023988794428  0.4004393356582762  0.0149162361211881
  0.1657383274629843  0.2222065883202679  0.7741606572060267
  0.2388105939231563  0.1927833528807306  0.6553043556409162
  0.2398369678531393  0.3126949339001264  0.5667919805193005
  0.2382722251950773  0.2528843746512622  0.4387971586775301
  0.3054125944975871  0.3304687682047073  0.3402677535952003
  0.1541801876513436  0.2679698856170069  0.2221233478085477
  0.3718351388293248  0.3320446818860939  0.1183380313405808
  0.0254027931186131  0.1219104975938971  0.8733211755671315
  0.2440472428631595  0.0920917387205998  0.7508902483910399
  0.0199903349498814  0.7651119415848086  0.8452745014583766
  0.1655542400914476  0.0601903017664114  0.6309989210487386
  0.1607268671630057  0.1224110819397493  0.4210704489033019
  0.2300583392996866  0.2003786388196493  0.3193349883647956
  0.2208146061276801  0.1374780527445366  0.2024376624170023
  0.2924593271217845  0.2029680813000453  0.1012272881264369
  0.2286730528843176  0.1215273342674423  0.0165470328335423
  0.2328705922900177  0.0485347205778023  0.5195140225797183
  0.3029112060308887  0.0540905888113970  0.3020222889014438
  0.2993296067613995  0.0500364736153591  0.1102597813722625
  0.0886549245330708  0.9094409145852193  0.8510504501857242
  0.0159440019009278  0.9255523144572785  0.5199835708591274
  0.0844898030292766  0.9918828303095271  0.4234232392065745
  0.3110179970717691  0.1852436874246845  0.5343426601778123
  0.9622895941222386  0.5283664462649603  0.9221642944380748
  0.3738537321140685  0.2520315272472176  0.4360253091571508
  0.3833365473126304  0.2008174226289764  0.6572178911021611
  0.4569165012722919  0.5242258103177875  0.2602072475029374
  0.5388064370508509  0.5979167700701595  0.1579265050915696
  0.5267411886308259  0.5300597809657445  0.0416400967976304
  0.3142597872623525  0.3998707707222465  0.9055281484095699
  0.3854686032540445  0.3667271429839060  0.7939473207221756
  0.4566976804344275  0.3335773351919132  0.6689818426185246
  0.4608263317985777  0.4472532420759396  0.5813732217121144
  0.4491026291307750  0.3851375228146942  0.4560341245474285
  0.3791563746400942  0.4575739316756094  0.3601049061736513
  0.5326736646795935  0.3859347497358661  0.2322766982374774
  0.5974087414389115  0.4612448835451925  0.1288902453616962
  0.4499136555695263  0.5862302886132881  0.3763371397037406
  0.5916835084058991  0.3933631742261673  0.0095088575486451
  0.4542223420674750  0.2295361319521291  0.7652291420848049
  0.5254890471697130  0.1981229192364879  0.6544510904880122
  0.5296124885139141  0.3110757598431723  0.5623489430367258
  0.5220782207763350  0.2479032514073497  0.4323194119841852
  0.6025492944554081  0.3149815537515502  0.3421358489003735
  0.4413084392868438  0.2566974677548526  0.2181700542303021
  0.6689017929633850  0.3317109589888592  0.1226396994487102
  0.2369181988994032  0.1425580568468890  0.9812364973314011
  0.3059237553437094  0.1177389613784616  0.8666364237183480
  0.5318296414478310  0.0901264816591058  0.7547122704073003
  0.4575289680618700  0.0500859140445789  0.6392235892977328
  0.2410827415120920  0.2612645274040479  0.8811671758488605
  0.6021440706815852  0.1801142428931122  0.5371649987604940
  0.3725373337402494  0.5158209373503918  0.4868223547391813
  0.3887074989891006  0.4677833803095340  0.6984624060966556
  0.4550188962285898  0.9242668632975590  0.5183376274280824
  0.5292055280667748  0.9965116904952471  0.4230900113953818
  0.3869968757724623  0.9304654571110136  0.3018001370273156
  0.3110978840443228  0.9344824919851364  0.0872418178687861
  0.3984172395010033  0.8114438038175774  0.9433898962298306
  0.4621271001125493  0.7786586191910816  0.8391047380450740
  0.5352508878811073  0.7463060383202609  0.7312853454991778
  0.5282121509298031  0.8501123995212497  0.6250311138846435
  0.3751956016965278  0.7890411093272762  0.5075986038764496
  0.4588627331688529  0.8585605328642132  0.4037274560025694
  0.3153677848382055  0.7980021871233968  0.2874208520837092
  0.3785439078505161  0.5771888701196852  0.5970753200880330
  0.3883207997306524  0.8673176688898012  0.1812524518750883
  0.3213106809268714  0.6721021341147312  0.9375230671903393
  0.3837307721554495  0.6430497018943440  0.8202874645251226
  0.4463899454105833  0.6073969723730898  0.7060610099731044
  0.4559694354237572  0.7225931724556303  0.6140295472090402
  0.3038420629284705  0.6535063526743686  0.4875796906737112
  0.3843061899142781  0.7285260239620275  0.3861118221654057
  0.3932025884230078  0.6692902097028454  0.2668819015392602
  0.4568782944593315  0.7327161003384202  0.1683171541133189
  0.4497903517640631  0.6686598442302908  0.0492487984865401
  0.2390693582472975  0.5310053291745765  0.9286319433189596
  0.4575029179621243  0.5022804397977713  0.8117649108085474
  0.3722947783670611  0.8025754268262443  0.0696766730939246
  0.3871722797774171  0.3111684606479597  0.5574414061809725
  0.4457491129568376  0.1104155978002530  0.4223932623356141
  0.5260117858379447  0.1206806669170503  0.1982369724334770
  0.2339479086372812  0.7257573599257087  0.3842134334228503
  0.2365372885520097  0.6612994003301670  0.2645947470169802
  0.3089600391918541  0.7272776531242229  0.1692007127036036
  0.3086231245684756  0.6616825636566217  0.0506473455123050
  0.0912778801319161  0.5285580279281877  0.9287379703497938
  0.3054114367153762  0.4983499256747834  0.8033029439667339
  0.2374420953498457  0.4759843115063973  0.6873144211403767
  0.2392592345298888  0.5843144719810140  0.5933340805714556
  0.2364765049859363  0.5135961180354929  0.4601338364063505
  0.3110000514474998  0.5965695183739153  0.3639117814712213
  0.3143408320171170  0.5339346746058600  0.2465802495876305
  0.1646401710359242  0.6505584670821275  0.4918056251883872
  0.3803083679399623  0.5973852854560450  0.1532562668286356
  0.1589942460843599  0.3929985510606700  0.8990251571850731
  0.2323663781371609  0.3617212995253836  0.7859750977846917
  0.3056858310993649  0.3371494062030562  0.6715719315146165
  0.3143205708284259  0.4415305123937275  0.5834735667038772
  0.3055492127984760  0.3794271532397870  0.4590634682855479
  0.2232077419576572  0.4579879952703266  0.3495123009026941
  0.3787059973600453  0.3902237069706990  0.2362249429094930
  0.4426051553630772  0.4598296512587707  0.1365443872066777
  0.4431377351801015  0.3955509132191511  0.0142649272174924
  0.0942117002543941  0.2507337159801932  0.8867108748896184
  0.3132982491361813  0.2291158883037595  0.7782906625023294
  0.3784130784606818  0.5222111128270736  0.0286442121610985
  0.5172786346209551  0.1937289010895626  0.3115394771453689
  0.3082856310539916  0.7275063151093654  0.6120099847169611
  0.2408911285561843  0.6326857519191068  0.8366156272735858
  0.5953073667260870  0.2054771830829591  0.1027116665581155
  0.5248765803801350  0.1239066549236535  0.0170367767378717
  0.5333376527775577  0.0498325318448267  0.5199078372656740
  0.6011773225354647  0.0525023150227053  0.3057887729491724
  0.5966735497349757  0.0410568556582813  0.1083411970047871
  0.2427215822316530  0.9749124029797708  0.9614851761588634
  0.3823628524732445  0.9155838879158013  0.8439769325572154
  0.1587204305914767  0.8805429837061443  0.7345317922051958
  0.2977116061216351  0.9908878416714749  0.6340838027553906
  0.3093276350438220  0.9190199977465894  0.5203016519516297
  0.3809387803538096  0.9954054608914499  0.4155822878310759
  0.3035867719509621  0.6082498197771342  0.7174160000848219
  0.2300965461126470  0.9313677449442778  0.3062987124784222
  0.1679074324351479  0.9313121244614057  0.0807590222692109
  0.2503779959924845  0.8048373264630582  0.9436726349787219
  0.3091927534162495  0.7789490817127489  0.8317080904178326
  0.3843727623914062  0.7454779111308260  0.7252115113042485
  0.3832427669535456  0.8637703180932679  0.6240213326386039
  0.2324520540207691  0.7853021768675158  0.4988791428168959
  0.3124409114089930  0.8600622859017697  0.4059742192750078
  0.1645365495280466  0.7979403865868715  0.2805795841417894
  0.2372527979583599  0.8563171733883566  0.1812625496875486
  0.2320230957116223  0.7929592633429593  0.0634513717120895
  0.1556974612387577  0.6634624191085409  0.9416429746741820
  0.3042484444845043  0.9921300324556267  0.2084408119247089
  0.0750040933751874  0.3351903291952149  0.1275876275543050
