Cu
 1.0000000000000000
    17.2079324499999977    0.0000000000000000    0.0000000000000000
     0.0000000000000000   16.1901773955141302    0.0000000000000000
     0.0000000000000000    0.0000000000000000   19.3447050000000011
 Cu 
 447
Direct
  0.0263754071744973  0.0086403437306268  0.1488858320661908
  0.5177418176696758  0.6812951105040558  0.9549875534416262
  0.5904234139993966  0.6407273030023308  0.8338794776141584
  0.6727575354353509  0.6125559007466409  0.7083567570557419
  0.6686315313261237  0.7249820932171650  0.6066286614347437
  0.5179335896916539  0.6596276518079456  0.4969914247852321
  0.6008953286540824  0.7149636730332737  0.3841388379921013
  0.6019239240446923  0.6473794845917576  0.2618883306827373
  0.6784932622745157  0.7136851200258352  0.1525199014407300
  0.6765348631409812  0.6491212814424715  0.0327455239043447
  0.4438921553879066  0.5545515949840495  0.9337982926077188
  0.6634478754593204  0.5101172455371233  0.8156367595163634
  0.6059569477796269  0.7900585883204199  0.0457103119432425
  0.5918297421605695  0.4807846453809581  0.7012592076229645
  0.5832290575385189  0.5206297924871747  0.4776527995645322
  0.6808293941786131  0.5815185632472243  0.3616882500922086
  0.6716940724043811  0.5081283853033299  0.2482515241250770
  0.7509191625749320  0.5788317489562301  0.1281049517167618
  0.6936258181906101  0.4866771070674146  0.0317013105136523
  0.5169166168478305  0.4153252020339295  0.9100346839096282
  0.5946365872095225  0.3794701285644540  0.7982314798804117
  0.6758956230677206  0.3328183852543855  0.6816259281286531
  0.6778772672948282  0.4600498509559746  0.5915082447625851
  0.6663883797963187  0.3826757759599161  0.4730675655172824
  0.5982976894472875  0.4519955846675688  0.3636629506627267
  0.5940322147766216  0.5961014794335174  0.6024931628577430
  0.7342349966628325  0.3565858827066751  0.2531159043262744
  0.6037893428039344  0.8517503150754796  0.1707626195385250
  0.6666847547393758  0.8549683156400955  0.3980237744643818
  0.8269596749259671  0.0995473155348885  0.4477169592402672
  0.8911045106409632  0.1678109282798743  0.3445827941030892
  0.8221188841893668  0.0817896348760183  0.2436456125849426
  0.8985429405843582  0.1590154718422287  0.1470558739458678
  0.8270410327534730  0.0827717118237610  0.0531645481282863
  0.6750820447926618  0.0241250412651615  0.9864897138519302
  0.7485191066635084  0.0016484499894647  0.8780207555504204
  0.8986417322320439  0.0123524710614027  0.5436191712409160
  0.9003502466096674  0.0105736147032271  0.3435489194588391
  0.9088114606702794  0.0086403437306268  0.1482293216670918
  0.5883139217576367  0.9840712864685153  0.9747914222522387
  0.5263831812054794  0.7838264144822283  0.2826537029125024
  0.7357110601047251  0.9135593969375019  0.8655160417282142
  0.6585489719887876  0.9871842850953223  0.6362543393657336
  0.6644648483031439  0.9112061182136655  0.5146810199483525
  0.7471418348693017  0.9851583653540671  0.4063774815899238
  0.5983558021812201  0.9146588289922076  0.2871562269882119
  0.6736466602645222  0.9843492327744803  0.1827865816511547
  0.5273013624016172  0.9242140053328239  0.0679489555410642
  0.5875817013100839  0.8180385164542225  0.9635273580031328
  0.6615592116065053  0.7809975387459631  0.8475628085308100
  0.7442129530790900  0.7494351915575017  0.7229137120467845
  0.7376345915978998  0.8569386461201580  0.6252384050312473
  0.5954908443983343  0.7846293704772385  0.5004445660970277
  0.5157950410829278  0.8803726080052899  0.7489363368425626
  0.9580445688581257  0.1740616318717968  0.5519418621271301
  0.7623325035193288  0.4213782549193879  0.1438922175344622
  0.4473614856036932  0.2789894506658448  0.9004713434503138
  0.4517954872027638  0.9258137407382665  0.2927236419474993
  0.5202232314086053  0.9854301350754548  0.1894654118530108
  0.3842917354664533  0.9251219632656430  0.0680368348858254
  0.4349486056356526  0.8249686443496144  0.9683969075775513
  0.5211297900579565  0.7747838946615028  0.8424554677882135
  0.5976700719208133  0.7474154484008234  0.7359663794304439
  0.5903013772581376  0.8544927186276666  0.6415012531853027
  0.4454437653839115  0.7926095177507201  0.5066581527089713
  0.5265284630403112  0.8555736209286412  0.3979203869999570
  0.3767661364221591  0.7795707477086765  0.2826226866731749
  0.4504472717755235  0.8479764218989334  0.1782840575754451
  0.5911963133607022  0.9884813678564920  0.4111901680589080
  0.4478147649283687  0.7778104211042324  0.0503265622298193
  0.4507204016250075  0.6440070694127165  0.8279036821703922
  0.5270282325521332  0.6341430638432505  0.7141154388242156
  0.5164284698827951  0.7312575031473956  0.6143723825201777
  0.3710187870362077  0.6475956650519528  0.4927628774902487
  0.4409690848710880  0.7156183909984357  0.3856534643459282
  0.4512434162304023  0.6404431801117887  0.2649692771226027
  0.5321014742244643  0.7204175972147635  0.1599224438935614
  0.5302011878248627  0.6525986985593216  0.0322440947018836
  0.3007663029848771  0.5503391643025366  0.9296834715236031
  0.5094491305374691  0.5152870468280710  0.8116201565234518
  0.4476578605467502  0.4888389116693640  0.6968135466526887
  0.3689964638953471  0.6811098129667459  0.9469801943219086
  0.7689747890078449  0.3550787960698875  0.0114838918453396
  0.5137204164815279  0.9235963468751243  0.5192765927420451
  0.3669508956609135  0.8910025100623041  0.7445578777241624
  0.6679167446987506  0.2365316082835580  0.7845067939779902
  0.7459389012768933  0.2000279934334979  0.6745438868155391
  0.7551439583318447  0.3161292537273360  0.5701845802249244
  0.7443233672735622  0.2385389982710827  0.4570270004117407
  0.8174059414674190  0.3063640735111016  0.3523265151885231
  0.6614429861386396  0.2341103871293748  0.2446639791095287
  0.8283078903532074  0.2888905157427731  0.1190430404599088
  0.7591130580594533  0.2088913923014905  0.0312825912827310
  0.5208915278488323  0.1464399456434600  0.8855938873195531
  0.7442884996332026  0.1012644060472942  0.7753466646299335
  0.6781620196910988  0.0611351360505357  0.6581104493451826
  0.5106578754032707  0.9846889449262151  0.6455953967765335
  0.8183357452103432  0.1798367384512902  0.5575764789382934
  0.7471883250564479  0.1650129354664942  0.3359757876897063
  0.6771276130270953  0.0761318834034878  0.2418104850913982
  0.7421731961180497  0.1546486265462910  0.1511758644032050
  0.6803470584869712  0.0793869434755659  0.0523581259057712
  0.5269643085448070  0.0325869621356493  0.9890020292374578
  0.5953281287433226  0.0063735371908684  0.8813343237852428
  0.7529647308093657  0.0204190905189626  0.5468707069970828
  0.7523894147434312  0.0149095770762800  0.3434093463818652
  0.7511806698776294  0.0019202197108524  0.1428118185312209
  0.4388770264495080  0.9824839042322268  0.9682004713951439
  0.5889299167373242  0.9084143019848626  0.8646320789073803
  0.6804865290484098  0.0916227575225996  0.4447549083844905
  0.4476985394605031  0.5891095856923554  0.5987143510330087
  0.8261693417444813  0.0721726926896319  0.6494620879460298
  0.6743905032588617  0.1386265661535571  0.8893571910246240
  0.8992635384851244  0.6459712233082022  0.2649124140171688
  0.9650878322107777  0.7078976602771878  0.1444970342013485
  0.9700739047822100  0.6489359839051616  0.0271109070931814
  0.7386689982619032  0.5384677687455458  0.9298850770792320
  0.9632282247249291  0.5068807152187763  0.8201599610849583
  0.8900584814301732  0.4761830898710945  0.7038387248603684
  0.8960382817518557  0.5835938956650957  0.5946770705472114
  0.8859324773209462  0.5174982641066362  0.4684978395896962
  0.9610664310226300  0.5656509174689156  0.3693595999525449
  0.9602237963806048  0.5018962114651386  0.2563777788288837
  0.9780004816906401  0.5027424035521874  0.0420710731954818
  0.8880245357425260  0.7086944396876202  0.3812750052275287
  0.8057310932203245  0.4121319078076213  0.9158657369031989
  0.9681155056486753  0.3482351403585734  0.6875138442276579
  0.9618277078371494  0.4531753123217754  0.5820224449015891
  0.9638732760715828  0.3832131388181151  0.4685391945754661
  0.9010127317765012  0.4324528710659460  0.3627686490954500
  0.7426148528959388  0.2753885018574548  0.9039348235085515
  0.9639372000789089  0.2434555595943733  0.7913148585103782
  0.9671624568121781  0.2335977306094839  0.2368737336651038
  0.8191551347587955  0.1348464963924341  0.8884887363234536
  0.9709107281508417  0.0547979602745354  0.6492708211368431
  0.9683189002174402  0.0879106301918237  0.4432609595235493
  0.9750309209866754  0.0925554217937264  0.2483187259769533
  0.8903955352869833  0.3701002497611476  0.8057891035298803
  0.9777564082081226  0.0885282886495234  0.0502335135118370
  0.8148722262679500  0.6455944516490051  0.4889892350387351
  0.9674413979350551  0.6148288838709767  0.7181475499367915
  0.9590905980689157  0.7801513466589143  0.2717980191478753
  0.9556561354934887  0.6804798013398922  0.9392881669686874
  0.9602702865677509  0.6493992277484365  0.4836906274869532
  0.8799410544524773  0.5435696276061464  0.9360418005857413
  0.9552725914495325  0.4060788549221630  0.9216916205235489
  0.8875131436839176  0.2666548112655791  0.9064264614011950
  0.9643091215760786  0.1322893903775568  0.8899930239308376
  0.9711489903599662  0.0180781649642802  0.9856419366436447
  0.8795342653149477  0.9816562418989091  0.9674354041583990
  0.8156044467155030  0.8836709041694069  0.7407170334207732
  0.9518497514208920  0.9848371829560630  0.6356960470578384
  0.9642045186549999  0.7185152091650481  0.6094149536009980
  0.9623623449893309  0.9196865688378844  0.5136626534237660
  0.9599332327109408  0.9879007689062541  0.1814322058671868
  0.8230893668460443  0.9261905123974636  0.0604430256238076
  0.8813183262466838  0.8178099828248735  0.9592833025884859
  0.9575738557132704  0.7827763951041389  0.8392452870178173
  0.8939520346036690  0.7812260723753122  0.5068442501449366
  0.9684699933256655  0.8438257570631905  0.3846247590748996
  0.8140760818130709  0.7809604792385012  0.2675229474939009
  0.8947830466989076  0.8434304556502626  0.1623675574272131
  0.8971772913369379  0.7883970870692074  0.0408976254742578
  0.8076953036272523  0.6812024617354008  0.9426534289357219
  0.8840380021947377  0.6397266963008568  0.8269990418566734
  0.8890356973129563  0.9134420418305389  0.2811700927980033
  0.8876468029719631  0.0989481868309197  0.7746281217521800
  0.8958232646363044  0.0014693290367317  0.8739472894520744
  0.8873097491151529  0.9263696333501964  0.8488809987022287
  0.7476067367407639  0.5961941282021724  0.5976442907762095
  0.7406332086688310  0.5138355494524762  0.4842954441538391
  0.8155114663412104  0.5819756305059222  0.3642884448224975
  0.8124082463492003  0.5024212211541833  0.2465714778281705
  0.8936149807468589  0.5770034799214384  0.1435613776483022
  0.8366703127661335  0.4973934813085067  0.0374548229089046
  0.6631515005162634  0.4139540002578360  0.9136015514322907
  0.7439630683231790  0.3744115057958925  0.7937237864314810
  0.8230370653855047  0.3420214962741131  0.6861956540562393
  0.8221595631031200  0.4521005866053778  0.5911670661299823
  0.8176209585829701  0.3866843793503882  0.4654065544033884
  0.7403542675459537  0.4817111330675078  0.7070178893914382
  0.7442013305323034  0.4420512834986015  0.3592999996639907
  0.9130188226070124  0.4262392269814856  0.1419640413229355
  0.9152852192303903  0.3746832755172805  0.0149887268893477
  0.5993030397443243  0.2671427614471619  0.8999388980085248
  0.8155753903485365  0.2412443423158078  0.7931861716164708
  0.8917960521747632  0.2070507700975449  0.6793565732845241
  0.8973864971790960  0.3086988224812069  0.5761448675490271
  0.8869145825244101  0.2439558629451101  0.4495417479873691
  0.9689348951971274  0.3011386829589608  0.3515149235927869
  0.8111936902100054  0.2312135689627626  0.2402441650053593
  0.9807840816460203  0.2990201144490505  0.1238143719431235
  0.9000131927528573  0.2233754831345517  0.0227996498266579
  0.8876758593389295  0.3671354891641883  0.2488408326722997
  0.7300450685462796  0.9845901195729833  0.9788235333648146
  0.8177662404178021  0.5098084163082734  0.8126695392873653
  0.8271223905809789  0.6433152919400930  0.0254101833033896
  0.6688872273554280  0.8785937516471142  0.7431363000883189
  0.8042782748720053  0.9897352145256225  0.6343416712738705
  0.8097408718616860  0.9134235120768082  0.5152703284955755
  0.8925224613489228  0.9825641998317277  0.4032706882839516
  0.7424695710611067  0.9204524653254321  0.2885312802650648
  0.8158891991117736  0.9819650711277588  0.1799847813652366
  0.6802540781126788  0.9207304116313971  0.0601587100966389
  0.7350485749378914  0.8158025928373491  0.9595469406227697
  0.8035460544244523  0.7788480873131678  0.8394572313198883
  0.8955094558730675  0.7540058641444805  0.7300836327046596
  0.8909592288061311  0.8519356126127896  0.6227105815260561
  0.5905105831002957  0.5436808061285323  0.9332555084194871
  0.7435214115452899  0.7791013272808248  0.4971878609676395
  0.6723275012042482  0.7862599888055657  0.2700972953580838
  0.7485249179369017  0.8519109062744816  0.1636288844931984
  0.7502101872209521  0.7795336882012146  0.0485793140810365
  0.6648251472535270  0.6784909411060985  0.9462409739512702
  0.7355832120900729  0.6458353384475082  0.8263166845914683
  0.8200093919476071  0.6160950837092612  0.7177495081987552
  0.8173362061866996  0.7228635247072549  0.6094356310938829
  0.6671031664236918  0.6515363260120778  0.4914498566920507
  0.7409295836118882  0.7204484801376482  0.3715462448251346
  0.7563294581040733  0.6436241211689426  0.2482825403644044
  0.8293829759309637  0.7104671194612189  0.1501109735196272
  0.8163773460768088  0.8489337925083683  0.3965866887088740
  0.9696903607382533  0.9201251063428514  0.0629088166503443
  0.4455135006646309  0.5128349427510026  0.4784488830406048
  0.5256393382111397  0.5164544213131236  0.2521595702803428
  0.2220351710527546  0.3735900200471516  0.4668694870250024
  0.1606739352931383  0.4421377556826794  0.3565654012299486
  0.2911544567923962  0.3658754659104807  0.2499264010487625
  0.3291253171440708  0.4363564725186090  0.1363552713778782
  0.3135685382702671  0.3661534122164457  0.0244590186306794
  0.2239412687257497  0.2496259675867946  0.7823046409857376
  0.3020447831313980  0.2047839635577865  0.6746317661603004
  0.3004641167684265  0.3106506232075383  0.5718749652682737
  0.3009580750068552  0.2378348676293047  0.4555899146562330
  0.3776494499779373  0.2998354236132144  0.3607991178981533
  0.2254638223547883  0.2263217139777799  0.2423429305331871
  0.2225872420251159  0.4520388207596078  0.5765274011673998
  0.3904168176229677  0.2961356494515922  0.1203664000045489
  0.0711396461229134  0.1473231972379709  0.8850717806242071
  0.3071528924440889  0.1163599787534781  0.7764218942599541
  0.2305486865739060  0.0649090292270817  0.6575056326782960
  0.3740232153805322  0.1753834209712744  0.5607297966032562
  0.2414738805532677  0.0985405322488379  0.4458870011199446
  0.3097040414637378  0.1657664787848880  0.3412847339879310
  0.2460764090807432  0.0824937655177960  0.2410247403617681
  0.3050550227491157  0.1596146005461975  0.1448382128339513
  0.2356974748003498  0.0820614045974063  0.0489980333119578
  0.0813849211152613  0.0320866587849125  0.9935665857918226
  0.1471046119198356  0.0087268159147047  0.8764285885982751
  0.3147307929489226  0.2137708941173193  0.0280827492587766
  0.3071993826312350  0.0207402729169664  0.5451803219537334
  0.2302290665372759  0.3427070971621599  0.6828355614624263
  0.0716336043613418  0.4197476365910603  0.9199805579873146
  0.3005454745959324  0.7522764204629210  0.7247643476599928
  0.2907476676548668  0.8526026837471051  0.6211804470525657
  0.1537062184945989  0.7889220967582522  0.5033290763544853
  0.2308160051499968  0.8503791132993856  0.3978169995355315
  0.0830527565791320  0.7818746137558970  0.2686963952151246
  0.1588666292678292  0.8466546327994557  0.1760663964635283
  0.1587213474329972  0.7879709027333944  0.0492875182123479
  0.0826343448948159  0.6792753673473775  0.9395931599887410
  0.1600172613996981  0.6477747860046855  0.8287152737661284
  0.2278580669928187  0.6201592763609259  0.7128644505046732
  0.2178452429362017  0.7220296857893600  0.6173447721223972
  0.1417698629448070  0.3887658883528366  0.7999890667756373
  0.0789906764772310  0.6404308269426346  0.4895113417340818
  0.1529623755002592  0.6369534098257846  0.2543100295403833
  0.2312576619278859  0.7219493901898590  0.1554250891910733
  0.2392016726564961  0.6615732759497002  0.0340895609418702
  0.2216923059225512  0.5130140637037356  0.8136310427065183
  0.1546185884173434  0.4822237895873988  0.6946889342587544
  0.1497894202275299  0.5802153039014776  0.5951164672710183
  0.1503821701136441  0.5091475217585346  0.4685753801880153
  0.2230812002635446  0.5779917334537583  0.3681964909777637
  0.2301477087097700  0.4999258809850761  0.2417329444930794
  0.3076526619559108  0.5872751400729868  0.1393741853390887
  0.2494178912818778  0.5084619208704877  0.0292561969800006
  0.1603310701629352  0.7126351006477453  0.3828309865671255
  0.2276198047836942  0.7830975775021429  0.8458258991284693
  0.3138474793931446  0.0124883559220968  0.3438745899717778
  0.1499753809761148  0.9190133211189916  0.8488551518361223
  0.2292411500604185  0.3049558122275459  0.3538463109155706
  0.0790894681249167  0.2409355130869579  0.2366876362291385
  0.2460415414403836  0.3055549409315147  0.1377199859082886
  0.1780438314656447  0.2185639237490698  0.0251723921352122
  0.1558447671033249  0.1023700146865767  0.7748038804417025
  0.0779330247196545  0.0634204723440252  0.6488986262649131
  0.2296014490108019  0.1671685634838667  0.5616034206776479
  0.0885037310220263  0.0957178330971496  0.4388411454193799
  0.1603078250693619  0.1690338920261200  0.3388913141864917
  0.0959014820516683  0.0873917970873557  0.2521130459213515
  0.1613538542801519  0.1690709515335821  0.1431891827763722
  0.1597906217373602  0.2299226627861699  0.4527622675042081
  0.0917347990286884  0.0906715634977419  0.0506522327427583
  0.1712039626817571  0.0134210201932235  0.3460508960979247
  0.1706402691626092  0.0106230273798432  0.1490150663967219
  0.0219704619423932  0.5795049966751229  0.1342254896107230
  0.0389510027975496  0.4344602610534704  0.1311858981566272
  0.0266834046643411  0.3668266599353384  0.0122696365749697
  0.0901250762987506  0.3067902578469143  0.3533345429666667
  0.1078436488748535  0.3069199661230314  0.1178954396047912
  0.0313498571991430  0.2195954133734285  0.0230219328751717
  0.0789209411965119  0.1688300647350791  0.5568889522998670
  0.0192159183539797  0.1650808778968410  0.1466630015810529
  0.0204072293996015  0.0175469786906583  0.3455753137615692
  0.1589247420017620  0.0268489150636178  0.5440999229504921
  0.3095529483555125  0.0060708845465955  0.1466164772220616
  0.1579542593450847  0.3107309188070393  0.5742011832178368
  0.0762419441622108  0.2369577926193710  0.7837934204734573
  0.0753993095201857  0.9968938760503638  0.6373967708476299
  0.0739639249920462  0.9213357169199429  0.5189819384684335
  0.1538863679697905  0.9804394547372404  0.4095359686281079
  0.0843370479990464  0.9883269532420671  0.1956117966130784
  0.0748937287349705  0.7811210704375032  0.8459086091000091
  0.1470523104592962  0.7575882831991394  0.7318463889731066
  0.1444139923387482  0.8569818822121971  0.6236875930648719
  0.0741266406470578  0.8505891171750040  0.3943431807308508
  0.0210232243792889  0.7933630610691139  0.0478349243371766
  0.0785025295121958  0.6248349508857139  0.7117633740085462
  0.0722263542474562  0.7252600395231299  0.6009113346520406
  0.1541536865458812  0.2041415987617787  0.6749367591803548
  0.0871322705012127  0.7155072124760496  0.1507416370526198
  0.0724297488162208  0.5189621146513850  0.8173168058132699
  0.0784909069654093  0.5815185632472243  0.3608818278696932
  0.0803970046384042  0.4962322834080309  0.2453411670015127
  0.1692571860950091  0.5886957545256963  0.1355798653946905
  0.1026367479144768  0.5035885956392362  0.0349425075233766
  0.0867777828242228  0.3489145646620432  0.6816982993537507
  0.0700587492717638  0.4416806884239815  0.5781971087178635
  0.0785548309727352  0.3668204833507615  0.4691440112423527
  0.1520209492105484  0.3660113507711746  0.2419190419290448
  0.1802695491752699  0.4381785649688235  0.1291336569877907
  0.1728311192318749  0.3633183598956034  0.0064334142081772
  0.0924205292890952  0.6551558045741986  0.0360435840195029
  0.5212983169863615  0.5820188665979613  0.3738155996692635
  0.1472034035675213  0.8257963066829325  0.9658018822204838
  0.2277650866185262  0.9811250556252872  0.1918381541615652
  0.5285101072674190  0.0772869047193865  0.0507556202071834
  0.3751331685986480  0.0268489150636178  0.9920416206915537
  0.4502554997535452  0.0017410987581196  0.8749656559766610
  0.6019704142318387  0.0327907894266902  0.5501739364854616
  0.5995529245002353  0.0073062014619951  0.3501605478088190
  0.6091066579587834  0.0011666763924586  0.1540345277945565
  0.2844075683828011  0.9776723448467450  0.9714468377780893
  0.4420848493625972  0.9157582610469134  0.8562111699299627
  0.2276081822369077  0.8947269905622340  0.7405774603437992
  0.3592625809616075  0.9903837559062074  0.6400796755494593
  0.3661547512060345  0.9240595907183992  0.5184960173856360
  0.5995006230396958  0.1615602246879521  0.1455826025778112
  0.4476346154531772  0.9768446825134269  0.4208000328772138
  0.3703040004088346  0.9858810257495758  0.1905303027365886
  0.2358020777214289  0.9217371949174479  0.0661138280475201
  0.2938160200065172  0.8179149847626824  0.9614027456091987
  0.3756271268370767  0.7832828750394528  0.8412561732008838
  0.4453101060958662  0.7619860114179621  0.7272559855526355
  0.4296952144881297  0.8580195484211326  0.6210460433488131
  0.2992146929888719  0.7826405102434447  0.5054019950162074
  0.3753365631674129  0.8466361030457250  0.4041856673441133
  0.2285321747064387  0.7660563806542044  0.2818317725703233
  0.3104943746452235  0.8542333020754328  0.1771519648399910
  0.3066763680258403  0.7878226647035463  0.0549117962770691
  0.2970122203728197  0.9180497739249799  0.2957528946551523
  0.2232497271919497  0.6777868104643205  0.9425707189641813
  0.5339959493506728  0.0752115723015150  0.2403992462019969
  0.5246630442810691  0.1027591395149276  0.4455354837408996
  0.5983325570876470  0.5796902942124329  0.1411989740861903
  0.5469260326507150  0.5043112560347448  0.0370205955583194
  0.3674739102663085  0.4149607835438865  0.9182022935992048
  0.4448161478574376  0.3758012373257170  0.7969649834412050
  0.5282602225115079  0.3418423753213802  0.6862938721474426
  0.5306544671495382  0.4565106679933547  0.5867110664132636
  0.5236402601638525  0.3776974487908556  0.4698418766272220
  0.4468733386386577  0.4466404858393113  0.3623912848502986
  0.5941426289710940  0.3747388647784733  0.2473830694239070
  0.6089206972101984  0.4295375231456027  0.1368050068481273
  0.6129943998588858  0.3599644744702932  0.0225101649262678
  0.5982918781738940  0.1554454059567237  0.3463662278644205
  0.3013997317847443  0.2744620141709050  0.9061783314865748
  0.5956186924129864  0.2004541777693107  0.6692297711440931
  0.5957639742478184  0.3124171263965599  0.5739272064371101
  0.5993553412048638  0.2438385078381472  0.4660113710702750
  0.6732514936737795  0.3001504294266412  0.3558623664718586
  0.5148187471528572  0.2323932966169691  0.2437438306761464
  0.6755295128439441  0.3003295503793741  0.1302399028571384
  0.6055966488292438  0.2149567983561028  0.0308948882911372
  0.3762140654497978  0.1357050416486368  0.8967338866113493
  0.5963392903137528  0.1044144641815632  0.7709630361383125
  0.5190667880033430  0.0684605653588558  0.6538353776912079
  0.6686140975059440  0.1757416628767404  0.5672328681155905
  0.5258427327799047  0.2427576055371724  0.7865538657736060
  0.0814139774822279  0.9225339743278809  0.0773985697895110
  0.3054036991527124  0.6525245795443974  0.8271386149336474
  0.3669160280205540  0.7167116464685643  0.6109347493280463
  0.5359252921172408  0.2986186364515457  0.3573046216005877
  0.3708037699206563  0.2338139110696787  0.2417432832395219
  0.5346700570642929  0.2959688816680134  0.1245897779263112
  0.4653125091155270  0.2203798396147075  0.0204424156377674
  0.2240168152798621  0.1450563906982125  0.8905926712245028
  0.4504995732360629  0.1097448566715129  0.7799835924093960
  0.3730469214504615  0.0622530978589724  0.6615739294034204
  0.5244596497123045  0.1740245723643346  0.5582433280838349
  0.3816417947991189  0.0945689883658278  0.4372748253333403
  0.4534517001198477  0.1677553390186814  0.3432180795726791
  0.3853319534038498  0.0862923650326502  0.2447880440668388
  0.4468210371781184  0.2407008028730321  0.4643726797591383
  0.4518594112100897  0.1617640519789930  0.1464510572789816
  0.3000282712639309  0.0083500442555078  0.8730478185115771
  0.4495872033133184  0.0266203814342690  0.5447409252299272
  0.4608378286027034  0.0089738792977845  0.3515407704588933
  0.4532018153639369  0.0017966880193125  0.1538846159711404
  0.1376787264759397  0.9910322972867923  0.9689758773783315
  0.2888531925286583  0.9217124885791400  0.8515483952843946
  0.0701052394589099  0.8866171350126351  0.7398951030785942
  0.2154684321183512  0.9988333236075412  0.6373967708476299
  0.2179730909508537  0.9209404155070150  0.5158234514302494
  0.3024225159019612  0.9889816712072288  0.4133096110796208
  0.1489351630387181  0.9169379887011202  0.2917879853944527
  0.3855179141524349  0.0846123340277066  0.0582408726315547
  0.3791545697867961  0.6268423408732383  0.7125904737239466
  0.4534575113932410  0.3222873085506033  0.5715906497411051
  0.3735002007751372  0.2460929612087516  0.7891488911306734
  0.2287762481889564  0.6462306398604361  0.4892270262069132
  0.3027886261257376  0.7081694299985756  0.3839165549435882
  0.3019343689369258  0.6408261283555625  0.2593811846704303
  0.3750692445913221  0.7174528366178041  0.1593744903321090
  0.3837396644940919  0.6475709587136448  0.0299592317380905
  0.1488073150240659  0.5445640577230432  0.9370808446032127
  0.3651261558154243  0.5179182718578723  0.8084409919923826
  0.2980466270368232  0.4823349681097848  0.7025412121818346
  0.2964543381270652  0.5818953349064212  0.5921389082955774
  0.3026491555642989  0.5126064091216536  0.4761536813303689
  0.3707979586472631  0.5819447475830373  0.3668472845670172
  0.4482389878860781  0.2143885525750190  0.6732618822566689
  0.3787187242823003  0.5123346394002656  0.2403268749768992
  0.3879237813372517  0.5022729831243355  0.0335209298875324
  0.2276081822369077  0.4132313398623271  0.9200684373320759
  0.2954315540098484  0.3811131000619357  0.7957191644948833
  0.3758944454131675  0.3501375284082889  0.6798373249941003
  0.3747786809216581  0.4576595127246763  0.5827668346454496
  0.3753772420811657  0.3772218517784266  0.4671279556860647
  0.3011498470288333  0.4315634428868583  0.3602408255902581
  0.4427182781624644  0.3647080914254281  0.2433716358042161
  0.4705833340832297  0.4361649983967221  0.1318785941682750
  0.4599893826872848  0.3692664108432528  0.0194240491131810
  0.1448963280303902  0.2763829319743516  0.8999440673817463
  0.4599835714138916  0.5743846080607914  0.1389968210939377
  0.9709223506976282  0.8823491150699292  0.7378066762972085
