Cu
 1.0000000000000000
    17.1025312499999984    0.0000000000000000    0.0000000000000000
     0.0000000000000000   16.1885049381434385    0.0000000000000000
     0.0000000000000000    0.0000000000000000   18.3606875000000009
 Cu 
 399
Direct
  0.9826858597320208  0.0225130406090186  0.1542231874487267
  0.5607950942934247  0.8379496760759814  0.6840617351610605
  0.6258497919715827  0.9230409186127972  0.5822463755782563
  0.4957637849660410  0.8399510962271197  0.4672561280725461
  0.5756700853857523  0.9176420259828750  0.3664374631941202
  0.5010963289425358  0.8437686198487350  0.2633476415303074
  0.5786170175832885  0.9222193479952003  0.1675941464610186
  0.5132699655204545  0.8390121583784376  0.0633551303566381
  0.5491126130817621  0.6887759253666125  0.8955788692553038
  0.6318021272435913  0.7600796068622541  0.7889815536591422
  0.4908639254788670  0.6917039289210551  0.6632945389435987
  0.5673379854224794  0.7718163299707802  0.5656021186570489
  0.4918520832990727  0.6878740508540625  0.4669021108278213
  0.5683436845057653  0.7670784001685490  0.3646837162279459
  0.4973775811694539  0.6829075638123494  0.2666536179541206
  0.5706766724954819  0.7650522711266560  0.1667880764268765
  0.5838384668936064  0.6893071665178406  0.0408886513644979
  0.4280895920011837  0.5432899766023960  0.8954536016148630
  0.5681390364364922  0.6081693465017916  0.7766236286086777
  0.5043063800862807  0.5346295103928412  0.6712898822552257
  0.5688991578366503  0.6105537544596291  0.5735157656814319
  0.4934951149409533  0.5310405440107080  0.4644294365338986
  0.6365441153630399  0.9094448514749727  0.7872659316270155
  0.5644319828387974  0.6037217461659292  0.3666662127984039
  0.5637361794032677  0.8454055838612399  0.9009218064410711
  0.7357399580836899  0.0472651719226317  0.3860826970667626
  0.6727843648875071  0.3957902532416641  0.0140650370526700
  0.7292613849192641  0.3229731521872916  0.8128150838578346
  0.6580964806013727  0.2545357020192059  0.6956789472071782
  0.6605756457834273  0.3120703541417395  0.5695616653788153
  0.5921530255937989  0.2496124555363136  0.4658400590936476
  0.7377338149871816  0.3175124873304825  0.3305673466747906
  0.6757137558219631  0.2461655652760200  0.2234961926126130
  0.7417215287941659  0.3189332485488831  0.1137835252628745
  0.6712173453856424  0.2482040487632905  0.0160366407848288
  0.8155176225741434  0.2406369509696352  0.9117002699381487
  0.7400141791876564  0.1680484071547447  0.8056584890952474
  0.7336057710755530  0.1722365641376818  0.5923004653284358
  0.6636804493486891  0.1143745192126474  0.4912421580074274
  0.6723107507843317  0.1868951135779624  0.3613450612892352
  0.6021281571989524  0.1136394297126923  0.2545407817653885
  0.7469956018937255  0.1505730441684178  0.1267514492580953
  0.6810170643599901  0.0942923682516899  0.0189177965149724
  0.8173243726714428  0.0844211663951503  0.9071307242716261
  0.7493168957080546  0.0158663489959794  0.7958821667216978
  0.8149621492432584  0.0906972246468676  0.7037342011294508
  0.7499951578805036  0.0218211916678845  0.5893593989876464
  0.6799002706105272  0.0190476186806590  0.1523714049378595
  0.7415636574264404  0.4739259430310057  0.1235870797321720
  0.5784299107770957  0.5411958981109276  0.2394160757869221
  0.5159303904210082  0.5627914686306157  0.0228991289133371
  0.6579736917598088  0.0853601042438325  0.8982149361237151
  0.5982632322335325  0.0256510697348772  0.7882245013973465
  0.6676096922787378  0.1051704574064872  0.6945733241198074
  0.5893815060270680  0.0283937566086591  0.5909170748644349
  0.5907672658104336  0.0496372254350917  0.3888276923181659
  0.5209764271005203  0.0285605416212540  0.1514945314547724
  0.4102033507466910  0.9896622653104056  0.6826511126013116
  0.3930304541908083  0.9891866191633758  0.4747449544032594
  0.3584098479574476  0.9891433786045548  0.0649400383291745
  0.4132438363473239  0.8439477593067074  0.8917609294314276
  0.4917117531944279  0.9215027901633113  0.7945695797066420
  0.4120568775455384  0.8324210617695965  0.6953685013156503
  0.4807660050321495  0.9188960021886806  0.5813858413526178
  0.3524633597731328  0.8434288726008567  0.4611670314632823
  0.4282299221058284  0.9204155989701003  0.3661814814940886
  0.3467741434473328  0.8440280632016606  0.2721762869718247
  0.4310306771110267  0.9289772296166361  0.1669787010971128
  0.3596903601623293  0.8365474465256468  0.0762250188071659
  0.4100103968528049  0.6864224035222186  0.9058453693523185
  0.4889051511015363  0.7644283716350974  0.7886166435761186
  0.3418333543463044  0.6912529916647802  0.6671233716057743
  0.5313316194057530  0.0890046656301644  0.0211998461386587
  0.6570264635534575  0.6172992816356875  0.1364842002784480
  0.6030403028791422  0.1532045410338032  0.1217625293170528
  0.5138020505005650  0.1875993169644739  0.3588941726719109
  0.5069258753729801  0.4084782686442500  0.9218360559755725
  0.5060371180435642  0.4709423444723645  0.7915740491743566
  0.4299314246246441  0.3958520254685511  0.6898240466213476
  0.5874695083512854  0.4578033918135039  0.5641533711632528
  0.5261335584462092  0.3783148902553374  0.4550398099199715
  0.6423502734427101  0.4577663284773715  0.3408392931909546
  0.5219996674468870  0.3969639255525169  0.2247978867893696
  0.5992923196675926  0.4747042730897816  0.1197745863274452
  0.5213214052744384  0.4098743209718957  0.0185746721085470
  0.5849143310292150  0.3293604004474054  0.8131799939408586
  0.5064522612698046  0.2646416383379158  0.7142457900881978
  0.5048209238033110  0.3113476190871617  0.5829380708102567
  0.4362053497197965  0.2498533672211727  0.4723921013306281
  0.5923225911369110  0.3227013543889889  0.3295379734555144
  0.5236017694749128  0.2415882432636949  0.2257401173022522
  0.6014265066757294  0.3103777951250362  0.1192081587358859
  0.5217774781145331  0.2482905298809323  0.0174145848296801
  0.6626396677392417  0.2425024722216221  0.9102025046720061
  0.5912818095274635  0.1841091861453595  0.8042369736971994
  0.5804237676805879  0.1869198224687171  0.5975344741312107
  0.5133167422220026  0.1159682426663313  0.4936930466247516
  0.4592545694076715  0.1005993126168506  0.2477436506666755
  0.4181904725360461  0.7753064607898945  0.5664354207869392
  0.6592191214385295  0.3939185547669886  0.2193133427057126
  0.6746788213002094  0.3821818316584624  0.4514506197003785
  0.7944271772635995  0.5306019611998103  0.4676918416045148
  0.8604641856742691  0.6042406328717795  0.3644985379768593
  0.8733920965646530  0.5352101693255789  0.2426185702468927
  0.9570639214589941  0.6155264187240311  0.1311249238352319
  0.8113311077855794  0.5587083244333864  0.0101381688458014
  0.8096822290560054  0.4023442865143728  0.9146794612129854
  0.8049460880242509  0.4717700923126501  0.7928648505128140
  0.7311266058934985  0.3882108010026317  0.6892194940957409
  0.8728775528476231  0.4466782137511587  0.5686030956084838
  0.8365963737093007  0.3774933196377406  0.4540213295389943
  0.9321904104107395  0.4657534774138581  0.3430886642997434
  0.8139915326861334  0.3991568396070046  0.2207294116846112
  0.8863726312442779  0.4757544009468603  0.1131245085457717
  0.8194351713288055  0.3983290917667190  0.0113037025438179
  0.8794789148536125  0.3312506305901470  0.8174282008775540
  0.8005081484648653  0.2454922480029520  0.7055533051254206
  0.8055892676705384  0.3063317142639390  0.5821701257101618
  0.7465102936151625  0.2493468349606996  0.4621092619761649
  0.8913543499591612  0.3085616916545591  0.3411987568548288
  0.8252705648469435  0.2471353892381456  0.2260287775171815
  0.8944123768228749  0.3194459580320449  0.1183857494442948
  0.8678315161681107  0.6056428624221140  0.5740168362431960
  0.8232065428911288  0.2385675813689214  0.0216736846046749
  0.7953217816807086  0.5317632790652855  0.6713171143509739
  0.7276242003650771  0.5427216721150357  0.9026483213114974
  0.8151375618740642  0.9916945715749871  0.2681459368011136
  0.8061271997383422  0.9902923420246525  0.0640413791694889
  0.9256241309309107  0.9304350541711685  0.9898618311541981
  0.8504539715429544  0.8391233483868343  0.8900507538184503
  0.9263550168926015  0.9158568086258413  0.7867321825503534
  0.8549796174177434  0.8300304765890705  0.6937727005048147
  0.9267292305049870  0.9019765892443369  0.5877527053385116
  0.7911060314536768  0.8502485264491793  0.4610526566611405
  0.8755145893974023  0.9197052183609001  0.3667805876005458
  0.8075363478724821  0.8399016784456103  0.2677429017840425
  0.8922723427270451  0.9189824833063226  0.1661399525480729
  0.8074369473816921  0.8366462820886663  0.0660783399314430
  0.8474836509946441  0.6882014436565634  0.9001593077601256
  0.9258463202632645  0.7572875022069624  0.7932460998532870
  0.7892408104794426  0.6875960758330711  0.6764912125431031
  0.8487524690241387  0.7624701920427801  0.5703622889938079
  0.7880012278884150  0.6883991147826017  0.4608511391526051
  0.8663405088062622  0.7588503395472032  0.3634855040150319
  0.7970174371118305  0.6815485748208355  0.2663322792242935
  0.8780990021579406  0.7560088171104020  0.1643262949712529
  0.8851739782671054  0.6990486466979173  0.0393527611643080
  0.8653523509860561  0.6123019084805308  0.7756705052574961
  0.7819845746517784  0.4586126079857232  0.3488128508259832
  0.9618877688061520  0.2468450597717768  0.9059924226693578
  0.8793268905735808  0.1749360104526430  0.6067716010089489
  0.7783593802817931  0.7546065875600676  0.7933877067511765
  0.6355501104551405  0.6932420573705411  0.6680111379271607
  0.7042007670648166  0.7660653356476023  0.5578627570454535
  0.6385905960557735  0.6801216363797463  0.4624360471251415
  0.7160645079949786  0.7632917626603770  0.3589704225400053
  0.6446598730816523  0.6737961603465198  0.2646711213836626
  0.7239229938550760  0.7494794927284483  0.1709927120103751
  0.7378624509164392  0.6892021537321328  0.0342658056785726
  0.5820492580593878  0.5415047592453622  0.9028825173349307
  0.7134684010590533  0.6184050044969642  0.7823151366200199
  0.6514424948061411  0.5363158921868560  0.6732996109214316
  0.7186547678432100  0.6056057990859819  0.5674266690721681
  0.6452913585525532  0.5283781610318790  0.4698268379111619
  0.7170994425167323  0.6000771847795970  0.3692042441221221
  0.7299922708809548  0.5457979290140077  0.2460879392451941
  0.8068580857000330  0.6184667767238511  0.1433303491495073
  0.6674752092617865  0.5553788014041782  0.0113527203161645
  0.6586870364584189  0.4044445422285301  0.9266506905038275
  0.6631775998070459  0.4711153067076481  0.7930936001170978
  0.5763483475582012  0.3969639255525169  0.6914525259470810
  0.7296122101808755  0.4553695660741568  0.5703677354129575
  0.6916353756114315  0.6976711260383376  0.8985743997875892
  0.8854370972133144  0.1739723637132059  0.8059689349867750
  0.6668495708785793  0.8350154952988498  0.0683658359742790
  0.6434787613675605  0.8325816695595027  0.2579339008955954
  0.8171255716898630  0.1127375552001423  0.4869830582324324
  0.8195228776442079  0.1782964195952945  0.3645584485875050
  0.7457209367765371  0.1090744621457443  0.2596168444128247
  0.9026801588215193  0.1577509769326849  0.1254116301472913
  0.8285332397799298  0.0824444551347670  0.0219841304962027
  0.9655889753161540  0.0809125039079699  0.8999033260600939
  0.8985521149098908  0.0083054284250131  0.7938397595405944
  0.9621801231908288  0.0967385484364143  0.7035000051060176
  0.8942837408936172  0.0244403340878923  0.5894356488557411
  0.8905708402082294  0.0389259212928893  0.3879181403201811
  0.8347194585596793  0.0201656959873134  0.1470284677520924
  0.7003884658886385  0.9830155736973666  0.6850475370271399
  0.6999967110131722  0.9876608451592672  0.4779692345398284
  0.6502029122151138  0.9887542135751671  0.2695347736842640
  0.6581140218644531  0.9914413054447504  0.0667046781336480
  0.7122755951695745  0.8467707500754422  0.9054042094012001
  0.7868142690866299  0.9122616650210190  0.7901307480997101
  0.7044638860110252  0.8374307893701310  0.6826347733438628
  0.7774998583908446  0.9078573052439772  0.5810045920121453
  0.6417421763225837  0.8467831045208196  0.4582423043799419
  0.7263553823355825  0.9162459736552294  0.3609256870147153
  0.7353774386466914  0.9077955330170905  0.1631988862072836
  0.8510445274000010  0.9884700613314867  0.4834047608511388
  0.3410030678938236  0.6849584017449968  0.4590810529289818
  0.3499783475033844  0.6885782542405742  0.2689356675778070
  0.1287830200573378  0.5408685053084262  0.2490017734902353
  0.2154134713246023  0.6188003467490408  0.1465219507711787
  0.0646697034978369  0.5570157654166831  0.0229535931048331
  0.0611088270924805  0.4063224179258943  0.9291560433126480
  0.0572672904778346  0.4745869058586964  0.7986435012305502
  0.1345950252247013  0.4573339228891628  0.5735756762920775
  0.0851520516882549  0.3876054331791391  0.4520333865493867
  0.1959251280420842  0.4611143831746460  0.3449458932297604
  0.0752236967846495  0.4000896002329980  0.2287846656068839
  0.1419565086308493  0.4868239840050073  0.1309016206500979
  0.0725515777087088  0.4033388193672531  0.0303008125376567
  0.1455056908608187  0.3420484158499911  0.8178802536669715
  0.0728673204441589  0.2621892809305028  0.7110106171133296
  0.0554371520297613  0.3248633823300332  0.5727423741621872
  0.1550013612751034  0.3179078295825591  0.3361608191414399
  0.0764808206387576  0.2472342248011647  0.2296506462516720
  0.1515457324482302  0.3230102155234237  0.1278734116029150
  0.0752997089246654  0.2500386839018337  0.0301864377355148
  0.2132442017903049  0.2503351905908912  0.9141783906512213
  0.1482245866383079  0.1809155620153026  0.8021237630671506
  0.1371677438098525  0.1912006377919848  0.5938908197201218
  0.1207081919525799  0.6119745156780294  0.3727171844736203
  0.0787494906638449  0.1186059167544053  0.4794343212910733
  0.0521277003952264  0.5445871933670225  0.4749791504266927
  0.0641083830792586  0.5325539635694387  0.6783375486348207
  0.0970801105830458  0.9880067696298344  0.4808231581742238
  0.0531918703554475  0.9824843325461384  0.0561440714025548
  0.1201878011478559  0.8483088785249282  0.8955407443212569
  0.1898675451915924  0.9205762067600065  0.7940685091448778
  0.1129198711448046  0.8433300370378374  0.6951234124539178
  0.1856225595260932  0.9065971518154827  0.5913745740730022
  0.0526773266384177  0.8465730789494039  0.4711230856687689
  0.1409975862491113  0.9229976780539763  0.3695963863008939
  0.0555716350467122  0.8296969065638812  0.2704062007482016
  0.1387639987501846  0.9066836329331247  0.1651160257479464
  0.0589103221197153  0.8303516921688829  0.0683386038785310
  0.1218659153158976  0.6936621085133725  0.9060850117949011
  0.1934576570354166  0.7535132191441677  0.7938397595405944
  0.0529345984969326  0.6975537588072523  0.6746394300322358
  0.1251987553012069  0.7665533362400094  0.5698339863362957
  0.0528351980061427  0.6955955792149351  0.4669347893427191
  0.1319813770256958  0.7620192547865051  0.3689482624220905
  0.0427840542609734  0.6753404660186942  0.2701066476949730
  0.1242339858317753  0.7556443609717686  0.1720057459722027
  0.1337881271229951  0.6974425687988557  0.0467272126928797
  0.1211584177049813  0.6119003890057653  0.7811223708262557
  0.1184512161028791  0.6229205542824028  0.5769633490031348
  0.2345159068193483  0.0267259064827108  0.1553342569552472
  0.0800475441318077  0.1885444320358446  0.3514652569518432
  0.0853566997575280  0.0910184402266801  0.0164505686401991
  0.9405692870755604  0.6803378391738509  0.4669838071150655
  0.9407973234956080  0.6760261377371396  0.2601015757171400
  0.8780288371056184  0.5297803905822134  0.9020001974326941
  0.9380901218935058  0.5296321372376845  0.6712953286743752
  0.9329797672493649  0.5237699529061104  0.4650666675744028
  0.9572217928267196  0.5521048733791684  0.0157697662464979
  0.9566312369696731  0.3967724316491672  0.9176314203920739
  0.9497316734913139  0.4669024408339559  0.7965902012111473
  0.8759180384482557  0.3861537858472952  0.6932552906856018
  0.9814287358779128  0.3851468985490374  0.4475945549424549
  0.9622444411554572  0.4013806397749358  0.2173907567459004
  0.9688458031614465  0.4002254991321493  0.0120498619673144
  0.9553331835017107  0.2578775794937916  0.7085379428194067
  0.9586601763993262  0.3209346687000212  0.5791582559204276
  0.9017797073167165  0.2461655652760200  0.4798155706315461
  0.9652264558791550  0.2373506684992481  0.2231857467210852
  0.9712372620280987  0.2400933553730300  0.0174853882786249
  0.9628876208017455  0.1071718775576253  0.4878544852963700
  0.9672553953088082  0.1801557636245927  0.3717804003798875
  0.8875654371337576  0.0948236094029180  0.2593063985212969
  0.9732895898085260  0.0837602035674597  0.0236888596900304
  0.9378445442103779  0.6887141531397253  0.6775532642772770
  0.1484058463568074  0.1617291083442064  0.1303842108308850
  0.9909127121168101  0.6888624064842541  0.8994022554983299
  0.9519009430256115  0.8372516499121586  0.2617246086237237
  0.2233304280616353  0.0942244188021143  0.8958675294702335
  0.1574337497556095  0.0277389710036573  0.8007240333457010
  0.2235292290432151  0.0994009314152433  0.6927106487706407
  0.1609069198455635  0.0400069352634115  0.5838312835507927
  0.1464704603302504  0.0423666343304942  0.3712956690755722
  0.0831231122586017  0.0259661080920009  0.1468977536925017
  0.0350366630670529  0.9365937451918007  0.8044602768823333
  0.0401470177111938  0.9258206688227111  0.5965541186842810
  0.0475085011173417  0.7645272071981163  0.7977339492325654
  0.0535134601785917  0.6124686934931254  0.1451058817922802
  0.0466723675771673  0.4687988481993862  0.3489599041430227
  0.0699788591235577  0.2417179649401575  0.9080892940419575
  0.0106893899112154  0.1553542145294702  0.1198236040997918
  0.0773578837927863  0.0979492840833991  0.8973162769640294
  0.0043803822899020  0.0238596751551547  0.7938560987980430
  0.0759311943955663  0.1103963878011257  0.6976832294542344
  0.0107127782619895  0.0346574604149990  0.5873660095788893
  0.0054094697239621  0.0438306361077155  0.3728097735991637
  0.9956196177100977  0.9821445852982598  0.4813351215742872
  0.9600810187088534  0.9826820036721768  0.0592921016710292
  0.9346695755927941  0.8390801078280133  0.4580680189671544
  0.9537837052629267  0.8295362987739749  0.0750594851091494
  0.4188628876208013  0.7643480677401443  0.3638721997746542
  0.2958986334259726  0.0513297844517950  0.3780492288210882
  0.3729515550512440  0.1052692929695064  0.7080967828682884
  0.3781028393092393  0.2446583229399777  0.2204952156611781
  0.4485427047531339  0.3244680400779565  0.1190665518379960
  0.3706010257984471  0.2530469913512297  0.0222727907111319
  0.5075924433700415  0.2521760029521233  0.9042550149606323
  0.4370590245230508  0.1754981377173145  0.8029243866821432
  0.4346675656563990  0.1728295775157968  0.5984984903206918
  0.3732146739974527  0.1136703158261357  0.4816292282083661
  0.3731445089451301  0.1918677778423644  0.3544771267415773
  0.3085517311947605  0.1175866750107703  0.2515398048139535
  0.4531911394694860  0.1727986914023534  0.1250358272259683
  0.3779332737661272  0.0963370289616490  0.0196203845852719
  0.5086273778917958  0.0936684687601315  0.9021744828454815
  0.4557112342653953  0.0158416401052247  0.7955227030578236
  0.5195906673171550  0.0997962736673199  0.6970296591562812
  0.4404561824729889  0.0267938559322863  0.5939126053967202
  0.4406432892791817  0.0392347824273243  0.3891653703054417
  0.3792430214094767  0.0307411012303643  0.1455307024859498
  0.2630496947637498  0.8427926186639207  0.9045872465287587
  0.3369744244729850  0.9099822698488893  0.7880883409186064
  0.2645290079502117  0.8347066341644153  0.6868720874422591
  0.3362493855989880  0.9110076888152134  0.5800841471758612
  0.4392282940573486  0.3255799401619220  0.3260141402657170
  0.2009887059846766  0.8496987536298853  0.4713790673688005
  0.2945479561687684  0.2535164602755707  0.4639828301636305
  0.3622747729228675  0.2580752506198300  0.7049160740849162
  0.4239381597387811  0.7703585054162473  0.1745655629725191
  0.4354510754073316  0.6946998819250739  0.0459374819161862
  0.2765857027742602  0.5375945772834164  0.9056819767778301
  0.4250666476636315  0.6138400369300163  0.7793087132494354
  0.3585267897113179  0.5363158921868560  0.6667856936184985
  0.4166351472095683  0.6119189206738315  0.5673722048806722
  0.3487796945262119  0.5300954289393369  0.4706165686878552
  0.4090105448572118  0.6057046346490013  0.3695691542051459
  0.4336092427838712  0.5391141740648362  0.2450476731876186
  0.5056278219050172  0.6271210657107172  0.1454490061987056
  0.3712851350585893  0.5551625986100736  0.0277409955373401
  0.3533521171025485  0.4147913902320993  0.9232412321161717
  0.3553576681814277  0.4721036623378399  0.7924999404297904
  0.2849587323513879  0.3932143513804771  0.6843177168610922
  0.4357960535812494  0.4523674358474495  0.5736029083878257
  0.3851544270676305  0.3843747457129502  0.4525290106920012
  0.4871042480919307  0.4640238550610228  0.3434372351253184
  0.3707004262892370  0.3989159279221453  0.2239155668871330
  0.4421869204302724  0.4835500559799972  0.1259780577388507
  0.3718639967402484  0.4062359368082525  0.0250776965731809
  0.4306740047617219  0.3433332781692403  0.8153531151815526
  0.3564218381416488  0.3233437855486135  0.5769197776499381
  0.3044178401954387  0.0364488549947214  0.5900293085430485
  0.2849704265267749  0.9255303393563422  0.3680550496815544
  0.2770417756143549  0.9165980753484850  0.1673163790843886
  0.2212722531935143  0.4052661128461270  0.2205551262718237
  0.2922383565298262  0.4775766816400263  0.1207821738701232
  0.2235760057447632  0.4052228722873060  0.0229481466856835
  0.2909227617987831  0.3391512984089918  0.8165295417178683
  0.2142966775751394  0.2549866392754809  0.7012070626440321
  0.2125250100040011  0.3240541661578137  0.5836787838146036
  0.1468271326795556  0.2519906862714623  0.4744617406074798
  0.2967698494923081  0.3245421667502207  0.3328820748133747
  0.2260902534529788  0.2461161474945106  0.2334631396563988
  0.2918290603912796  0.3158508144272227  0.1241644001620307
  0.2240262314971646  0.2461717424987087  0.0235091278580933
  0.3627600812014300  0.2567409705190710  0.9039609083265533
  0.2893206597707572  0.1787473568515696  0.8048524190611052
  0.2875256038488449  0.1861044290738089  0.5951816210585794
  0.2249266830019674  0.1103469700196162  0.4860462741386996
  0.2210383696857735  0.1813294359354455  0.3603647058423055
  0.1546622301888790  0.1060661546963483  0.2568282778082245
  0.3079611753377148  0.1640764529659117  0.1156570934503404
  0.2377610404892548  0.0904068951804989  0.0231877891282663
  0.3682797319841175  0.0947124193945214  0.9067167964162559
  0.3052071970340646  0.0208637221511364  0.8016335853436858
  0.3434880801635720  0.4606819775864370  0.3474784781343289
  0.2057482353672060  0.8393951461851369  0.2690228102842007
  0.2342878703993008  0.3958952660273720  0.4570277529095790
  0.1277013088340355  0.3982240789810111  0.6916268113598685
  0.2108059662221051  0.8331190879334198  0.0624292391012045
  0.2667041245722029  0.6943601346771953  0.9078986693717214
  0.3436810340574585  0.7521048123711448  0.8030986720949307
  0.1989890019934911  0.6916853972529893  0.6746557692896846
  0.2750713070616372  0.7607529241353220  0.5618931072161648
  0.1922706982336311  0.6867436191020305  0.4673378243597902
  0.2707093796422674  0.7617906975470231  0.3627447910106850
  0.1959368222174712  0.6755566688127987  0.2750846747977163
  0.2723699525472284  0.7535255735895455  0.1667390586545300
  0.2894785311384823  0.6940945141015812  0.0395706179302923
  0.1367818360220795  0.5310837845695285  0.8989556491280621
  0.2755098386386516  0.6190412584339002  0.7824676363562091
  0.2115193109207151  0.5365320949809602  0.6729510400958566
  0.2660784861889957  0.6090094487874547  0.5669964019593490
  0.1929840429322412  0.5374710328296424  0.4649305070956627
  0.2671075736230562  0.5981437140780349  0.3645584485875050
  0.2814037030337247  0.5425240009889974  0.2387788447464179
  0.3535275297333543  0.6290854225257231  0.1496808738779524
  0.2116888764638271  0.5598572878534841  0.0234927886006445
  0.2136125683149967  0.4100287515391131  0.9242869445928970
  0.2044326406361628  0.4731229040814749  0.7929138682851605
  0.2817486812076425  0.4610340792796929  0.5655313152081040
  0.8489980467072674  0.9877411490542203  0.6815291502564921
