Cu
 1.0000000000000000
    17.2079324499999977    0.0000000000000000    0.0000000000000000
     0.0000000000000000   16.1901773955141302    0.0000000000000000
     0.0000000000000000    0.0000000000000000   19.3447050000000011
 Cu 
 432
Direct
  0.0980689126891592  0.0069325180950868  0.9474247604189366
  0.4812050052532604  0.7604943662426176  0.1513567924659489
  0.4051331120259017  0.6739727694880243  0.0492513325997994
  0.6952673285860091  0.7183515296737574  0.9263027014369051
  0.6254971802263206  0.6185564526631951  0.8292063642221478
  0.6979579481670967  0.6961961207960644  0.7278194472337521
  0.5406328303549331  0.6451219429288648  0.6056568192691489
  0.6226031660764685  0.7091607718231843  0.4979529282043847
  0.6286933805926231  0.6390565368742526  0.3617709600637488
  0.6205052963814953  0.6039488301385941  0.1461047092731580
  0.5572658570611718  0.5193543277720245  0.0406546649328590
  0.6954765344281673  0.5602000815797147  0.9374323619822584
  0.5418857408985238  0.4971865657251774  0.8018862267478363
  0.6156819394650750  0.5663334300646740  0.7020501217258160
  0.6254216336722079  0.5006948657649125  0.5875640129947705
  0.6963424141637655  0.5726397229177893  0.4889375413065231
  0.6231145581350769  0.4925911867998907  0.3993419646358009
  0.7806233121864679  0.5341348946647816  0.2580319782596842
  0.7023803272193808  0.4523630914499004  0.1646937753767765
  0.6185468972479607  0.4286017705821876  0.9090059786385992
  0.6208132938713390  0.3668482779813580  0.7911701160601832
  0.6977138746845790  0.4300779742960902  0.6876637560510744
  0.6166814784887188  0.3461443664792594  0.5909499524546898
  0.7000325727684967  0.4167797877018128  0.4979167425918358
  0.5546240521765878  0.6810943715053033  0.2486909208488836
  0.6247300921384080  0.3410301544495049  0.4084400615052027
  0.5541231204100874  0.7584869762550926  0.3896752367120616
  0.6884565161690881  0.8453112256539588  0.7155111695939538
  0.8356037697602654  0.1132871279264214  0.7049863257154867
  0.7652931729750020  0.0304035394876805  0.5937310752477231
  0.8431642364449193  0.1120518110110218  0.5126753031385077
  0.7690937457742055  0.0366851260024879  0.4187839773209258
  0.8541068642444607  0.1076849657150840  0.3264227859768347
  0.7671702142810306  0.0276487827663393  0.2307842120104700
  0.8437860426980001  0.1131327133119966  0.1363759488707635
  0.7669900648058390  0.0407740249924608  0.0436787482672910
  0.8417637195571395  0.0044433545105564  0.9533643702501540
  0.6157342409256145  0.9209743867221888  0.6157474357970308
  0.5455235980427156  0.9850564517085468  0.5107884819127509
  0.5507380536585033  0.9478116467092466  0.3072650888188784
  0.6356901537581292  0.9553903159852237  0.0868533534111792
  0.5341933583078425  0.9818693340668156  0.9651815574339336
  0.5448239207261648  0.9118145117945002  0.8364124704925717
  0.6156122041843557  0.9834814226414121  0.7350410616238396
  0.5437209410361209  0.8353051586392215  0.5238721655357373
  0.4742320583086669  0.8855269678347950  0.4176880701980206
  0.4835405560300186  0.8192583919081798  0.2794073365295570
  0.5556328892376609  0.8868364037651187  0.1827452266653848
  0.5570026063764563  0.8256449803607963  0.0527251514044800
  0.6167744588630112  0.8518892882284619  0.9383525104156412
  0.6239339476835291  0.7773193826303609  0.8158693813113200
  0.6164722726465608  0.7746202151702125  0.6227932914975959
  0.8361558407326268  0.0620770651985280  0.8304883687810179
  0.6964644509050244  0.4212145754280976  0.3025040960821065
  0.7655081900905533  0.3696648005484692  0.0643200555397460
  0.4622521182084254  0.9907944987805782  0.7395022307137793
  0.3977609305991900  0.8351878035322586  0.5112020317704511
  0.3242169412979070  0.8957245089714195  0.4109006831585183
  0.3347678892707415  0.8149224295351271  0.2748737962145200
  0.4130079686011319  0.8925065084068031  0.1773949253813902
  0.4152830821346001  0.8232114060374588  0.0504299496942448
  0.4685573498401314  0.8442920891987540  0.9535401289396764
  0.4643639349595424  0.7839345047123263  0.8173374833061556
  0.5359750947302213  0.8497768963031285  0.7125801349775042
  0.4628989129370972  0.7730822456105398  0.6215681500441596
  0.4064243769738879  0.7595246424640286  0.3799981700418799
  0.4085838461668299  0.6877650828484617  0.2467627446373569
  0.3346452714021433  0.7492159228050185  0.1450501571360227
  0.2640237714903396  0.6696615134532794  0.0496286968449508
  0.5475517324569692  0.7144355750519408  0.9201459779303950
  0.4738473520100318  0.6304525545584939  0.8314757190662769
  0.5438052045003234  0.7014400411019363  0.7264237164640144
  0.3922158135273247  0.6332752537101825  0.6056051255369366
  0.4748579324531228  0.6976167352487742  0.5028638327645730
  0.4810492631263206  0.6270739627948760  0.3703624583574682
  0.4759870628734366  0.6028679278376194  0.1487410896159957
  0.4099779706538771  0.5223252649535608  0.0429446972698732
  0.5429288644726171  0.5694526052760581  0.9363002692468043
  0.3931026138471388  0.9161195912446679  0.8448747344557596
  0.6218883794490953  0.3490597143996027  0.2199853913512768
  0.3863098163777369  0.9825549349548623  0.9744915986054065
  0.4006979481721524  0.9562550378260032  0.2992680684456032
  0.6944479390375572  0.2835385052068043  0.8977057287769444
  0.6181633532040045  0.2056703034445860  0.8000407605078497
  0.6852138256156393  0.2755583579333224  0.6962759318376787
  0.6234516119918869  0.1885611641663005  0.5987970610045489
  0.7041934445180834  0.2628345937047058  0.5064100227943514
  0.6223939602343105  0.1842375549624017  0.4129736018202397
  0.6963540367105522  0.2684244027468892  0.3138301928098673
  0.6260724962922550  0.1974554459571781  0.2260180499004767
  0.6981671540092547  0.2810802245451588  0.1337137216618194
  0.6279204812313173  0.2107474559668785  0.0421124281812517
  0.7742425340006492  0.1403405683736744  0.9233613280740129
  0.6963540367105522  0.0651097682258344  0.8267198957027261
  0.6949186521824126  0.1169498425805815  0.6969065953706713
  0.6193023627890869  0.0441279104177709  0.5994225551643201
  0.6933147407258680  0.1068943628892281  0.5046576052723472
  0.6202960905393372  0.0376486731964996  0.4102390033861982
  0.6941806204614663  0.1140406712448152  0.3230058302775879
  0.6202612228989777  0.0280317310101132  0.2212312102975985
  0.6956624951767520  0.1181728063268272  0.1353058886139647
  0.6183376914058027  0.0440970274948860  0.0383542938494024
  0.7002998913445875  0.0168212300028612  0.9606997108511091
  0.4671934439747292  0.9259341841375185  0.6136176540298757
  0.4027406107698894  0.9833764207036032  0.5000775405983189
  0.4928874081557659  0.9596336295896215  0.0838085925838623
  0.3886604764653176  0.4966492028669786  0.8086839525337814
  0.9149625192188618  0.1463997978437097  0.9212418850533003
  0.8392474381778504  0.2829146701645274  0.1334655917471992
  0.9186061876364467  0.6326143591604436  0.8294700022564315
  0.8389859308751529  0.6391800685657927  0.6013662394955107
  0.9161538302644837  0.7101922614475425  0.4945824968641292
  0.9258528455578637  0.6369317917797652  0.3718925928309582
  0.9216687287147040  0.6051409109619549  0.1498731823514498
  0.8410140652894068  0.5134062768243751  0.0382612451314197
  0.8337325397276302  0.5056361334265110  0.8124317481191883
  0.9119522796011441  0.5700455573954499  0.7086565807025748
  0.9138235096337795  0.5007010423494894  0.5881533215419932
  0.9176880064403090  0.4913496932999140  0.4012804795937700
  0.9194139546381124  0.4194480722390760  0.9135240108339724
  0.9140094703823644  0.3681144778196427  0.7972906539541440
  0.9218081992761427  0.3443099208598910  0.6012111582988732
  0.9194255771848989  0.3349771015640466  0.4117329522471397
  0.9240804071729141  0.3445878671658560  0.2182846675614853
  0.9056877268831911  0.2024955389720088  0.7967633778855765
  0.9174788005981510  0.1953430540318447  0.6050830188415902
  0.9202391554599577  0.1848552134201014  0.4127875043842747
  0.9198672339627880  0.1884252793056064  0.2260335580201406
  0.9114757551828954  0.2034467329968666  0.0436425626547421
  0.9149276515785021  0.0453014614874005  0.6105263688435675
  0.9180889843044451  0.0306011901941445  0.4214978982620827
  0.9155552691049761  0.0230410506718985  0.2301173628649289
  0.9808565482252345  0.7064368980247280  0.9271659867648541
  0.9128588382504954  0.0430593612859503  0.0384008182083937
  0.7029091530981690  0.6722803853139268  0.0453587945641975
  0.8511779824542489  0.6807978954456076  0.2490114219886011
  0.0250972175916461  0.1413597048288792  0.9248966319207248
  0.9795315778915672  0.9855382253055525  0.9542535024442088
  0.9729822727773435  0.9176266778814556  0.8379322662196192
  0.9037990630303759  0.9064717661353966  0.4167524136449743
  0.9156831171196282  0.8153918499629786  0.2784251556175193
  0.9277415094106789  0.7566772369740322  0.1417676051405284
  0.8516545068724977  0.6644793589931778  0.0412077878675329
  0.9204890402158686  0.9190102328267030  0.6110122899263650
  0.8426644669330976  0.9904424334596891  0.5120343008590722
  0.8430421997036606  0.9559956212737695  0.3114626198745343
  0.9278519236051511  0.9502390444480068  0.0791458179382938
  0.8310012412327897  0.9859891159796733  0.9574998688271547
  0.8348947944062856  0.9168237218864459  0.8430292682157730
  0.9069603957563188  0.9951366377382078  0.7356355395442837
  0.8451807483123867  0.8345516153208277  0.5202122492950914
  0.7668680280645802  0.8969474727176650  0.4168868173487269
  0.7746028329510324  0.8159662723286397  0.2762902044771427
  0.8436291383163816  0.8876023002526665  0.1722565683994665
  0.8531073252208171  0.8217104959852480  0.0463358061030140
  0.9080761602478281  0.8476953873006803  0.9465407975981024
  0.9168337492514971  0.7796973676925052  0.8199325086632234
  0.9190710895079089  0.7664918298668828  0.6214130688475220
  0.8478190664329346  0.7726745910284580  0.3797603788737022
  0.7830059342777116  0.7446143672951546  0.1448485515803938
  0.7676467386992794  0.2005622679994082  0.0391400385790325
  0.7709591645334475  0.9237600263664149  0.6110019511799225
  0.6949128409090193  0.9536176362116251  0.3048871771371030
  0.7688264271981148  0.5699961447188341  0.7046089614703354
  0.7712381056563248  0.5017448851430022  0.5914668897768152
  0.8443323023969681  0.5690387741093993  0.4868387757786953
  0.7665367854811634  0.4887246448546897  0.3980341132108247
  0.9176415162531628  0.5441162553412109  0.2690582513406124
  0.8467556034019648  0.4635674158725754  0.1549236599886122
  0.7676932288864255  0.4219619421619145  0.9168996115474493
  0.7700003044235567  0.3547545253795953  0.7919093364308220
  0.8420368494066236  0.4283423540299538  0.6923213613234216
  0.7719935711974508  0.3467126122603435  0.6037855061630560
  0.8450587115711279  0.4149268123287133  0.5002067749288500
  0.7714124438581231  0.3461073069717975  0.4088381032432390
  0.8520961636503868  0.4233763800300471  0.3106717057716828
  0.7762299895011502  0.3475155682553532  0.2251599339457492
  0.9149567079454686  0.3781267214189570  0.0567262462777285
  0.8530375899400977  0.2804625660874591  0.8984397797743622
  0.7615100339959785  0.1967266089770924  0.8039332985434516
  0.8352667159034554  0.2709444492543046  0.6982092774224264
  0.7689542752127668  0.1915444545169908  0.5998981375006752
  0.8470810347119884  0.2611545626997622  0.5084157396041969
  0.7707383361445029  0.1877273252484057  0.4048421777432119
  0.8439371358062253  0.2673126175230295  0.3209070647497597
  0.7741146859859971  0.1830825336465030  0.2272431913539131
  0.7001662320565420  0.4872793240636719  0.8061199434160407
  0.6990562788384261  0.9848835073403908  0.5044973547024886
  0.8442044543823161  0.5654131189627012  0.9335915176788689
  0.7703199244601869  0.5954066136686053  0.1353317354800707
  0.7877246882730529  0.9587812609179955  0.0745347370249380
  0.6827730907904628  0.9846426205418878  0.9587560265199184
  0.6876545604408157  0.9258971246300561  0.8347789485546562
  0.7650955896796306  0.9955566454894437  0.7392902864117080
  0.6938784342450159  0.8371457808431672  0.5214942538539619
  0.6195638700917844  0.8919629689640273  0.4207018147860101
  0.6241780211660466  0.8111300066048497  0.2893170249946950
  0.6988296391760882  0.8897764580237701  0.1804241780890432
  0.7089470661537842  0.8259846925125309  0.0550875549665919
  0.7641948423036726  0.8486465813255381  0.9494770015877730
  0.7699189465960509  0.7891413655107359  0.8223207590914413
  0.8412813838654976  0.8569108514895619  0.7231928582007324
  0.7677803979873248  0.7793267726178853  0.6288156113003533
  0.7067504048111254  0.7657197567947578  0.3880934085063588
  0.7049314762390295  0.6772463593138337  0.2581870594563218
  0.6330518356375812  0.7596975868321846  0.1570069173967761
  0.5512848944848108  0.6731512837392835  0.0466821541088376
  0.8355805246666924  0.7182588809051025  0.9302986269369318
  0.7690298217668794  0.6393283065956408  0.8279450371561625
  0.8447100351675312  0.7022677034352539  0.7200964036412032
  0.6956392500831790  0.6456654823716408  0.6060135060214153
  0.7702327553592879  0.7090372401316442  0.4962573737878143
  0.7771074917835350  0.6270616096257221  0.3606181898354098
  0.6986727347944698  0.5114421229288896  0.0408459317420454
  0.4644359947496191  0.5680134610696176  0.7111792348345453
  0.4846574827762065  0.5063093811454040  0.5894663423401908
  0.5533752095243726  0.5763518502485653  0.4873712212204842
  0.2522466448315235  0.4231663761544292  0.6943891106119222
  0.1790484262971406  0.3472808580414274  0.5909551218279113
  0.2548930987348221  0.4217025256096805  0.5000310162393276
  0.1826014388497904  0.3340444372929198  0.4082798109353441
  0.2578981082064858  0.4158656531844170  0.3131943599036532
  0.1765548088840853  0.3461134835563746  0.2264264303849555
  0.3311538583474622  0.3759710934015846  0.0656279069647226
  0.2466445772804041  0.2820993610003635  0.9014845406016792
  0.1806633791731324  0.2025078921411628  0.8087614931321002
  0.2539656195012550  0.2791407769879814  0.6899692965077525
  0.1861108668519906  0.1919953451911115  0.6005753253926591
  0.2543387032531034  0.2601848389211736  0.5053192850446673
  0.1774973974284749  0.1863808298106202  0.4164887756106906
  0.2498965658712822  0.2580106811500699  0.3151018586222950
  0.1827066228982087  0.1736323592436954  0.2181761107238391
  0.2456996642266572  0.2684738154235053  0.1335999954509518
  0.1790402905143900  0.2098271448649059  0.0350458949878018
  0.3291611727009074  0.1377155199284500  0.9255841585591509
  0.2536355391725169  0.0687848360491484  0.8285446844498277
  0.2553074425277628  0.1158504105258759  0.7127300468009207
  0.1800619123769282  0.0382292721467374  0.6167399554555110
  0.2516817890576970  0.1053563933295556  0.5109280549897245
  0.1747074050723624  0.0270805369852555  0.4131700380026475
  0.1852984508316105  0.3577872284069014  0.7968771040964442
  0.2515556844250629  0.1014342621231616  0.3218633987956913
  0.1738339706813528  0.4223757733285733  0.9145320386121163
  0.3445395454815374  0.5437271305128600  0.2625861960676062
  0.1105340941177392  0.8946930193470608  0.1774311109939387
  0.1074186704516032  0.8257067462065660  0.0507659589536259
  0.1636456461682588  0.8474668536713312  0.9491358229551705
  0.1683498719801169  0.7821124122621115  0.8250191719129343
  0.2476667802702816  0.8484736369573820  0.7160953087679550
  0.1800694670323394  0.7701977806130820  0.6213096813830968
  0.1029695595417100  0.7592343429889097  0.3859067636337698
  0.1017602335485690  0.6783519679531163  0.2454238769730529
  0.0318013931418006  0.7559236936556384  0.1537967366263792
  0.2586803056052210  0.7196177295120424  0.9272486967363939
  0.1762694753604754  0.6372838571006539  0.8430654538283214
  0.2330595634689395  0.6937748996418810  0.7272404774329719
  0.0915219320842928  0.6399583182224944  0.6085878538855982
  0.1840658797448963  0.7008470889825441  0.4990591740737324
  0.1885934428455988  0.6343005667499639  0.3621793405482276
  0.1894337529782667  0.5952336693004493  0.1456187881903604
  0.1092794401921306  0.5132950983019892  0.0417298945628793
  0.2486605080205321  0.5651660555796214  0.9343410767959502
  0.1017154867434407  0.4994966083569747  0.8144064486897064
  0.1701589213874442  0.5628992490398630  0.7083205714431934
  0.1802833218932121  0.5005466277350644  0.5902314095769360
  0.2527789574743478  0.5751474162560507  0.4747476118141890
  0.1778972130379323  0.4909296855486780  0.4003861780264937
  0.2568067510632284  0.4538392951638028  0.1790181085728629
  0.0333292350296272  0.8160465679281408  0.2739536477811372
  0.1717854968102225  0.0204036490575202  0.2238107275350028
  0.1865653084313449  0.0388036945123983  0.0294319556695230
  0.1086256719353869  0.4189107093808772  0.3071048382490199
  0.0265496872635619  0.3412895710017389  0.2163254751106311
  0.1807424124912810  0.3840994787049146  0.0697478974220597
  0.0946582763346446  0.2844032270475840  0.8971577752154920
  0.0243181582805434  0.2076653402629565  0.8093094466935526
  0.1095781396445451  0.2793754872019072  0.7048829382510615
  0.0367739254462263  0.1927797714323904  0.6109295799548248
  0.1004753610013153  0.2731371367791390  0.5061722316261738
  0.0341447310249058  0.1811616158430564  0.4139919683448262
  0.1055218708160374  0.2566085964510915  0.3086401420957313
  0.0331722144225408  0.1847934475743315  0.2193495584450631
  0.1050924177122742  0.2634954882544446  0.1351249605512208
  0.0387915414556383  0.1996110739745505  0.0321407072374589
  0.1687926910126846  0.1350101758837247  0.9225497364782769
  0.1101261427255311  0.0613173452955572  0.8281518120850124
  0.1065289644950924  0.1142444985358564  0.7074469473688020
  0.0314886885205084  0.0453941102560555  0.6075281323752418
  0.1070699940480066  0.1070549540882301  0.5053916562697650
  0.0354419815844871  0.0302244185349476  0.4079024466901927
  0.1104533174175727  0.0982409678968536  0.3162339513577491
  0.0368960784129530  0.0384022165148934  0.2129550437703756
  0.1106357914021216  0.1034972413718790  0.1238867431682212
  0.0344165242815094  0.0458635306839074  0.0280207167801217
  0.0379443740203663  0.3346744489197737  0.4021437649217189
  0.2559548183837739  0.1081729158966669  0.1194979453033789
  0.1082909425879341  0.4197507248833489  0.4974670071215871
  0.1071368236920292  0.4250255281121055  0.6881134915213235
  0.2516329743611935  0.0134179319009351  0.9543568899086340
  0.0382086707342926  0.9149028040829993  0.6087067494696869
  0.0439206294652789  0.9637657646716332  0.0740488159421404
  0.0355443181089427  0.9851367473080478  0.7373879570662877
  0.0236532904916185  0.8586032356636595  0.9387402134072347
  0.0280548070724208  0.7860283668839285  0.8177303556709705
  0.1060803341891314  0.8479053911762982  0.7179407750079416
  0.0250825150699612  0.7733416621627740  0.6222039829503736
  0.0871152434701706  0.7167517942683148  0.9257289010093459
  0.0191434517747656  0.6306502052649579  0.8278985127971712
  0.0925034561604174  0.7012732733183571  0.7248677351244179
  0.0330576742239593  0.7038550856715425  0.4875676574028916
  0.0327484563667031  0.6311010959390788  0.3622310342804400
  0.0305846287187162  0.6019661464893776  0.1471747695299568
  0.0966492185991815  0.5660493071741320  0.9376029512985595
  0.0253261817633413  0.5640480937711847  0.7114325341223865
  0.0376814138993205  0.4994348425112049  0.5841160410561962
  0.1102656132869698  0.5761356697883704  0.4845797596810085
  0.0295946201834375  0.4900587871233213  0.4007428647787601
  0.1891937473871243  0.5370255362468168  0.2609526741296910
  0.1038569409888635  0.4541728307309609  0.1547944256580807
  0.0254209636323856  0.4300409147886284  0.9129915653921838
  0.0332976217023678  0.3633955672028161  0.7993842501087507
  0.0292192119222317  0.3398133672878362  0.6036045781003125
  0.0310327360100718  0.8955145050958015  0.4126427619340797
  0.1036285579445077  0.8339833695397438  0.5105558601177946
  0.1738996380706968  0.9822769886488975  0.7360232425358776
  0.4771655891175932  0.0323244572911269  0.4233020095162993
  0.5439696635373531  0.1059061093569085  0.3167560580530951
  0.4780425102726388  0.0306197199478754  0.2191686303823192
  0.5542957152298678  0.1219466995033731  0.1332588168183493
  0.4731575538582499  0.0562896054498807  0.0371498298888510
  0.5555707086123528  0.0169756446172860  0.9501076651207657
  0.3254309163097627  0.9091894633492758  0.6082880302387657
  0.2478864464045475  0.9840311386687648  0.5065599346177675
  0.2628847619052572  0.9536238127962019  0.3026953628912926
  0.3436597186897953  0.9542847073459407  0.0721775028360475
  0.2355578299007095  0.9815852111762735  0.9657243416221650
  0.2432635784201953  0.9151066313740404  0.8392091014052684
  0.3215356197542488  0.9830984743976383  0.7270853962363347
  0.2435204367041782  0.8305615416840868  0.5197056507194088
  0.1815158929799262  0.8862928643223428  0.4074165256073952
  0.1822225438245487  0.8238290644951586  0.2685361446452659
  0.2604864493758516  0.8823274970239099  0.1688964758056535
  0.2596275431683252  0.8221181505673298  0.0457878525415612
  0.3200560695483204  0.8493630651364699  0.9476160272281227
  0.3183725436462879  0.7863557258665093  0.8199066617971170
  0.3938028722910288  0.8464971298927423  0.7154181208759711
  0.3187136653944733  0.7648179754465164  0.6220540711269571
  0.2561169529114463  0.7655529890111791  0.3930508374255385
  0.5408490097251630  0.1100382444389204  0.5152651591223542
  0.2586756565865064  0.6727065696497397  0.2457909024717617
  0.4728710580799612  0.0314597354503472  0.6114206704108438
  0.5523268558042254  0.0705451626535928  0.8243109677816229
  0.4809702298081720  0.4895461306034306  0.3920169627812882
  0.6261596653931543  0.5376926073811327  0.2651863907978954
  0.5461436609137782  0.4634006480889964  0.1622848474556733
  0.4649956203773917  0.4353713072785778  0.9042863408875969
  0.4633382452056290  0.3634140969565470  0.7882907751759463
  0.5528649797204428  0.4255875973086124  0.6848361088990503
  0.4742977256980109  0.3504185630065424  0.5945116506041317
  0.5517567698843449  0.4258902499528853  0.4954923065510695
  0.4719982048162910  0.3344891513824637  0.4136507897122236
  0.5521263668721572  0.4184474655376023  0.3065258684482396
  0.4736021162728356  0.3457861245737937  0.2246791822361727
  0.6231436145020433  0.3848653751924623  0.0577291046826511
  0.5477789532466465  0.2828467277341803  0.8948677428784778
  0.4706238386587808  0.2046635201585352  0.7929793966876209
  0.5417689343033190  0.2716609330652363  0.7022052029224536
  0.4752188125308452  0.1861893556887332  0.6060548610071853
  0.5494072720514428  0.2695979538165190  0.5039132155284870
  0.4722643611377031  0.1840090213330526  0.4132941029599572
  0.5458542594987930  0.2641069701275673  0.3210104522141849
  0.4732121798281467  0.1906859092607878  0.2272948850861259
  0.5456078615069180  0.2757930681472482  0.1311083575583088
  0.4781244492274840  0.2022237692506209  0.0457671750486763
  0.6263746825087055  0.1508284089854175  0.9310895410397834
  0.5454869870203378  0.1177527985755914  0.7023240985065422
  0.1889148062642470  0.7476223639841527  0.1502453772233797
  0.1192289213687609  0.6702915250801336  0.0529887894387638
  0.3939806972568630  0.7185182974573366  0.9242246134019619
  0.4045246717016256  0.2578871494585300  0.5108143287788572
  0.3256447711706353  0.1855346377235714  0.4141108639289152
  0.3946873481014855  0.2592398214808928  0.3215273895363099
  0.3268680442199202  0.1815322109176763  0.2221306812380962
  0.3980009361903324  0.2711173936224606  0.1332278005790215
  0.3295958559507246  0.1988698838253107  0.0367983125098060
  0.4753943129873223  0.1468074524257915  0.9243641864789359
  0.4013017394777139  0.0703413353625519  0.8262908377253620
  0.4026255475567025  0.1133303640184605  0.7014659825518147
  0.3250897945615773  0.0341033136493025  0.6160886144296334
  0.3973163681846043  0.1106867858195053  0.5244356272168537
  0.3272074225860876  0.0287852743285070  0.4155582884308654
  0.4023983267670254  0.0948006102874654  0.3234865819871640
  0.3310451875350080  0.0271546560001795  0.2248084165667042
  0.3985012868294935  0.1120888705184839  0.1282186779276294
  0.3317338234321114  0.0457955882535606  0.0255084013945937
  0.4044142575071533  0.0121023193860345  0.9571121658355608
  0.1755302813848504  0.9223579416674362  0.6136228234030967
  0.1080073524463422  0.9802016562310260  0.5052158975802424
  0.1127749211381870  0.9586577292264554  0.3090950469392014
  0.1865932025436327  0.9525429104952273  0.0804174837507215
  0.0929648712678436  0.9890341721761337  0.9620179010225282
  0.1059571351931939  0.9275895088041537  0.8439132310366069
  0.3276043325588484  0.1875420277110958  0.6099370602963448
  0.4006206582360218  0.2750271716597005  0.6992224745737918
  0.3231412745928113  0.1950280482184179  0.7980970761766595
  0.3896815172005164  0.2867750355251514  0.8903083556973345
  0.3181174287443231  0.6332381942027201  0.8327318767590408
  0.3841805658064400  0.7000070734800725  0.7344672611962808
  0.2421989531345470  0.6315705163669304  0.6000997430563041
  0.3360144074135995  0.7032065442909576  0.4970069329048959
  0.3325003303926847  0.6299398980386032  0.3667645745954774
  0.3292634511126291  0.5920589048278720  0.1457531918941126
  0.2620554931920365  0.5164080969287963  0.0533403068178091
  0.3947100120677194  0.5683037605447365  0.9272228498702875
  0.2447634680830003  0.5024860752922420  0.8149957572369286
  0.3143685762783198  0.5649066390273874  0.7086462419561324
  0.3249689200749971  0.5033940332250608  0.5822912523090946
  0.0303324775661819  0.3768914045035574  0.0604533643702504
  0.4052871107708236  0.5706199797611109  0.4849984789119298
  0.4750642326585842  0.5350490291821773  0.2585592543282517
  0.3942788155819382  0.4525854484946722  0.1565623512997488
  0.3200601374396957  0.4300162084503202  0.9099261270719819
  0.3271551211255481  0.3544209898124373  0.7921264501061144
  0.4035419853708224  0.4343151113159111  0.6874931667347733
  0.3259783382634094  0.3462061323250295  0.5986833347936813
  0.4003585698059850  0.4182251084928304  0.4948978286306253
  0.3252763364375015  0.3435007882803042  0.4120017596546446
  0.4044595854396209  0.4100040744208456  0.3137578215847696
  0.3207836409771587  0.3358232936510954  0.2235212426346126
  0.4748050498652440  0.3866874676426768  0.0619214663650856
  0.3331895474171274  0.4929432521207796  0.4005464285963526
  0.0328120316976255  0.5292430396797988  0.2578355420772768
