Cu
 1.0000000000000000
    17.3236264999999996    0.0000000000000000    0.0000000000000000
     0.0000000000000000   16.1765408886351629    0.0000000000000000
     0.0000000000000000    0.0000000000000000   16.3987119999999997
 Cu 
 364
Direct
  0.0604586603157257  0.0589106441777730  0.0497878126038193
  0.7302549065000912  0.0475917842768509  0.9094041044199085
  0.8033227482709817  0.1171245730073653  0.7926388365135018
  0.7235473040243624  0.0360998342190605  0.6784957257618768
  0.8016083266399217  0.1172172998771162  0.5621878108475835
  0.7205629404443697  0.0295038628841157  0.4571246814993765
  0.8645974473070059  0.0918719554785467  0.3152232931464372
  0.7973020689403576  0.0112799420824124  0.1929088089357260
  0.7968344994046140  0.0755891171502951  0.0550321269133820
  0.7972674341599322  0.2285328161173704  0.0515562441733228
  0.4970127501883052  0.9826433570532478  0.0514586755350056
  0.3785733460600760  0.9585652798746064  0.8334713116493541
  0.4279971777271926  0.9548129325453549  0.5771524007495225
  0.4994660471351081  0.8844703291523494  0.1759196697887004
  0.4196328782544466  0.8503839318319316  0.0580750488209075
  0.4457013229880016  0.8786594453146285  0.9594080315576003
  0.4317088716961202  0.8125328235996291  0.8163907019039054
  0.5126388086235870  0.8749874612724945  0.6993388261224417
  0.5128927970133739  0.8131077301920846  0.5568764180991775
  0.5001067905729788  0.9515674921040747  0.3110095475791025
  0.7281595022843517  0.1470568065629443  0.1709009829552469
  0.8060935307050173  0.2297320836328147  0.2835927602118997
  0.7886606912242077  0.1663749044277077  0.4168898142732185
  0.7911890301952658  0.6931500696910499  0.0396406742188045
  0.8056663684131036  0.4826229846086881  0.9102578300051859
  0.8034670598560876  0.4143636448894187  0.7580141659905973
  0.7283095863328619  0.4663710552370200  0.6295711516855715
  0.7209843302728794  0.4671994152734609  0.3901438112944479
  0.7913160243901588  0.5341296698596348  0.2726223864410814
  0.7144037219920437  0.4597070841975912  0.1759074737089108
  0.7887645955654843  0.5330973107097419  0.0542515778068425
  0.8718880685865632  0.3518966436339199  0.8952932401032470
  0.7847873682799618  0.3193433305600498  0.6399927018658538
  0.7860573102288949  0.3913488358172541  0.4905846264023662
  0.7142767277971507  0.3052983006884523  0.3877411835758807
  0.7912582997561165  0.3763270829176142  0.2908128394473905
  0.7212383186626659  0.3022754047345741  0.1688459435106855
  0.7888800448335692  0.3858532233366863  0.0540198522908383
  0.7342205888588051  0.2008507546010790  0.9078856924860930
  0.8048409061462971  0.2679973718833379  0.7880043261934229
  0.7296661152328586  0.1921900649663483  0.6719586269946078
  0.8594714998040395  0.2470225539456926  0.5318561604106469
  0.5792761261621523  0.8859415954857298  0.4375133851975692
  0.5725569787596151  0.8198335191446803  0.3011246249095658
  0.5098622537261470  0.7441993023845588  0.9445471083338737
  0.5089617494350853  0.6769908671891327  0.8008346021321674
  0.6389403079083934  0.3817979682329152  0.2844342897173874
  0.5607696084881537  0.3092051928006221  0.1635650409617537
  0.6412435208066860  0.3904586578676459  0.0464094985020773
  0.5878540067808554  0.1886355349592318  0.9038914763549725
  0.6621975629640829  0.2680097354659716  0.7931327777449837
  0.5844020736651188  0.1890620785600858  0.6801848828127478
  0.7114770830460933  0.2454771061165114  0.5306426504715737
  0.6519168056411286  0.1735952366856417  0.4237805993543882
  0.6453939219943357  0.2226910233230659  0.2772690928409499
  0.5637135648243171  0.1513964240672848  0.1679373355663544
  0.6433504699492339  0.2226106600359485  0.0588373038077623
  0.5912713051161662  0.0378245539964265  0.9055318490866844
  0.6625670006219544  0.1131187722341281  0.7958951898173467
  0.5809097333055527  0.0295780443799162  0.6821301575392019
  0.6489555319147524  0.1178540243827389  0.5645111640475178
  0.5703461252757905  0.0359020168969253  0.4545086223844897
  0.7183116797167154  0.0890468768468037  0.3120401163213305
  0.6434428293637020  0.0210966266933705  0.1966225152316841
  0.6497117246207081  0.0711567727762038  0.0586909508502860
  0.5680660022311149  0.3031717644754992  0.3897718308608628
  0.7218271099298987  0.6065555369263762  0.1654127470498902
  0.6401409802964757  0.3798939765073641  0.5031892748650014
  0.7293255398920085  0.3479464789825331  0.8974946325052847
  0.5862088547106464  0.7399647753326026  0.6819594124221464
  0.5847080142255434  0.6710934382729777  0.5387896317710806
  0.6444472379960398  0.7465360195022808  0.4181886967708197
  0.4993679152572356  0.6883220906726882  0.2859039173320443
  0.5773538958485399  0.7558705243905343  0.1631747664084836
  0.5834322998132063  0.6104500654559127  0.9266188710430427
  0.5818044651332099  0.5429634496512337  0.7829246589610207
  0.6543181504172929  0.5993784772076594  0.6570245272921433
  0.5010996542785081  0.5368249308737264  0.5153365703355240
  0.5802170376970437  0.6123231482248800  0.4021508518473888
  0.5748948264383330  0.6080268032597567  0.1637845703979679
  0.6457864495058240  0.6988744084503367  0.0464034004621827
  0.6675774988568359  0.4844898855863388  0.9065136335097534
  0.6636926309857816  0.4135723756008779  0.7638926764492238
  0.5825895201561870  0.4617656207060604  0.6381937800968759
  0.5693590340336653  0.4641517921543160  0.3933452822392393
  0.6369372631071215  0.5428212684509490  0.2804644657458462
  0.5672520848911169  0.4609125335043525  0.1636565115601764
  0.6421671149513646  0.5378881989802030  0.0511354794205787
  0.6421267077075348  0.3274476589762753  0.6499873892534973
  0.3561588706614058  0.9875269721934595  0.0554650877459158
  0.7230566446350021  0.6153645895527085  0.3976261062454173
  0.7978273631101434  0.6035635499290817  0.6567440174569809
  0.8724479975367747  0.8843405115346982  0.4389586206526462
  0.8664619529865760  0.8168848046866030  0.3093325866080215
  0.8055566916084231  0.7557283431902497  0.9378941468086028
  0.8004249716420522  0.6811264855800213  0.8052617790958216
  0.8783474551359094  0.7347782524178712  0.6835510008346998
  0.8742374611920896  0.6693625367042950  0.5409483378938539
  0.9400031367566141  0.7448607540554483  0.4180301477335538
  0.7968460443314225  0.6851075591879917  0.2807205834214298
  0.7931054880454741  0.8018630517869628  0.5637976933798217
  0.8698157542244406  0.7573294271412813  0.1683154140398345
  0.8688171180555068  0.5511852321024771  0.7845711297326277
  0.9379712296383212  0.6027660988492243  0.6611589983408451
  0.8006212353977963  0.5433529025041872  0.5133059230505419
  0.8737698916563460  0.6072726247191164  0.4004982830358872
  0.8678704340572109  0.6091086167401834  0.1615100015171923
  0.9379539122481083  0.7104714489605113  0.0476717927603096
  0.9482173521808498  0.4879764158889713  0.9043915156263496
  0.9484251608634028  0.4218992485045056  0.7712408145225066
  0.8764367697491056  0.6203409315626713  0.9251797336278603
  0.8061570278024640  0.8864670477476513  0.6933688450653931
  0.7285000776252016  0.8137197275324400  0.8080790735272378
  0.7309302847183877  0.8796299865513543  0.9467850889752808
  0.9412095816081008  0.9513264022427222  0.3227055880974066
  0.8003441571543930  0.9433766186094149  0.8418622145446545
  0.8774354059180394  0.9471660566865671  0.5668650074469264
  0.9368225094208771  0.8878888597504980  0.1867619847217268
  0.8662599167674278  0.8512555644075898  0.0389454976707925
  0.8784917667210157  0.8844579655697159  0.9581945216185275
  0.8841834156375978  0.8155309923882401  0.8211410749819866
  0.9459949537702168  0.8780412661829562  0.7011621400509993
  0.9447307842846882  0.8085146592437584  0.5612060264245141
  0.9524543403195630  0.7491138264813547  0.9493218735715337
  0.9490081796672308  0.6831541131319068  0.8114512895890849
  0.9483443463757432  0.6874133673491297  0.2757506809071344
  0.9458679595753238  0.5359903890459686  0.5151780212982582
  0.7871887130561260  0.9916502270017149  0.0540076562110486
  0.8030918497348117  0.9525689422973842  0.3123267241963880
  0.6588610791164313  0.9463253330674923  0.8279159973051541
  0.7247248865588278  0.9470486026515493  0.5746644004724272
  0.7898382737586731  0.8933535632744823  0.1726389243252761
  0.7215096244426652  0.8474413991651711  0.0363355365958008
  0.8701736469555035  0.4683368648757382  0.6327055441915193
  0.8718130265623080  0.4563936440518270  0.3947661255347371
  0.9455447016246862  0.5358791168022676  0.2802937206287907
  0.8703525933210348  0.4531049310713297  0.1662786687149577
  0.5184632241984670  0.9560740179739668  0.8327822331412371
  0.5850312721761810  0.9452373377957493  0.5730911061795586
  0.6446492742151884  0.8854965065109258  0.1664921001112769
  0.5741501786591857  0.8460319507449579  0.0466778122574505
  0.5895857458021280  0.8833885156719227  0.9543710506044620
  0.5881541748778757  0.8110801026401989  0.8184335452686773
  0.6556919967075024  0.8821088848693609  0.6915699232964152
  0.6543296953441018  0.8118157358068889  0.5610291832675640
  0.7283269037230744  0.8815772508161226  0.4316592668985225
  0.7240956880477656  0.8196047928659619  0.2933801142431187
  0.6645700454232263  0.7440200304363740  0.9471814615684447
  0.6558016735121830  0.6788206774188831  0.8054996026517205
  0.7352942670519944  0.7367873345958067  0.6775993138973354
  0.7199510593235199  0.6663952768722672  0.5445400833919151
  0.7981737109143978  0.7427094906772284  0.4268052271422290
  0.6547510851726110  0.6836486564372446  0.2787875047747653
  0.7303876731583890  0.7513825438945928  0.1588878443624109
  0.7308090629868987  0.6152409537263738  0.9315277931583894
  0.7280382805528626  0.5418012728836895  0.7847601689693680
  0.6481416145747544  0.9537620280215117  0.3095094297649718
  0.6526903157372969  0.5381663795894556  0.5163305508383826
  0.6488862623539017  0.9853942541891900  0.0487145575823272
  0.9438014176766052  0.0253744262845438  0.2041840847012865
  0.9332666719638639  0.5338638528330156  0.0443666551373059
  0.9370707253472595  0.3279360204902967  0.6486946047957911
  0.9432068539459683  0.3902917495020943  0.5027929022718370
  0.8731811003891136  0.3028812202836132  0.3984981259503794
  0.9482404420344671  0.3877201243143371  0.2802510343495271
  0.8638412546010502  0.3111400934827567  0.1634064919244878
  0.9387101049540640  0.3805245192216701  0.0435434197515024
  0.8756170799457031  0.2020500221165236  0.9025864958174766
  0.9519752258570111  0.2669093766115946  0.7913765422552699
  0.8774354059180394  0.1886231713765983  0.6738673134816930
  0.9398530527081037  0.1771497666927580  0.4189204615582006
  0.9465722001106412  0.2287800877700392  0.2700795038049330
  0.8681359673738063  0.1510316983795980  0.1722669438916910
  0.9399800469029971  0.2273520939758759  0.0609777158108513
  0.8754439060435759  0.0511524960752839  0.9128190067610190
  0.9437090582621371  0.1128529552075089  0.7950841505113330
  0.8669410674491284  0.0371816476994871  0.6819411183024617
  0.9501799897382922  0.1209325564584676  0.5593522222964826
  0.8761827813593192  0.0462441537698049  0.4508010141284267
  0.9372323543225779  0.0633182613865973  0.0614228727231747
  0.3533592259103488  0.9573351034025783  0.3156196657396020
  0.2206560647102385  0.9438773437060696  0.8439477441886899
  0.2831487535245580  0.9545100247708356  0.5781280871326968
  0.0697003742259165  0.6775534101989547  0.7994259549164592
  0.1402976016597912  0.7406880449166596  0.6821728438184660
  0.1281638835840753  0.6718970711441520  0.5323988859612875
  0.2069176018081435  0.7439953032711071  0.4221768148620452
  0.0571337213948825  0.6806813966052171  0.2748420729628033
  0.1313329659930042  0.7618854073417072  0.1631076879696407
  0.1435417260929752  0.6152100447697902  0.9282104594555961
  0.1404015060010677  0.5418692725881735  0.7780218348855691
  0.0656827396965642  0.7525694478274036  0.9429616179612154
  0.2106466131672835  0.6078042587723546  0.6590368804574408
  0.1337285383057644  0.6093620701841691  0.3995225966527128
  0.1390853843449004  0.6099431585679411  0.1699496887316514
  0.2003947181613505  0.6933417052218683  0.0433299883551828
  0.2122398130668541  0.4875560540794340  0.9168132228921395
  0.2091861799260107  0.4158040022662154  0.7613863820524444
  0.1355064570342707  0.4691343159555957  0.6198752682527747
  0.1335784542572540  0.4596019937452069  0.3979371062800541
  0.2136771564545104  0.5429881768165007  0.2809767010970129
  0.0644936122352904  0.5364478416034063  0.5095983147944788
  0.1276905415849278  0.8136826367845398  0.3011063307898816
  0.1330704774776807  0.8744434636366226  0.4292749332996395
  0.0632987123106125  0.8132251842271023  0.5545225746997690
  0.3656083932541492  0.2746984336706673  0.7909435814227361
  0.2952766991368698  0.2018212958378046  0.6801421965334838
  0.4297404616752736  0.2455265604470453  0.5342587881292141
  0.3547388446639624  0.1620661958799508  0.4257502662404217
  0.3592760008996964  0.2293797215277616  0.2795009754424615
  0.2732720686399009  0.1452640870810943  0.1657298451244221
  0.3559106547350234  0.2295837206412134  0.0499524596809798
  0.2826811839888145  0.0484757804351424  0.9019218094689386
  0.3559048822716194  0.1186082029233792  0.7920717188032818
  0.2850248041309368  0.0415336287864610  0.6871000600534969
  0.3598878820205458  0.1059231671414611  0.5706396941418328
  0.2781382552896765  0.0388260041897359  0.4648326039264547
  0.4303927500399529  0.0922614083315005  0.3138573322099931
  0.3490298783571674  0.0195944514034065  0.2108187521068726
  0.3507962521588653  0.0690796908937845  0.0538552052136777
  0.0615958356063613  0.9903953233644199  0.0544467150834774
  0.0584671604412622  0.9601540002430046  0.3066616451340811
  0.0527524216710633  0.8857005056243775  0.1761757874642836
  0.0683380728625154  0.8731143785035268  0.6938201000176111
  0.1282851053155643  0.4541187448472725  0.1654737274488385
  0.2006717964047543  0.5369238395347941  0.0468363612947164
  0.2894465110985859  0.3565577142867299  0.8892500825674605
  0.2125688434808962  0.3221869545657431  0.6439381336778157
  0.0554423896174397  0.6985035009713332  0.0450313414858435
  0.0701794886884684  0.4844527948384383  0.9080869278026225
  0.0598294618046634  0.4184312635758233  0.7717286577140936
  0.0641126296506105  0.5307976843399203  0.2860380742097304
  0.0596736052927490  0.5411583665867502  0.0472022436884069
  0.1430683840938273  0.3496341080119988  0.8950188283079796
  0.0708086871995307  0.3293021963712927  0.6436759179623376
  0.0605394748033849  0.3763518100828810  0.5019574708062440
  0.0585710647825388  0.3762467196304967  0.2783301517826522
  0.0505935203578766  0.3792572520017415  0.0570200879190997
  0.0697638713233632  0.2658584720877515  0.7892849145713394
  0.1374229148844790  0.2491552719499626  0.5367467884063089
  0.0624097529463593  0.1646254574850746  0.4342143456144605
  0.0544668433021229  0.2186914043411452  0.2753116220347060
  0.0596389705123232  0.2219306629911088  0.0397870271762807
  0.0628195978480605  0.1170194825549811  0.7918156011276982
  0.0661272193786908  0.1136009519568326  0.5808904992050594
  0.1322911949181081  0.0914948662082265  0.3177478816629014
  0.0568046909808409  0.0095181315571461  0.1919880049116053
  0.0639105934314623  0.5945999525198314  0.6596649785666094
  0.2947167701866583  0.2007580277313281  0.9036841429985479
  0.0475456596804372  0.7451018439168006  0.4116881862429197
  0.2016819775004965  0.0177708229649729  0.2019948883790384
  0.1983224037992279  0.3867001287470775  0.5082140597383500
  0.1347040846210812  0.2988445105537922  0.3884119679643133
  0.2012086355013485  0.3864466753030917  0.2806657010623761
  0.1285795009491810  0.3051313923229009  0.1699984730508105
  0.1953322677558307  0.3805863371348372  0.0539588718918900
  0.1414059146334055  0.1960536845393009  0.9076295748105099
  0.2198825546140702  0.2673173748384983  0.7921570913618093
  0.1430568391670188  0.2015925695590859  0.6787396473576707
  0.2900295299024139  0.2419782122312455  0.5343319646079520
  0.2067963800766545  0.1688908934936146  0.4283907175148877
  0.2044931671783619  0.2244281066830653  0.2780313478278051
  0.1282677879253518  0.1483673463220899  0.1555766086995126
  0.2028076078643236  0.2280259092293988  0.0556785191422349
  0.1370996569338414  0.0458299737515844  0.9128068106812289
  0.2124476217494072  0.1210129197455851  0.7933949934604619
  0.1356449961559726  0.0318838525410545  0.6881916091946731
  0.2127246999928105  0.1154987618910669  0.5803416756145238
  0.1392412408568152  0.0318158528365704  0.4610579172315483
  0.2793331552143544  0.0983628363611072  0.3131682537018762
  0.2066462960281441  0.0649131635463121  0.0533734600619854
  0.3397708470567642  0.3811488801446591  0.0492511850930733
  0.2658717705556631  0.3025103128046097  0.1642419233900810
  0.3411793281273991  0.3788554355661545  0.2787631126151860
  0.5185844459299560  0.4152909135869274  0.7672770885908600
  0.4354205656650473  0.4697339497133179  0.6412976824033496
  0.4197887347663610  0.4520354811735363  0.3887900464377934
  0.4973590979925597  0.5381354706328720  0.2830378385814690
  0.4218379592748667  0.4574445485756701  0.1599793935035872
  0.4848848045759938  0.5438103550616249  0.0549711465144333
  0.5807596492570424  0.3547279040569796  0.8885061217002895
  0.4989638428189388  0.3213338673640350  0.6445052513880356
  0.4991774239648958  0.3877695786448707  0.5056101967032534
  0.4244240228799670  0.2994997804333650  0.3941746156649374
  0.4900973390300238  0.3840234131069360  0.2769032104472594
  0.4172603957953033  0.3100459164196966  0.1637235899990192
  0.4912287418572550  0.3909964737122010  0.0471900476086172
  0.4374640177101490  0.1978278586472008  0.8997082209871117
  0.5100469725550827  0.2668351951157938  0.7902423068348295
  0.4393631581701443  0.1842031905851405  0.6740563527184329
  0.5646256140421871  0.2453596520814937  0.5287522581041731
  0.4982942370640467  0.1676298080650027  0.4222926776200471
  0.4993910051108529  0.2300720821552346  0.2741164062153175
  0.5096371276533814  0.4865236949295410  0.9180572230306867
  0.4160019987731787  0.1502589744650075  0.1671445903800248
  0.4917078563198070  0.7044751113832887  0.0473607927256728
  0.4246029692454987  0.6080391668423901  0.4008641654295776
  0.3499419275750376  0.8880495863247330  0.1796760623639221
  0.2785423277279733  0.8521581059398315  0.0502207734363526
  0.2971816120602697  0.8908128470433087  0.9636644634041991
  0.2851864331062552  0.8054608543332963  0.8231351340275994
  0.3664627178379771  0.8836357873245916  0.7012597086893165
  0.3644943078171309  0.8091266565841138  0.5603766929988160
  0.4261038097306013  0.8864485023737013  0.4401782286316145
  0.4239333634906066  0.8248778608591274  0.3059420764264899
  0.3588084313639529  0.7492189169337390  0.9500597363988097
  0.3563262721001291  0.6752723292030832  0.8050605437792921
  0.4369329510769587  0.7439643943145233  0.6841425107044994
  0.4389994929756769  0.6850828320227246  0.5322464349639167
  0.4965509531159657  0.7523901758792184  0.4214877363539283
  0.3442040989512216  0.6870610052440764  0.2712991117839013
  0.4289900414327223  0.7518647236172971  0.1709680613940898
  0.4318647282080346  0.6221521964184717  0.9216245763691681
  0.4333771136199460  0.5407812773164300  0.7805708155616125
  0.5011054267419126  0.6042250015999712  0.6550487623662152
  0.3583235444379965  0.5457699829090265  0.5148121389045677
  0.4200311782293393  0.6067533542485114  0.1704314338833438
  0.9391545846361906  0.9801459133612909  0.0579835782224849
  0.4976996733334101  0.2254110115024246  0.0562395388125602
  0.5048979351984992  0.1122285942845197  0.7891568557335479
  0.2810129420649887  0.7533916260725281  0.1578511775802878
  0.2897755415126275  0.6115071517710725  0.9279726358996973
  0.2818499492586040  0.5491514227592746  0.7821197176949019
  0.3570940097328932  0.5986922983715031  0.6568537821750877
  0.2088225147315433  0.5415230922744370  0.5129461386967465
  0.2802394319688205  0.6115442425189728  0.3965223610244514
  0.2819711709900930  0.6061475386994726  0.1663579432335907
  0.3494512681856771  0.7011369440722577  0.0448666944086830
  0.3592298211924626  0.4902574968848425  0.9080930258425175
  0.3576770285367213  0.4198345302047197  0.7695394613918459
  0.2846957737168948  0.4639910655800810  0.6326811520319400
  0.2836451853773229  0.4595154486667728  0.4006873222726270
  0.3568746561235318  0.5309831380794220  0.2825134071505126
  0.2807070015045640  0.4607579887214343  0.1638089625575472
  0.3452373699005807  0.5399158265320886  0.0478242437576804
  0.4381278510016366  0.3519708251297207  0.8934943183342691
  0.3601765051907581  0.3285418360393356  0.6456882711276350
  0.3506115333299297  0.3867063105383942  0.5096410010737429
  0.2761525278786175  0.3105960958468851  0.3994372240941848
  0.2057804265175079  0.6927111625075624  0.2799339362749952
  0.4393862480237613  0.0375896459263909  0.9086113592335788
  0.3469171567512150  0.7453676609434198  0.4190851086353611
  0.2869874416883789  0.7356437032022125  0.6761174902028889
  0.4365866032727043  0.0301776781376386  0.6809959221187617
  0.5045458149308404  0.1081918845546989  0.5715117138467949
  0.4306005587225055  0.0318220346278871  0.4634239567107465
  0.5794608449910880  0.0910621408160559  0.3056737626711171
  0.4984674109661739  0.0072679595178585  0.2028120257249473
  0.4973302356755384  0.0635840784132164  0.0601483823851532
  0.2068079250034629  0.9927320404821416  0.0574042644324749
  0.2016011630128373  0.9558700188605148  0.3125706457921819
  0.0794442924522761  0.9517838548001601  0.8367764492723577
  0.1432992826299968  0.9462758787369586  0.5697798705166599
  0.2052089526404882  0.8836357873245916  0.1831519451039813
  0.1320025717478963  0.8611835212622491  0.0422018509746376
  0.1372208786653304  0.8082550240084557  0.8275806051109379
  0.2115355725315367  0.8713649315608941  0.7023390617507032
  0.2100289595830296  0.8123535516514443  0.5578886927217213
  0.2792638856535036  0.8832710616369051  0.4312202080260937
  0.2808339956994574  0.8246305892064586  0.3020271348140023
  0.2137348810885527  0.7462331117277614  0.9499377756009132
  0.2138676477468506  0.6760017805784567  0.8014809943610207
  0.2882977908811418  0.6740916070615890  0.5444303186738082
  0.9519983157106280  0.9558823824431482  0.8337518214845164
