Cu
 1.0000000000000000
    17.1025312499999984    0.0000000000000000    0.0000000000000000
     0.0000000000000000   16.1885049381434385    0.0000000000000000
     0.0000000000000000    0.0000000000000000   18.3606875000000009
 Cu 
 428
Direct
  0.0172439752156567  0.7815917848756445  0.9554287523274932
  0.6141439224091462  0.5490996545411162  0.4221584159089904
  0.6891795987801510  0.6298544867504661  0.3188088000517411
  0.6244640321882174  0.5480371722386604  0.2183744345085118
  0.6947811087905481  0.6195817654191612  0.1144428143009351
  0.6947577204397740  0.4803471660159072  0.9388716381126796
  0.6149566675985461  0.4112240441293761  0.8334670883102825
  0.6878406156983338  0.4939988281579299  0.7325013701148173
  0.6217802189368897  0.4087222689404533  0.6317894550517240
  0.6911851498590301  0.4773820991253320  0.5276746173039545
  0.6189385343178366  0.3944775934203156  0.4203856064757924
  0.6861975840564536  0.6358958105400127  0.5210294412995157
  0.6926293805193310  0.4784754675412317  0.3236473988242543
  0.6923370261346545  0.4682583412141250  0.1037498595845064
  0.6957458782599797  0.3288384251302102  0.9385012816105063
  0.6183713668115646  0.2575162119665025  0.8310325389504070
  0.6921148368023007  0.3317973147980965  0.7328374141763482
  0.6276565420688820  0.2496031897022803  0.6296773337055054
  0.6923487203100416  0.3146678762823368  0.5245058906427116
  0.6184766143900482  0.2419187246775401  0.4133826007332242
  0.6966112472386214  0.3199802877946172  0.3179597033063169
  0.6276916245950431  0.2418445980052756  0.2137447059103860
  0.6930854533594256  0.3156191685763965  0.1108013384575061
  0.6242593841189443  0.3908330320339837  0.2149514145371736
  0.6153718108247864  0.5593353125362889  0.6288031834319929
  0.6785086637394682  0.6432096422034312  0.7332164849491611
  0.6054785384473420  0.5731722913589727  0.8383416334491832
  0.7834580407505465  0.0162400709686456  0.2908289109544510
  0.8503311827013910  0.0417952412317895  0.0531112328990949
  0.6112846965270122  0.9883928460478781  0.8834325375888024
  0.6843323630822191  0.9220988921527706  0.9836030785884243
  0.6833383581743198  0.8548845320770470  0.8516254497550814
  0.7587131656315491  0.9215800054469200  0.7557662941542903
  0.6201430343827028  0.8742130618699832  0.6173063372490818
  0.6936877033918588  0.9512739149114914  0.5242030697379932
  0.6180322357253401  0.8783826871848545  0.4266484438559286
  0.6903256279680821  0.9429655503951924  0.3159788406616038
  0.6224058573200969  0.8610185142069241  0.2109409437963584
  0.6916061401729642  0.9399881290592402  0.1145435730552029
  0.6155355292802052  0.8554898999005393  0.0130397486477563
  0.7589704374900644  0.7888129581987326  0.9604993685557799
  0.6040343077870417  0.7259720717866075  0.8312612885546906
  0.6865659505811454  0.7886276415180716  0.7206145603207942
  0.6075367133154630  0.7175834033753558  0.6265325712885207
  0.6887527613785240  0.7956202576016778  0.5266038512991412
  0.6167400293450713  0.7092317983002357  0.4208262217849958
  0.6896824483217942  0.7866571074803770  0.3190691388870924
  0.6200260926288321  0.7078542776406560  0.2216515449108319
  0.6940619170042444  0.7744200293340664  0.1083863962065691
  0.6904484168096461  0.6434505538882901  0.9242098777619303
  0.6936935504795525  0.1712698287869006  0.9254625541663404
  0.6251598356237471  0.0967848776065795  0.8301120941141229
  0.6926176863439439  0.1778547481730525  0.7321146743551951
  0.6224877165478060  0.0985206771821036  0.6263920536744607
  0.5365472216283771  0.7921115951144976  0.3227084361628616
  0.4676042106340251  0.7112146867833078  0.2253280956935845
  0.5473935692998660  0.7849274851275416  0.1185652089552747
  0.4712118637409301  0.7109799523211373  0.0229260886881279
  0.5367694109607309  0.6498316249257154  0.9375481582593246
  0.4591551689168816  0.5689038304810825  0.8382817228385375
  0.5332202287307615  0.6441918206109339  0.7280407528312869
  0.4625581739545130  0.5700898572373124  0.6246088960448785
  0.5364302798745069  0.6331037058847211  0.5186907489166732
  0.4661775212368051  0.5593229580909116  0.4223196299158188
  0.5365881512422319  0.6329430980948149  0.3284151941478227
  0.4580500693428052  0.5633566845066315  0.2227462751599035
  0.5418037534648560  0.6301015756580138  0.1225852109296017
  0.4707733321639157  0.5571609301498675  0.0203401288758932
  0.5475689819306718  0.4927386747294353  0.9406852956894994
  0.4653296935212440  0.4161472906122684  0.8376172597022852
  0.5433590787913337  0.4947833354393945  0.7370992371609179
  0.4708785797423989  0.4172715451416114  0.6242657716384531
  0.5397397315090418  0.4751830078481556  0.5240690878269129
  0.4665517348491906  0.3990302065418860  0.4269278451583036
  0.5454698774486960  0.4734533854953202  0.3223337225253685
  0.4742757376923371  0.3971090902857010  0.2220637299120745
  0.5502878777081606  0.4773697446799546  0.1160157401513424
  0.4644526303672152  0.7151063370771877  0.4216785863819097
  0.8485653622179464  0.0027551938392178  0.5167534576251570
  0.5386229377595784  0.7939832935891729  0.5253566213138806
  0.5359274303328636  0.8106309087352142  0.7261012829721110
  0.6950734631752240  0.1642092632537187  0.5216459759472515
  0.6191665707378842  0.0790809573807709  0.4195283401016438
  0.6979560774081319  0.1585323956028050  0.3196230397146077
  0.5546907347413847  0.1024246819213606  0.1913939633251751
  0.6155764588940599  0.1890972934664830  0.0817495940715728
  0.6983653735466786  0.0174260977248757  0.9315189722607066
  0.7009673275702976  0.0190259984012485  0.7253197218241419
  0.6997569804177376  0.0067395024734280  0.5216274581221427
  0.6264988187055643  0.0176484777416687  0.2911420800555535
  0.6959271379784788  0.0558978406300870  0.0539047761691931
  0.4638152978086211  0.9972448061607821  0.8821199505737461
  0.5329278743460851  0.9130863242499599  0.9852587900099057
  0.5358806536313151  0.8671277874460465  0.8533791967212557
  0.6147169370031115  0.9325631073874249  0.7491352788396405
  0.4728256599443429  0.8764121531471597  0.6234852997743141
  0.5444583312777164  0.9543439945877744  0.5205768438681830
  0.4686683805942466  0.8697963476475640  0.4157784805171376
  0.5343428695679181  0.9459429717311448  0.3094965125897383
  0.4705394486561744  0.8637982644168384  0.2123822841601112
  0.5404823116461195  0.9416621564078772  0.1179644689230728
  0.4728198128566492  0.8568056483332323  0.0179093920094224
  0.6096942886743739  0.7783672746321442  0.9567522321808483
  0.4643123002625706  0.7229019921103245  0.8358798519935596
  0.4592662635830585  0.7194242157365874  0.6265445534106499
  0.5420961078495323  0.3380239552683041  0.9363118211123632
  0.8457002892481192  0.0113971283807064  0.7283413951683454
  0.7811542881992977  0.1776447226016368  0.0814701927691978
  0.9861356414712004  0.4837199296039364  0.7269432993726406
  0.9144678876116654  0.3999691443905681  0.6274361322254409
  0.9819140441564752  0.4810328377343526  0.5294637659946013
  0.9154268099934038  0.3991537509956601  0.4169565409791982
  0.9856152506664764  0.4755783501002322  0.3153824577647216
  0.9097843703691519  0.3927109077313479  0.2118207583457864
  0.9791366775020509  0.4732927777054140  0.1050591787480725
  0.9882522872162564  0.3365784851591488  0.9383433354551673
  0.9189701451356795  0.2494302274669969  0.8291153994097443
  0.9267058421542130  0.2528956493953564  0.6273577037896866
  0.9149181133640668  0.4065911271128526  0.8269368317499005
  0.9139299555438611  0.2469222750553854  0.4230897535835736
  0.9282728616560778  0.2363159836988908  0.2232255055808777
  0.9923335544263369  0.1798685227695682  0.9326137025097780
  0.9248640095307530  0.0985206771821036  0.8321817333909746
  0.9179761402277805  0.0912871494136381  0.6268446511057933
  0.9134621885283795  0.0878155502625898  0.4191819478437286
  0.8563829184641890  0.1026717708289086  0.1818797226411049
  0.9215545578962178  0.1880904061682252  0.0862249166868071
  0.9877143551484521  0.0205208862919134  0.5278521705682317
  0.9289043471269787  0.0310468737534547  0.2873573633884897
  0.9916377509908071  0.0499491751808708  0.0564945484748325
  0.9929182631956892  0.3215493023575464  0.3190936477732656
  0.9841710200061760  0.4853321847256865  0.9237687178108120
  0.9883926173209007  0.6193223220662356  0.1074572370996457
  0.9023761102614559  0.5455662831631812  0.2107352325450777
  0.9865858672236018  0.8537726319930813  0.8479600096673940
  0.9097200524045235  0.8700619682231781  0.6212745982414875
  0.9809492746870436  0.9434659054329773  0.5208143077431060
  0.9135557419314756  0.8707538171643123  0.4106828107607627
  0.9899771780858462  0.9446581094118955  0.3099665385623497
  0.9129242564605752  0.8576457506188949  0.2122466138590944
  0.9828729665382131  0.9390800773240013  0.1145343141426486
  0.9153624920287750  0.8566512177660149  0.0195149963747273
  0.9058902099652647  0.7192080129424833  0.8310434317887062
  0.9772597623524294  0.7920807090010540  0.7188820543893033
  0.9079659260964660  0.7165394527409659  0.6218290437109176
  0.9855158501756864  0.7932049635303970  0.5214684226829742
  0.9070186978901147  0.7142106397873266  0.4164445775791348
  0.9850831656863658  0.7855452073964113  0.3171879457128172
  0.9201571039374654  0.7038761462291345  0.2110848926544826
  0.9896731295257828  0.7814373543084272  0.1058009810362494
  0.9880885687608376  0.6372362678634599  0.9321670961395100
  0.9055452317913465  0.5603360226118583  0.8271220100009872
  0.9791483716774380  0.6434011361067806  0.7304693111300979
  0.9056738677206041  0.5562034606331191  0.6267607762508893
  0.9798967989022090  0.6351854299308125  0.5290639988290199
  0.9150058196794697  0.5511566696964529  0.4164184347672167
  0.9840657724276923  0.6341908970779321  0.3096648069414613
  0.7614086730582642  0.9898321389343446  0.8802082574522331
  0.8369004222693642  0.9143958954599639  0.9886301234635142
  0.8339768784226019  0.8545015442703477  0.8564291914450372
  0.9140644385608121  0.9280413803792980  0.7494070551552059
  0.7637475081356742  0.3964543046806990  0.6254797784669012
  0.8340996672641658  0.4782839736378821  0.5204243441319940
  0.7673843966810469  0.3965407857983408  0.4158629000139565
  0.8456944421604254  0.4782530875244386  0.3194836113843777
  0.7650864912174913  0.3937486811430492  0.2118961367868170
  0.8358713348353037  0.4764184523858952  0.1143780019130548
  0.8428995342429209  0.3298823757646002  0.9324503099352898
  0.7717053944865614  0.2494116957989307  0.8264412076072860
  0.8418529055457796  0.3134509634126633  0.7270320760047793
  0.7706821541401947  0.2461192361058546  0.6258615724492887
  0.8404671457624143  0.3212836817819326  0.5267416457036264
  0.7695478191276510  0.2557001084960253  0.4243909031184154
  0.8455891945819423  0.3203076805971181  0.3167456964778689
  0.7746406325087112  0.2406338623582908  0.2136863747612937
  0.8469808014530013  0.3264601943950615  0.1116324620197365
  0.8451740513557020  0.1732280083792177  0.9309852231840449
  0.7756755670304649  0.0916021877707619  0.8267516534988137
  0.8496587676166357  0.1629738187159789  0.7284966181141094
  0.7761082515197860  0.0862403584769720  0.6263931429582906
  0.8414026797933782  0.1620287036446081  0.5168596627985744
  0.7716703119604004  0.0825957970906400  0.4201089283829922
  0.8455073353542327  0.1643266304848039  0.3247203433967275
  0.6912436207359657  0.1134819105341303  0.1871050171732404
  0.8364618906923498  0.4817555727889303  0.7213427465610970
  0.8419873885627310  0.0140656885822239  0.9301301353775561
  0.7604146681503652  0.4035210474365696  0.8284890612075392
  0.8440689517816257  0.6198597404401527  0.1040052966426230
  0.7638527557141577  0.8745898724539939  0.6198574399787590
  0.8382101699127136  0.9381164305845645  0.5178710628346569
  0.7594148161547721  0.8683508775384089  0.4175267810641623
  0.8425779444197767  0.9397039768155599  0.3150055655595685
  0.7634376124879174  0.8713344760970499  0.2134500001702007
  0.8350001187689686  0.9340888813915336  0.1113786588873647
  0.9048669696188975  0.7823824693797983  0.9521064366462314
  0.7598299593810124  0.7175216311484685  0.8221221972216455
  0.8356842280291109  0.7924760512531306  0.7280156993031988
  0.7580758330729549  0.7188312023584725  0.6186134778449881
  0.8310240991373719  0.7930628874085570  0.5194527029557036
  0.7635779425925621  0.7138832469848253  0.4221317284551573
  0.8332167570224434  0.7950643075596954  0.3157996534715817
  0.7601632433795436  0.7075948342877308  0.2165156805811330
  0.8333746283901687  0.7767426650650167  0.1134738963342196
  0.8306089559111315  0.6406708036783764  0.9338609324950388
  0.7617770395829564  0.5539549515744330  0.8322361975824707
  0.8346668347704379  0.6393118146868629  0.7241629023967648
  0.7543863207383408  0.5614911632546445  0.6189544236837538
  0.8385902306127929  0.6299039045319755  0.5178029825952869
  0.7695361249522640  0.5591129325194959  0.4225107992279701
  0.8390346092775010  0.6369335839517137  0.3109610546990684
  0.7596311583994326  0.5481668939151230  0.2160257751786256
  0.8353743323813542  0.4854619064021491  0.9333435226758257
  0.4737904294137746  0.2653180442223281  0.8403459156962396
  0.5447857681885538  0.3367329157263664  0.7373067457305180
  0.4717673370718147  0.2605924688654742  0.6312420899271882
  0.2554660220252480  0.1843902497776951  0.7285587072924149
  0.1763256900933887  0.0998240711694189  0.6200823770896379
  0.2546123472219937  0.1757421380135178  0.5269812881462091
  0.1827691807316531  0.0929179362034543  0.4334412178193219
  0.2617750296465615  0.1605276385312545  0.3210924836011724
  0.1088444510224179  0.0958397625352087  0.1943850277937578
  0.1752381317823931  0.1928221587477678  0.0914469433674529
  0.2595765246737962  0.0252093983126351  0.9277881751432239
  0.2568693230716941  0.0233253453925822  0.7226586014276426
  0.2577054566118684  0.0255120822243815  0.5316292622484861
  0.1826814744162502  0.1100350202738367  0.8298778980906898
  0.1815471394037065  0.0272046412410847  0.2957786166776163
  0.0234068056446321  0.9940326503626592  0.8901425259811213
  0.0966825086198862  0.9297277621733128  0.9898119964189793
  0.0878417120272763  0.8612717803371608  0.8515655391444357
  0.1640526530246801  0.9396174956979183  0.7487529402153378
  0.0229682740676178  0.8802605628822187  0.6157415810273988
  0.0988634723295706  0.9569754914531597  0.5207783613767186
  0.0236348420646793  0.8733729595843204  0.4212014800644039
  0.0945132390855883  0.9544551845961707  0.3116603749178782
  0.0256813227574132  0.8746145813447487  0.2112018272736248
  0.1020501351225420  0.9573646564825475  0.1123557464828047
  0.2542147452588337  0.0531489765336164  0.0606550680632194
  0.2492447207193379  0.1832289319122200  0.9294983507562012
  0.2540334855403347  0.3187819065930098  0.1260883477266307
  0.1815939161052546  0.2351731975014817  0.2274089545938844
  0.2467070846603478  0.6449392645562666  0.5211754053327251
  0.1684788984086783  0.5648639268426737  0.4198425984865763
  0.2375973220338360  0.6491088898711380  0.3309673861613298
  0.1650057283187247  0.5581801718935027  0.2228077652321026
  0.2446898394060820  0.6388299913171442  0.1244718505230265
  0.1809273481081927  0.5539364199063671  0.0203303253214239
  0.2477654075328760  0.4899712789648987  0.9440348434665096
  0.1684379687948235  0.4229545900152135  0.8281513832202634
  0.2432806912719423  0.4958087544057184  0.7249700617147370
  0.1740336317175269  0.4138308321040065  0.6198716006685481
  0.2424620989948491  0.4908175584732503  0.5242673374839586
  0.1714199835185213  0.4088211045034724  0.4234263422870195
  0.2467655555372833  0.4845167913307783  0.3236877023259614
  0.1796760713417783  0.3997220554830204  0.2219689622188712
  0.2537586724187390  0.4761157684741490  0.1271149977363321
  0.1755363332547628  0.3983260031553745  0.0282820972798541
  0.2424445577317683  0.3397350459530736  0.9406362779171533
  0.1758052992886652  0.2692776439657836  0.8354931562339374
  0.2510222353781695  0.3392223364699116  0.7287063052513693
  0.1758871585163743  0.2466319455890166  0.6236944422696590
  0.2604769761785991  0.3356766106465990  0.5279975899595264
  0.1843946711104530  0.2401211528751289  0.4200223303185134
  0.2553549273590711  0.3257436365631725  0.3264882510526907
  0.0316511992925021  0.8635882388454227  0.0190798274846735
  0.1704376727860089  0.7946998514210619  0.9596388343301416
  0.0231261454353428  0.7259164767824091  0.8278300444904364
  0.0958522221674055  0.8065107012018528  0.7187186618148150
  0.0939285303162359  0.3435587467973776  0.9376952115763639
  0.0358552553441465  0.2566019830085753  0.8386248472449629
  0.0988927077680384  0.3380610186044364  0.7250337848187874
  0.0237751721693240  0.2627050790250090  0.6293151468320564
  0.1108909317151514  0.3299070846553549  0.5220544573834721
  0.0336976799852357  0.2455694632865607  0.4167256128072547
  0.1123527036385329  0.3269852583236008  0.3252475567704097
  0.0315927284155670  0.2483739223872294  0.2204387362945969
  0.1034709774320683  0.3217902140424057  0.1268274268052327
  0.1040556862014211  0.1886772423236515  0.9411210092214684
  0.0323586969034185  0.1054515210388229  0.8364735116808671
  0.0977115960539466  0.1852921242902449  0.7322764330039385
  0.0300023205629282  0.1062483827656648  0.6278250065527231
  0.1004421860068224  0.1793558132864061  0.5271310646728234
  0.0224771187013616  0.0929920628757188  0.4192380459609696
  0.1049444435308369  0.1586930033927113  0.3246266649873542
  0.0311366555754719  0.1829756657819833  0.0901632223738899
  0.1084410019715645  0.0378294642656452  0.9334742367354164
  0.1047924192508052  0.0260124372621659  0.7302530882898585
  0.1057396474571561  0.0165551093257693  0.5214079674304135
  0.0306338060338287  0.0265498556360827  0.2924938812884866
  0.1031259992581505  0.0552245233570189  0.0683285280031045
  0.0140280769842180  0.9410011935801865  0.7534308696229377
  0.0302420511583628  0.3950458979076759  0.0213166718294182
  0.1569601356524341  0.5620038727378068  0.6239340847122419
  0.1077802810621963  0.4742070066633414  0.1275528898359607
  0.1028511861365549  0.4889087966624427  0.3232231227724997
  0.0242253979217254  0.7286159230973702  0.6237254868588119
  0.0979688679124616  0.7943292180597401  0.5195294974657131
  0.0216409851611876  0.7223275104002758  0.4219394698591761
  0.0996879116943580  0.7976710955343256  0.3173453472262409
  0.0265817742622160  0.7259658945639190  0.2151639338123913
  0.1041960163060654  0.7904005044297281  0.1162379540526465
  0.0321540488341454  0.7063037947457931  0.0161905021258055
  0.1039621327983245  0.6452110623545692  0.9333053977417787
  0.0268975169976665  0.5711955800985892  0.8281132582862162
  0.0934256807745927  0.6465515196780168  0.7243333753161476
  0.0070817368043104  0.5723630751867532  0.6268713385596264
  0.0950979478549407  0.6326713002965124  0.5206236830728698
  0.0197816112746464  0.5570003223599612  0.4233871280691423
  0.0934198336868990  0.6403681197666302  0.3169101783361871
  0.0196120457315344  0.5562775873053837  0.2227903366908239
  0.0979396324739938  0.6294962078345215  0.1275561576874505
  0.0394979909772126  0.5438799013691664  0.0202371915539656
  0.0979864091755423  0.4928931052966529  0.9342694139312595
  0.0202435312024349  0.4128362992511262  0.8256678160880414
  0.0864033284546692  0.4962596916619934  0.7245365267504280
  0.0225531308413774  0.4167711901038270  0.6251475468987749
  0.0870348139255701  0.4785372397681187  0.5271882520738943
  0.0282832767810318  0.4077956855371485  0.4161875065952733
  0.0345513547884904  0.4050591758860553  0.2248327438719275
  0.2373868268768692  0.6496833715811866  0.7339811621977663
  0.1695956921581417  0.5647342051662112  0.8302482545928632
  0.2500983955225922  0.6504061066357641  0.9318076324756358
  0.3246312223519543  0.8688203464627497  0.2240703541193651
  0.4022863940096584  0.9392036217777754  0.1199121084109732
  0.3195033264447331  0.8630322888034399  0.0195678266404785
  0.4618389821682097  0.7855390301737228  0.9668281076076264
  0.3190297123415576  0.7270901490932621  0.8254554057412066
  0.3888380923145514  0.8086541974748310  0.7302890346562458
  0.3175211637166280  0.7158908443586525  0.6217413563626090
  0.3898028617839830  0.8014330241517429  0.5193415960050516
  0.3172288093319516  0.7258855906689659  0.4220903356696202
  0.3905629831841411  0.7938906352488424  0.3189117373736686
  0.3270285283062993  0.7084967088002808  0.2240266738377852
  0.3943051193079971  0.7885967554046285  0.1256951162640288
  0.3267829506231714  0.7043270834854095  0.0199398170683969
  0.3905863715349152  0.6427957682832883  0.9299068321924220
  0.3161470981086497  0.5665441314139996  0.8315553951887695
  0.3924925221230044  0.6465144563418846  0.7338411892256214
  0.3194507026554912  0.5628686839142243  0.6256709477790524
  0.3903174055010128  0.6445439223041900  0.5248038097701951
  0.3115805226200068  0.5660314219308378  0.4260335431339377
  0.3879493349851356  0.6364888239181277  0.3258265111260132
  0.3187315108691875  0.5595453381077046  0.2140913160250672
  0.4014970371710325  0.6306142851411757  0.1210318921881330
  0.3184800860983659  0.5518979364190967  0.0278975800878917
  0.3981992797118847  0.9560056674910340  0.3175757307562694
  0.3910190560242358  0.4901504184228710  0.9443779678729352
  0.3134808261204023  0.8800196511973594  0.4185539757157787
  0.3239588072671990  0.8828982369702925  0.6293603521109981
  0.5496622393249534  0.3281342217436986  0.5266969850665996
  0.4733694390998405  0.2451741210344838  0.4276609331758411
  0.5503463485850961  0.3219199357188683  0.3233701760895392
  0.4779652500269512  0.2421781680304654  0.2216460440274909
  0.5438794695960573  0.3218087457104718  0.1080351021714193
  0.5498668873942270  0.1703555998289732  0.9256368395791278
  0.4690075116804711  0.0895760587288688  0.8313266455844860
  0.5463235522519508  0.1817649301349984  0.7289165370305443
  0.4798947889658144  0.1061742560934004  0.6377140698026694
  0.5547258172675462  0.1791704966057452  0.5277830010450317
  0.4749247644263183  0.0809155925193141  0.4316640512508043
  0.5492295548356327  0.1590821684220992  0.3152659043949199
  0.4037072363191852  0.1011830601609324  0.1910422880406848
  0.4654934119766628  0.1892826101471440  0.0859896313795440
  0.5475631348429781  0.0198043284600244  0.9339753072971805
  0.5507322563728687  0.0249314232916439  0.7283855111634573
  0.5494575912556803  0.0158200198258142  0.5273886802986000
  0.4769595509436648  0.0261853994974495  0.2958565004714557
  0.5443940133130875  0.0537296354663540  0.0607787017779155
  0.3165797825979704  0.9944279926147358  0.8862755683848985
  0.3857625241877569  0.9156560488884585  0.9842294167906294
  0.3910015147611555  0.8609443875346600  0.8595990073901101
  0.4637100502301374  0.9439909693615165  0.7528535491930790
  0.3963632941761176  0.9571855170245754  0.5081622760585627
  0.9832647214136795  0.9175771651446437  0.9811630828093991
  0.3113174036737982  0.4130710337132967  0.8438534096285882
  0.3226607537992362  0.4102109796084296  0.6295128518471871
  0.3343783175370602  0.0198228601280904  0.2928342824853373
  0.4031225275498324  0.0456251192987822  0.0607868714066399
  0.1695898450704479  0.9928589780518067  0.8808945062650839
  0.2416025771039006  0.9240261856316444  0.9862554847142841
  0.2427427592041380  0.8564473694172877  0.8503292019974742
  0.3226315183607689  0.9499705209241762  0.7590314224344813
  0.1746943526268951  0.8799022839662741  0.6228829258163672
  0.2483910459160832  0.9607003567344445  0.5199973448706645
  0.1762379837779858  0.8773634454412192  0.4282807356750667
  0.2422866863640433  0.9525896633441838  0.3224350259215512
  0.1698821994551243  0.8755658736388081  0.2158114041208969
  0.2589976629921372  0.9509465221089904  0.1173522914106567
  0.1754076973255052  0.8746639991262581  0.0101880035810207
  0.3142175591697864  0.7872810069719356  0.9610712425664890
  0.1649355632664022  0.7305926343577538  0.8370236000149777
  0.2469292739927020  0.8037371282146274  0.7197556600209006
  0.1661868400328165  0.7161749966023324  0.6210365897246495
  0.2442220723905999  0.7959600048495565  0.5243512123388626
  0.1670229735729905  0.7245760194589619  0.4274991745270977
  0.2424504048194616  0.8024955064541988  0.3204705025342869
  0.1820558360330430  0.7235320688245720  0.2227708385102683
  0.2514432256921031  0.7894739210264233  0.1228918443277247
  0.1807110058635325  0.7167927188712021  0.0164486623934970
  0.4004679497369720  0.0112859383723099  0.5286958208945063
  0.3965796364207781  0.4949933610108102  0.7312764704480702
  0.4028301731651564  0.0219972425145121  0.7314327826776640
  0.3215907367513213  0.1924021076049365  0.0889622869514010
  0.3954102188820730  0.4906445962379667  0.5219041362149430
  0.3254556617167412  0.4089014083984255  0.4191928406820279
  0.3984916340965607  0.4877413015742786  0.3315724833288514
  0.3341444340293194  0.4022547167853866  0.2235297425545749
  0.4056367752580481  0.4709269014156427  0.1215487573654309
  0.3208423095265502  0.3948420495589489  0.0186615424939835
  0.3931181605062116  0.3375174230078309  0.9366113741655916
  0.3271805525863310  0.2612163683570328  0.8394690422131524
  0.4021343697296267  0.3318405553569175  0.7366471843715002
  0.3243213267041976  0.2617105461721285  0.6307606264743627
  0.3976379592933059  0.3295611601847880  0.5229275183731547
  0.3280693099157468  0.2441610565135375  0.4240722875981632
  0.4015964376618224  0.3266578655210999  0.3245030312726580
  0.3316009508826359  0.2509374698030392  0.2244904364283746
  0.3938548935555957  0.3191463627316430  0.1201223401901482
  0.3986670467273664  0.1830127291181154  0.9364861065251506
  0.3296304823299178  0.1035612908960813  0.8255207627710019
  0.3993160734613476  0.1852735926221789  0.7318619605066532
  0.3206902852465185  0.1020972891188597  0.6338525586255961
  0.4032043867775419  0.1686259774761376  0.5370784046076706
  0.3322382834412301  0.0929858856530301  0.4286102440336181
  0.4072330301983806  0.1636903765478679  0.3265645009207853
  0.2602606339339385  0.1041295953834415  0.1848643058708995
  0.4011579060848081  0.0203541012793185  0.9287957626859015
  0.9091938145121062  0.9880592760226883  0.8825720033631637
