Cu
 1.0000000000000000
    17.3236264999999996    0.0000000000000000    0.0000000000000000
     0.0000000000000000   16.1765408886351629    0.0000000000000000
     0.0000000000000000    0.0000000000000000   16.3987119999999997
 Cu 
 396
Direct
  0.9657771858565528  0.2563663315209214  0.0191756523317197
  0.5287959336920591  0.7562074320172959  0.4742296834044039
  0.4549834441420222  0.6710408930467857  0.3677518088005937
  0.6753530070623495  0.7366667896651306  0.2441262460124919
  0.6030644478510316  0.6476428129129844  0.1405632344784152
  0.6674909119057723  0.7240559353790130  0.0178279855149598
  0.6817546689776535  0.6937837033010142  0.8531923726692682
  0.6084732460608063  0.6838062921158213  0.5907022453958581
  0.5315551711992867  0.5889219771954204  0.4830413510524485
  0.5231677818729238  0.5792660191586972  0.2467849914066423
  0.5281955974980183  0.7719030001704590  0.6980460416647358
  0.6064413389425131  0.4948351133548771  0.1408132541141037
  0.6110766270561191  0.6064844463262342  0.9760373863508305
  0.7571545859638574  0.6259138164346986  0.7422507328624347
  0.6822106935865885  0.5512748680765697  0.6324494265159361
  0.6075669693063402  0.5188946451595678  0.3669651616541591
  0.5275375366699345  0.4266808640879920  0.2608348753243546
  0.6863553223108337  0.4144532808635114  0.0282922219745065
  0.6083693417195298  0.4531512945062054  0.9729883664034104
  0.6803923676142524  0.5380767436153634  0.8578024908297678
  0.6180670802386556  0.4654221502699030  0.7488549100685470
  0.6735462260168218  0.5725093212495175  0.0208831035022750
  0.6075958316233616  0.7580310604557299  0.9657987773673934
  0.5943307107204141  0.8025028671882439  0.1287696253217938
  0.6702790117300208  0.8980609973621682  0.2310276563183743
  0.7577549221578981  0.1490566160539049  0.7587276366582936
  0.8222333383832769  0.2366216900553042  0.6500361735726563
  0.7578934612796003  0.1528336905484234  0.5410459065321715
  0.8290506176636862  0.2333886131966575  0.4272198938550785
  0.7629905464655451  0.1480551658605955  0.3216201369961250
  0.9002828160720272  0.1582489397418738  0.1084143681528159
  0.8352271535062247  0.0711598636718623  0.8768222772617754
  0.8294200553215576  0.0713824081592643  0.6522314679347990
  0.8267935844726274  0.0735151261635342  0.4338301691010854
  0.8290967973709200  0.0712031362110795  0.2121054385246842
  0.7543607136762045  0.0010459865575756  0.1009747594811105
  0.5118018014299721  0.9957889362882621  0.5872873430547472
  0.5976902844216827  0.9828875378102586  0.3483539438951059
  0.5351860506805547  0.8914588442359063  0.9466021477784352
  0.6164911977292978  0.9777071966868435  0.8282940757786346
  0.5988332321757227  0.8457754064053140  0.5838480485540574
  0.6741407897474587  0.9156729208235151  0.4608078975958598
  0.5961317193025378  0.9548654777715471  0.1102681722808474
  0.4591223004028634  0.8263089455489492  0.8206898200297682
  0.5474583078779724  0.9172616411919133  0.7120532393031842
  0.5964896120336007  0.8258391294088784  0.3532628660104525
  0.7535583412630146  0.4771119176498286  0.5262947480265523
  0.6813679139295692  0.3913271995476459  0.4171398339089070
  0.6061065360650670  0.3440550413486553  0.1475149999585332
  0.5239701542861134  0.2534917985586447  0.0244687509604415
  0.4534999210471321  0.9619127198726131  0.1104572115175877
  0.3072256983836496  0.8321136475953536  0.8106951326421247
  0.3958041493217370  0.9147085613781063  0.7116263765105455
  0.4529053573164952  0.8193482485263176  0.3626111611692432
  0.5254825396980248  0.8957304620357630  0.2399490886845262
  0.4498055444684175  0.8123566425471027  0.1290196449574819
  0.5215630370465447  0.8703232997240262  0.0102298278059885
  0.4538462688513866  0.7625314045343048  0.9653902086944390
  0.3848768760975079  0.7488820093069778  0.6914540605384133
  0.3841553181719776  0.7513238168770837  0.4784434289717386
  0.3063425114828008  0.6692049010257185  0.3742645154082833
  0.5307123915422675  0.7362278824816431  0.2428090693952060
  0.4441947100394946  0.6547395093445838  0.1401851560049351
  0.5305911698107785  0.7197966811617901  0.0226698291914632
  0.5395211706971401  0.7040763858433602  0.8483627250725545
  0.4594571032803091  0.6733590647905574  0.5892996962200446
  0.3808188343243259  0.5932430493258107  0.4863220965158729
  0.3858293325592078  0.5771271193631106  0.2541087373203458
  0.4592204322807355  0.4973078298815667  0.1439964309392104
  0.5325134001243911  0.5620250031763532  0.0224624958350387
  0.4615409625692405  0.6210487466684365  0.9648230909842186
  0.5304006785184388  0.9135772935671459  0.4661314864240559
  0.8291256596879414  0.2233555658896139  0.8700717470981869
  0.4511389835147973  0.8411514265004045  0.5831345778863607
  0.3860948658758027  0.9047126048189633  0.9399735784127435
  0.6079537243544245  0.3100799162719386  0.9744884842175411
  0.6793129169576591  0.3905297484677884  0.8586196281756762
  0.6067645968931507  0.3130904486431834  0.7528125379602986
  0.6845312238750936  0.3923471951149052  0.6357240739394654
  0.6102684821795251  0.3212998675117934  0.5283680815907980
  0.7561790396485403  0.3082315606682382  0.3190467641605022
  0.6836364920474359  0.2309591692091848  0.2280152246103231
  0.6117462328110113  0.1469918977541190  0.9726102879299302
  0.6842195108512644  0.2281526359513919  0.8644737464747233
  0.6058063679680468  0.1450137245327672  0.7586056758603970
  0.6824415921227580  0.2291046318141674  0.6411940157251373
  0.6139397689046229  0.1488773441057199  0.5371919453186322
  0.6841617862172221  0.2288449965788650  0.4240794033092354
  0.5995432451744442  0.1472391694067878  0.3254375099702953
  0.7505739776830218  0.1563696751815896  0.1117682900949782
  0.6812005124908459  0.0724951305962747  0.8677971782174112
  0.6806059487602094  0.0682358763790517  0.6537193896691401
  0.6839020253640312  0.0733296724240325  0.4278114037248781
  0.6814256385636114  0.0702140496004035  0.2146056348815687
  0.3668956525932952  0.9963885700459841  0.5916352454997685
  0.4532055254135154  0.9829926282626429  0.3411887470186683
  0.4747368139113369  0.9731821254430013  0.8260438990574382
  0.6038033231667749  0.6241581877007488  0.7416409288729507
  0.7527675137766334  0.1426831892063621  0.9739396606270054
  0.9001962291209640  0.3058330256373490  0.3127291948294478
  0.8970502365656521  0.5133990326790000  0.3735815349400610
  0.8290390727368782  0.4290670355362475  0.2604080125317159
  0.9735122868182365  0.4142307363761094  0.0332011440898527
  0.9044793969669116  0.4575712752976632  0.9774826218059079
  0.9803122487084333  0.5306833212005611  0.8710108452419923
  0.9100786864690256  0.4653417869827856  0.7552395578384451
  0.9725656028199406  0.3886195749509206  0.4203656970132777
  0.8989666944158607  0.3454273990209682  0.1367458615042448
  0.8271745670573077  0.2624615777592116  0.0275177709078616
  0.9751516664250415  0.5517817749645409  0.6428465845366395
  0.8976505727596935  0.3038857613725811  0.9837575048576988
  0.8924091759886420  0.3060370247508011  0.7618254409248727
  0.9769122677633345  0.3805894280304958  0.6575123704837307
  0.9061534113541414  0.3044173954258192  0.5341917096903708
  0.9748457258646164  0.2286657246306802  0.2207768512551472
  0.9018702435081939  0.1436784576083548  0.9859406031400517
  0.9855998251867186  0.2163145055798649  0.8757002379211248
  0.8974543090039493  0.1468126258059340  0.7695943437508995
  0.9699564493612238  0.2236955644120338  0.6514570168681542
  0.9002250914379853  0.1521351481296335  0.5381615336619120
  0.9758501344969541  0.3677807564222431  0.8659555701691694
  0.9056973867452059  0.6215556535564080  0.9818488183706136
  0.9671048524395282  0.5708958737158525  0.0288471436049368
  0.8968712902001204  0.5030568958061203  0.1421670189707582
  0.8259565772790125  0.9005275320975409  0.9448276181690366
  0.9057204765988228  0.9704621372636428  0.8325322135055486
  0.8903599514801362  0.8329234622578441  0.5882630294379220
  0.9717690028701560  0.8976591809265809  0.4642106038571811
  0.8832078693222806  0.9561018360348922  0.1050421520909689
  0.7531658137515262  0.8252580410251064  0.8236290752590814
  0.8286465452253889  0.9117165743808117  0.7185964361103482
  0.8950010120571463  0.8181180720542895  0.3540495131568871
  0.9640685366888971  0.8862105034080074  0.2258687145673391
  0.8911392340397085  0.8056184900118731  0.1145063100077615
  0.9006580261933030  0.7671739298131651  0.9624753456247050
  0.8180540748786059  0.7577590616377938  0.7011316498515249
  0.8224815543096594  0.7556634343814241  0.4716258203693072
  0.7546262469927995  0.6717085265089919  0.3629160631639849
  0.9730678071361100  0.7301635451999366  0.2352231077660248
  0.8905504427724760  0.6597714874763974  0.1345627632218922
  0.9697197783616495  0.7200130438578756  0.0160717500252460
  0.9774029271526957  0.6814448478328327  0.8643030013576678
  0.8961785945916122  0.6778408634951825  0.5960868146230021
  0.8343439666053759  0.5993506591467344  0.4809314292488339
  0.8267012250581598  0.5795689269332166  0.2538465216048676
  0.9765197402518462  0.2352926049222085  0.4255612270036818
  0.9026264362141501  0.1544965924126221  0.3226019214191944
  0.9702797073118614  0.0624744468718647  0.8737976494739342
  0.9745975099382339  0.0683038760835357  0.6556158800764352
  0.6830015210729696  0.5810092843100135  0.2531574430967508
  0.7510704095357866  0.4950514760509623  0.1406120187975738
  0.8156642750292502  0.5630388169522960  0.0256456726601454
  0.7552958527476915  0.6074488057716432  0.9764337589439952
  0.8980257828809693  0.6202574773798959  0.7533247733114649
  0.8289178510053883  0.5502486907179934  0.6380047408601360
  0.7546031571391825  0.5168175632771486  0.3740571820518588
  0.6820663820014822  0.4311441174186669  0.2583102868078909
  0.8231742499181685  0.4114612938662167  0.0231210841436816
  0.7468911460311156  0.4612061685918970  0.9695185817032461
  0.8338359898258022  0.5313324092888171  0.8709315707233594
  0.7568890526472618  0.4680865023274111  0.7488732041882312
  0.9135594819017832  0.4621458008720391  0.5275814344443639
  0.8294777799556003  0.3908450198249415  0.4265430114267513
  0.7517977399247207  0.3407601465768413  0.1523751377547213
  0.6844446369240299  0.2632652106303859  0.0311765948447660
  0.7573681671098141  0.3051777557577763  0.9744153077388031
  0.8289351683956017  0.3858377688583946  0.8638639424852390
  0.7523403514847193  0.3191486041335733  0.7505806553587869
  0.8322889696334658  0.3965940857494950  0.6366387799236916
  0.7594000742281074  0.3059442978810503  0.5362345530551426
  0.6814429559538243  0.6034244596244556  0.4786019780090046
  0.8302339726615556  0.2296362658674058  0.2091234970161071
  0.7580954974987480  0.6771794118242930  0.5885313431932947
  0.8139729432518070  0.7221457618621453  0.0144984557323769
  0.9697486406786707  0.0695402343468806  0.4344582672102540
  0.9790827140033300  0.0758703886552062  0.2175570861906715
  0.8998152465362838  0.0084888633029116  0.0947059744692143
  0.6624457788904650  0.9989540134424246  0.5895375197759435
  0.7481033633460065  0.9968027500642048  0.3355846483553097
  0.6863668672376422  0.8944446494418843  0.9521269719231608
  0.7620265450770367  0.9765944742498330  0.8255011735067976
  0.7468853735677112  0.8394637974709385  0.5872934410946422
  0.8273073337156056  0.9160129193459353  0.4458067194545524
  0.7418691028694252  0.9627534434916873  0.1127866627574166
  0.6115153342748417  0.8331274613712962  0.8179030157978263
  0.6873712758699804  0.9161303733809530  0.7145778278196484
  0.7455577069847359  0.8322867377522220  0.3527628267390755
  0.8168649474173321  0.8911992090006040  0.2276249500570534
  0.7421923608200629  0.8132591840793446  0.1241899973607682
  0.7540894078962052  0.7598299617288967  0.9651828753380145
  0.6739098912112892  0.7466565644329570  0.7012719047691062
  0.6712545580453376  0.7511383631375820  0.4729551930663824
  0.6073187533799578  0.6718074351700596  0.3598182588974062
  0.8234686455517847  0.7397144127842757  0.2443152852492318
  0.7432718114766558  0.6570576810883555  0.1366787830654019
  0.8260143019130552  0.6837073834547537  0.8628211776632213
  0.5371313708477843  0.5431767214516608  0.6360716622134716
  0.4570095787969110  0.5083485091732363  0.3706727699102222
  0.3781461837681619  0.4148736426730487  0.2567308944751272
  0.1776165775682133  0.3065315680561390  0.9796596220483659
  0.2428742763531645  0.3841934123681460  0.8597294714365372
  0.1599874743316591  0.3048439390266733  0.7545626754101178
  0.2364552970476476  0.3876613972968284  0.6413952510416673
  0.1584808613831521  0.3049304841051074  0.5402775535054217
  0.3046049999981242  0.3072733830141460  0.3244679216270155
  0.2376790592893469  0.2286780882133136  0.2254540478544900
  0.1725945344065229  0.1517704224419469  0.9849832108765616
  0.2509672700459112  0.2277631830984383  0.8613332559288802
  0.0782840273080236  0.2476252785990735  0.0273226336312267
  0.1723347735533320  0.1453228140986034  0.7629230881059440
  0.1647439841767542  0.1531489619055763  0.5436436715273737
  0.2362763506821163  0.2252162850759479  0.4347997574443652
  0.1589946106261299  0.1399261102791031  0.3204980976554743
  0.3064290984338645  0.1568765820695611  0.1201896831897530
  0.2367843274616896  0.0669686091591233  0.8784321597940130
  0.2433533908157164  0.0660598858355648  0.6556890565551735
  0.2364668419744561  0.0657075237305114  0.4314458355022029
  0.2367323752910514  0.0705169573749229  0.2204719492604054
  0.0153757211285988  0.8524331956534261  0.5878300686053882
  0.2390067258723226  0.2272500944191501  0.6480726047265175
  0.1659331116380281  0.3334779964057402  0.1433195485108832
  0.2356991043416923  0.3871297632435901  0.4254514622855745
  0.3138409414449106  0.4668934166032835  0.5307158269503119
  0.0906948236271433  0.7590943285622063  0.6962532179356526
  0.0817879125943985  0.7520656318350907  0.4726137028322713
  0.0210558251183725  0.6610573000702761  0.3655809065980303
  0.2213141255383221  0.7292980944155952  0.2525232469476871
  0.1499376155448748  0.6485329908625926  0.1425938817633969
  0.2332919871021232  0.7232275753425721  0.0162242010226168
  0.2342963957344614  0.7020982126220083  0.8424476263745592
  0.1599470670878297  0.6682961777021602  0.5927511868005245
  0.0824055661786524  0.5973415769687990  0.4884869006785412
  0.0882877063875742  0.5747224025409049  0.2557491100520577
  0.1547922572678419  0.4895929543182948  0.1397278030128220
  0.2271154512595847  0.5690536999034688  0.0138581615434186
  0.1700026983380185  0.6235894628996101  0.9751470725261836
  0.3060827506296099  0.6178713059316403  0.7456961254030195
  0.2365072492182859  0.5440792629839027  0.6364863289263206
  0.1644322711529255  0.5016165384293236  0.3720570249663510
  0.0843970660531154  0.4143420086198104  0.2552795609801551
  0.2305962466923427  0.4134332852962518  0.0327681832573194
  0.1732756850882235  0.4623992543160249  0.9737140331508962
  0.2432090792306106  0.5461810720315889  0.8661629035255939
  0.1721211924073750  0.4612123503832137  0.7507514004758425
  0.0780646736986625  0.9174532767227320  0.4642349960167604
  0.0915491482109707  0.8878115873590391  0.2385343434289230
  0.0745434710220752  0.8659713186370523  0.0085406707551179
  0.0800908083535513  0.7376002401539562  0.2442177166109141
  0.0874680165841721  0.2242766527958058  0.6563598409436058
  0.0145213965447710  0.1445253630187461  0.5471134562275378
  0.0879067238028943  0.2249071955101118  0.4372267773225116
  0.1622906872299517  0.1573154892530484  0.1191835066071043
  0.0954340160820254  0.0674755160470946  0.8729012376093928
  0.0998326331960575  0.0683471486227527  0.6639945868919460
  0.0878259093152351  0.0719449511690862  0.4395257383628666
  0.0798310475003604  0.0707580472362753  0.2189352432069057
  0.0179329224166779  0.0059357834891045  0.0988221513982318
  0.0165821659800852  0.6280588980216020  0.7448850860970058
  0.0174999876613597  0.4560196456771654  0.5318988466899108
  0.9554502488263646  0.9807239108494049  0.5875983430893840
  0.9708511811888815  0.8967566393943391  0.9527367759126447
  0.9045717563813792  0.8180809813063893  0.8206227415909249
  0.9756076910339760  0.9037853361214547  0.7137972787131088
  0.9696851435812245  0.7460878396318184  0.7016133950032173
  0.9722077100888781  0.7443569380631356  0.4807118998126197
  0.8995497132196888  0.6708245303507004  0.3573485527399957
  0.9792847502224779  0.5829194578268813  0.4895113713808742
  0.9820208978760889  0.5761133055871679  0.2490717563672076
  0.9705336957016483  0.4209565253287053  0.2528037567828499
  0.0197050686817798  0.1448777251237992  0.7675454023462331
  0.1607494395010193  0.7733371757559392  0.9573529921130393
  0.1021820258015839  0.2189046761415724  0.8708096099254624
  0.0867406861952378  0.2238253820296849  0.2189840275260644
  0.0856727804654529  0.7133676181923968  0.0108640239550522
  0.0914914235769284  0.6938455212141816  0.8548693336403496
  0.0208306990456070  0.6831757494015156  0.5938915202608595
  0.0163570399073197  0.4919234896446999  0.1386667440711196
  0.0829481777386510  0.5613450061315136  0.0247126725562350
  0.0218870598485834  0.6168822193209643  0.9703784053284186
  0.1624061364980367  0.6246960035453039  0.7456595371636506
  0.0894710613854440  0.5426759963550063  0.6377059369052885
  0.0181060963188051  0.4967267414977947  0.3784233786165644
  0.0873410223892787  0.4052980479234427  0.0306460653739146
  0.0296279332736712  0.4634687042138181  0.9721102486585532
  0.0919185858688425  0.5427254506855400  0.8529667451931590
  0.0145444863983879  0.4687046814590836  0.7486597727919121
  0.1660370159793046  0.4637407030317540  0.5280021991971076
  0.0885647846309779  0.3751803606283620  0.4274699134907670
  0.0320119606596229  0.3014872263416919  0.9877456229489242
  0.0967732275918096  0.3792170703581830  0.8668702761533955
  0.0155777573477470  0.3030388559621898  0.7615571271694999
  0.0887495034599137  0.3872410354872911  0.6473896242582956
  0.0144001748132820  0.3023341317520832  0.5445156912323358
  0.1622041002788881  0.3038795795812644  0.3219189409509721
  0.0291026391038854  0.1487660718620189  0.9914593292448823
  0.2233575775834234  0.8786687180016038  0.0107847494364192
  0.1547691674142250  0.8083384781912316  0.1240741346027663
  0.2401150388459369  0.8877064969066547  0.2359975588326692
  0.5383955403333134  0.0669315184112229  0.4327386199599091
  0.5341470072677912  0.0744609402349930  0.2094893794097975
  0.4575868251373351  0.0071597781698159  0.1038652303912651
  0.2136194318204681  0.9922096791158787  0.5946476772078196
  0.3043625565351459  0.9741032123491931  0.3416217078512020
  0.2368997767297742  0.9046136961578956  0.9450166574057769
  0.3264306841295616  0.9735283057567379  0.8236778595782400
  0.2999985742015391  0.8481430324796194  0.5871287940174812
  0.3795604373022013  0.9091264038191043  0.4618262702582982
  0.3053958274845054  0.9563120169396607  0.1086521917087148
  0.1628217538631419  0.8282747551876678  0.8159394469516874
  0.2344118450025463  0.9151165596050100  0.7137850826333192
  0.3074219621393942  0.8196140655529368  0.3525676894624406
  0.3868106513379286  0.8917061158885755  0.2465349717709538
  0.3028848059036602  0.8021875958310911  0.1205616636233381
  0.3054131448747178  0.7641077613200695  0.9608776591722571
  0.2349429116357366  0.7516823607734537  0.6956190217865890
  0.2280448178676677  0.7500009135353047  0.4832608804886627
  0.1664988130516437  0.6599260322593156  0.3734168878629005
  0.3803512647885824  0.7382060557029950  0.2474130895158109
  0.3078491244313079  0.6519762486260082  0.1390509205844948
  0.5352322303877889  0.0689838731283754  0.6416086824379864
  0.3788215619864584  0.7157537896406523  0.0127971026017166
  0.5359884230937443  0.0644649836758499  0.8696082960661787
  0.4572924295037188  0.1471588061196706  0.3211444898843276
  0.5264927207937670  0.4041235075732650  0.0293227907167345
  0.4542445688262789  0.4550491044404397  0.9616338161192173
  0.5312723204924790  0.5428429047205576  0.8555401180287818
  0.4632034320296620  0.4585541801170223  0.7468669490628288
  0.6147710036348337  0.4709177627504708  0.5281119639152149
  0.5311510987609900  0.3885330298724865  0.4285187763526793
  0.4591569351832888  0.3394866975655962  0.1411608423881094
  0.3807322473732623  0.2471307352937354  0.0205721034676382
  0.4631168450785983  0.2945203475277436  0.9744153077388031
  0.5352495477780014  0.3886628474901376  0.8590830792076843
  0.4613273814232835  0.3068282940393418  0.7489036943877055
  0.5351283260465124  0.3937504617438017  0.6388462703656238
  0.4546313238743633  0.3118046360493049  0.5383078866193882
  0.6051425346765587  0.3160947992231114  0.3146744695559016
  0.5335928507809841  0.2304955348604305  0.2234843809684566
  0.4686237751662451  0.1403093813407401  0.9812146222215503
  0.5406121662805419  0.2333453406574403  0.8658945897702212
  0.4652180217577423  0.1519126036422315  0.7533430674311495
  0.5352841825584268  0.2340191559109632  0.6420477413104152
  0.4618815379100906  0.1543482294210209  0.5344966116851130
  0.5373622693839538  0.2359540565930980  0.4285736587117330
  0.6033703884114567  0.1683005324228675  0.1128964274755239
  0.8930095121826833  0.9747399368548156  0.3253948236910313
  0.3859678716809093  0.7013749430379518  0.8427647244490910
  0.2299785931080889  0.5839209080201905  0.4857305866460732
  0.3191573802402173  0.1424606447189601  0.7563615971790957
  0.3799356474234771  0.2263351893042750  0.6403768783792290
  0.3077509925534358  0.1459719021868595  0.5453572207378240
  0.3843631268545302  0.2258777367468374  0.4336045416249766
  0.3093788272334318  0.1505649731351857  0.3306147458410148
  0.4577888613564837  0.1607834741817308  0.1207568008999730
  0.3877631077996285  0.0792518285054544  0.8694192568294390
  0.3868626035085669  0.0618933584880927  0.6500544676923405
  0.3810728227141127  0.0658311595568461  0.4315190119809408
  0.3862680397779300  0.0746711211397616  0.2119224973278390
  0.3105102300606634  0.0016888928545150  0.1017736027073347
  0.0764657013356874  0.9890755109182995  0.5842871074264857
  0.1591331497478317  0.9793206442205085  0.3378287270366114
  0.0811702590101447  0.9009231667418112  0.9445654024535588
  0.1609457032567635  0.9777133784781603  0.8285623895340074
  0.1587059874559176  0.8331707339105133  0.5808478129257958
  0.2328936871272309  0.9097754919073604  0.4598017210132115
  0.1609976554274017  0.9691330521305469  0.1225435265891616
  0.0185043962936975  0.8224082352280963  0.8232570948254964
  0.0916876873326725  0.9138554741763986  0.7021622185937529
  0.1617538481333571  0.8209987868078833  0.3552142387768017
  0.3909148728183445  0.2295744479542385  0.8627480011844834
  0.3162365137576709  0.6682961777021602  0.5913730297842903
  0.3168426224151162  0.1530500532445087  0.9744275038185928
  0.4571481179186125  0.3087075585996260  0.3273888827366441
  0.2327609204689330  0.5800943791951383  0.2598835811007595
  0.3104813677436420  0.4903965871894690  0.1401912540448297
  0.3892870381383485  0.5605042825124390  0.0234442802581081
  0.3157343094415020  0.6180134871319249  0.9662927185988754
  0.4532401601939412  0.6187923928378321  0.7415677523942125
  0.3791736822541170  0.5404196425244019  0.6395475449535304
  0.3144759124193773  0.5094612316102467  0.3728497701526802
  0.2333497117361659  0.4275339512897000  0.2559625414483773
  0.3768646968924204  0.4001238885913445  0.0218953781248187
  0.3163808253427772  0.4593021768663459  0.9713967779908570
  0.3848422413170826  0.5372792925355059  0.8581317849840893
  0.3185108643389420  0.4678515942573757  0.7503916161220466
  0.4590876656224376  0.4655272407222873  0.5233493947573444
  0.3807091575196453  0.3888173922730558  0.4177679320180756
  0.3140487501274632  0.3298616484854563  0.1386240577918561
  0.2274040744297970  0.2476870965122406  0.0186512209007633
  0.3191112005329834  0.3070941110659610  0.9785985631066636
  0.3894890743574966  0.3835566878625234  0.8506068037538558
  0.3086861316249228  0.3086210135211918  0.7439520859930949
  0.3851308644872943  0.3862086763373981  0.6373217603919138
  0.3073469201151390  0.3131213575997671  0.5411190830109095
  0.3841033660013393  0.2330238875089707  0.2232831456519267
  0.8041713003914051  0.9779173775916120  0.5686700272557993
