Cu
 1.0000000000000000
     7.6685730419681093    0.0000000000000000    0.0000000000000000
     0.0000000000000000    8.8549054201611881    0.0000000000000000
     0.0000000000000000    0.0000000000000000   40.0454546774459672
 Cu 
 144
Direct
  0.1688493662418986  0.0814980371854796  0.0004089597350816
  0.8836942260389697  0.6665716364071662  0.3647151230598391
  0.3807833239199714  0.9172567643040769  0.3643410783118852
  0.7174326158062235  0.9178788588041850  0.3652362300571277
  0.0522515815318207  0.9167878728083111  0.3646501576593392
  0.2156486248908042  0.0006791989339676  0.4172189126109840
  0.5480321964346854  0.0003859842873698  0.4167932143906611
  0.5488917988329861  0.6649136568246561  0.3650949254660389
  0.8827249723766534  0.0002548515819808  0.4168215500465086
  0.7148279501241181  0.2507954518373632  0.4167354901322605
  0.0478033178245775  0.2521850635564029  0.4173667519875870
  0.2174883403669660  0.5010999574732862  0.4167901663700604
  0.5513889074547199  0.4979409462694259  0.4169477090010823
  0.8812472176787730  0.4992305627493451  0.4172814268159432
  0.3835212862099431  0.7489169113387486  0.4165787313706084
  0.3859071879643994  0.2478192189175269  0.4170320731635085
  0.7147114623037458  0.7510097038695801  0.4170733579568868
  0.2184532238023005  0.6654009459143487  0.3646166490480451
  0.7154145004959734  0.4180907206262887  0.3653199129970631
  0.0519018838420070  0.0840113223733117  0.3124589280787352
  0.2164571768803568  0.3312662795183275  0.3128586597544598
  0.5523924182267511  0.3318030213084054  0.3124807251863682
  0.8824271703911328  0.3320769660360666  0.3127269784893569
  0.3845189295752930  0.5815710990947889  0.3127015415535726
  0.7159494692931525  0.5835491482980378  0.3128432781131807
  0.0479883667427291  0.4147201430505312  0.3644856784510567
  0.0475509173527170  0.5852117361671547  0.3126760546688940
  0.5503449090666924  0.8311176518239330  0.3129326465386028
  0.8857836665110931  0.8334395549371248  0.3130191589323160
  0.2148628617259500  0.1654954561435041  0.3644953323371048
  0.5476650846222690  0.1681875030441784  0.3648961837386387
  0.8820718745466681  0.1671231840434210  0.3646567069197357
  0.3810965678782600  0.4160998390015385  0.3646176160723776
  0.2189006614159513  0.8353004803231969  0.3124194023518351
  0.7164615999249606  0.0830866504037679  0.3129239475489130
  0.0483152878890885  0.7491077086502089  0.4164950778460456
  0.7182622697180131  0.0811177978716563  0.4692320007834537
  0.8825975040616307  0.6662100458448672  0.5208162412910298
  0.3844155952222307  0.9175715340585702  0.5214377662884639
  0.7183064407460079  0.9181745101970248  0.5211973689316212
  0.0519622311592652  0.9179746073491554  0.5216535425615352
  0.2180434366313494  0.0006325249109734  0.5731730283400389
  0.5478871128338685  0.0003669597810014  0.5729528613933518
  0.5522562663897433  0.6673317377297568  0.5209928219198828
  0.8821067763728450 -0.0016248892973835  0.5734412279407447
  0.7145379897740307  0.2504874417809916  0.5735774417565384
  0.0511223904255999  0.2495502052838880  0.5730612958707167
  0.2159830587803534  0.4996686866501535  0.5732515687572949
  0.5477289487354717  0.4993398822410505  0.5730594447432676
  0.8814698656170359  0.5004485127161178  0.5735302516329840
  0.3815374848977263  0.7489462064947090  0.5730313142548706
  0.3822277612655519  0.2515877500694920  0.5731754106095905
  0.3835182679881521  0.0833402961229337  0.4691932795025955
  0.2171008945398776  0.6664314247428229  0.5214102123470112
  0.7165535957273135  0.4160690445984926  0.5208946835097862
  0.0509350105428978  0.0815781814543915  0.4695618469598249
  0.2176688185684776  0.3352691344702917  0.4691762202141884
  0.5501321332458518  0.3331891550659651  0.4694692375142751
  0.8820316434558972  0.3311315277328153  0.4689466921448431
  0.3814104192250919  0.5822818111987640  0.4686235699033465
  0.7161180186968115  0.5822432469563910  0.4693466230186171
  0.0481869296175398  0.4165221669559557  0.5207550544572858
  0.0485694465324694  0.5854848434767316  0.4688950548275297
  0.5498420119568640  0.8336939937032434  0.4695485279587963
  0.8858937457007051  0.8326286206261780  0.4694491749010237
  0.2147515464554235  0.1668041060797790  0.5207106544450821
  0.5520686337755329  0.1645430561759788  0.5210638964971875
  0.8829340007655010  0.1648186922809838  0.5214002853487806
  0.3854818675137421  0.4159148761783075  0.5209150674386275
  0.2183823515305920  0.8348529869612413  0.4693880224816686
  0.3852279365999713  0.0815861388838864  0.3122516720162815
  0.8318952823777289  0.7515346380516521  0.2604798589028646
  0.5018963602751886  0.7512483265382502  0.2601440054361356
  0.3318427669646344  0.6675721757197463  0.0516268332645992
  0.6664285721457035  0.6667087709244521  0.0520246290628986
  0.1672863855020395  0.9149494623360745  0.0525599664878127
  0.4997564093836879  0.9152675575607967  0.0524619980436981
  0.8352811561283853  0.9156493108091422  0.0524638251176362
  0.0008007860421930  0.0019025323414902  0.1046822773176710
  0.0000909919328311  0.6669770671621210  0.0518903461999707
  0.3315763944451958  0.0012316298134669  0.1040730057469743
  0.1653867746871197  0.2494949336434052  0.1046313933544802
  0.4989785103038420  0.2498613645367106  0.1038491363601449
  0.8319742780254541  0.2521607777800071  0.1047033266341715
 -0.0009620927361049  0.4995472798297194  0.1038315120729019
  0.3358491320636242  0.5007383118594274  0.1037974334142152
  0.6656855465410257  0.5004416878515533  0.1038806710243395
  0.6679200784406810  0.0019292711998834  0.1045699148456006
  0.1666002946794617  0.7489595837811202  0.1038380911919420
  0.8340351096423861  0.4174452045171085  0.0523118920229664
  0.1654531874881828  0.4149795392195782  0.0526160929517487
  0.4977434288874837  0.0839561763072341 -0.0000065359741652
  0.8358991485848563  0.0821074808114014  0.0000188561030433
  0.0005584282502267  0.3312455411369097 -0.0000042244590737
  0.3329822088710797  0.3334830226436892 -0.0002949092735454
  0.6648034644435987  0.3351432765533707 -0.0004673469683222
  0.1664963484433822  0.5837464550167707 -0.0002025760147048
  0.5004138745110794  0.4160146669299160  0.0521100332373920
  0.5013227598227372  0.5849615660135188  0.0000134751509515
  0.0022618296247531  0.8349620597504512 -0.0004262050634177
  0.3311751722497145  0.8337713009719253  0.0001648778232357
  0.6674655611571371  0.8316571275616185 -0.0001172281260394
  0.0015305744207415  0.1645155399141303  0.0518491949842421
  0.3317660117659262  0.1682065970109712  0.0520894590740193
  0.6669115919512270  0.1655451068042661  0.0522992070516907
  0.8349658709298036  0.5851426530987277 -0.0004525222786462
  0.5019629803306160  0.7506295741537374  0.1040960152823575
  0.8338735051252599  0.7499315065159594  0.1037648875431167
  0.1686855362765547  0.0851690665433088  0.1565892489280371
  0.6657345085982875  0.6646930861698322  0.2084624975360753
  0.1671056904499787  0.9160394537971699  0.2087946047919324
  0.5015870932188942  0.9155502805276273  0.2088921121185627
  0.8313463499787034  0.9164701236331640  0.2085013374379317
 -0.0004985597081927 -0.0013216243722105  0.2603796326733669
  0.3343856950785453 -0.0022444682730493  0.2600974519670712
  0.3338025860873190  0.6674862361904904  0.2085865764624227
  0.6688877277091081 -0.0019620107303131  0.2602033516099226
  0.5025571437463645  0.2505543137652700  0.2601578601769542
  0.8359114319938425  0.2517168919312958  0.2609528558510370
  0.0008488216477800  0.4978867327906953  0.2607623306786530
  0.3355551244507625  0.5015036959811672  0.2606866002812150
  0.6677661577671405  0.4983038283360581  0.2609369724874567
  0.1675585786972377  0.7517113286598437  0.2606403865127787
  0.1691324326217402  0.2505815235755618  0.2610035508811632
 -0.0020691550217971  0.6673965447267587  0.2086487521841601
  0.8331132499913486  0.4148649580954953  0.2087949392844120
  0.4999302536580590  0.4186683297537975  0.2082367130334431
  0.5023569186854610  0.0831188289945993  0.1567997039398265
  0.8335135969382544  0.0836911862171272  0.1559537054073027
 -0.0009858676198433  0.3344353734212178  0.1560217672087897
  0.3312866630911686  0.3315792513305867  0.1564640756041168
  0.6646434042012027  0.3338211775595606  0.1568515953796847
  0.1674556598621293  0.5824704096929625  0.1564809622669710
  0.5013230650063106  0.5831599542012065  0.1558671500013958
  0.8310531265519738  0.5845221387113695  0.1560926705047517
  0.0006539094842053  0.8310755466691285  0.1566235136897391
  0.3311138969353311  0.8315149737002649  0.1560920258762736
  0.6673432653408427  0.8333642720931542  0.1565270733913310
 -0.0014931376455107  0.1659845162524790  0.2085821136240915
  0.3311588879878535  0.1651060036366470  0.2086932201730624
  0.6663130824142128  0.1667219688301943  0.2084918446609777
  0.1691596316338492  0.4175497021149185  0.2080157596243048
  0.7155263633923818  0.7500417704355798  0.5731519840496485
  0.0477456471050711  0.7509865539351724  0.5732738593478608
