Cu
 1.0000000000000000
     7.6685730419681093    0.0000000000000000    0.0000000000000000
     0.0000000000000000    8.8549054201611881    0.0000000000000000
     0.0000000000000000    0.0000000000000000   40.0454546774459672
 Cu 
 144
Direct
  0.1658347808773605  0.0811322184278073 -0.0000294095954360
  0.8008706594623494  0.6672342905031631  0.3652143234440169
  0.3008358939090459  0.9150375747402111  0.3649606013120770
  0.6350914376722969  0.9177490897558300  0.3648598502148009
  0.9656002953259031  0.9173256661718833  0.3646286999955336
  0.1332411029787177  0.0009120628937267  0.4168221084184483
  0.4677392939454861  0.0022092623780113  0.4172173162058183
  0.4642485451020424  0.6667790149740855  0.3648413933379856
  0.7980567213929518 -0.0018984925178963  0.4171957935839419
  0.6341314072323269  0.2514650679588898  0.4167158982143460
  0.9658648389925976  0.2494218213595983  0.4165548225048818
  0.1327722064949443  0.5019402491677311  0.4173923279253058
  0.4643348082273556  0.5006849556307984  0.4167398709039520
  0.8000858465505006  0.4990162834671202  0.4174034852660834
  0.2995638263120097  0.7492059722897128  0.4170514928413633
  0.3022941075231135  0.2522349620667604  0.4173201058992295
  0.6321451933880149  0.7487203512278002  0.4166446508633040
  0.1314844882331236  0.6659816088815156  0.3644732564930219
  0.6320568316183366  0.4183459290921235  0.3650220607600776
  0.9664548136693996  0.0845824077407192  0.3127398896340977
  0.1308851052051400  0.3336490055411270  0.3128751707371323
  0.4691494086271958  0.3323796192104768  0.3124155007936779
  0.7988388647272119  0.3355788088281749  0.3123063347506367
  0.2998865689649871  0.5822206112909305  0.3124086003242464
  0.6323731821740194  0.5851416757101838  0.3123242397615213
  0.9682545705353247  0.4186810314263846  0.3652610435976709
  0.9658966212508565  0.5815316586108575  0.3124395153039301
  0.4651852426363302  0.8313056971876082  0.3124474520302952
  0.8000570085792050  0.8321851675746772  0.3126965510733365
  0.1337044652481603  0.1663559712031458  0.3646204642061792
  0.4674403615521090  0.1674891455053110  0.3650032178419012
  0.7982330277863453  0.1672213680002148  0.3649911164736908
  0.2998859699839009  0.4167045519840527  0.3643542010598395
  0.1318731360958518  0.8314975672539949  0.3127145613963577
  0.6351248933872460  0.0822578439122543  0.3127241369489957
  0.9652012847207317  0.7493859494703753  0.4165319383491169
  0.6327642643661260  0.0821778865971157  0.4692396100751802
  0.8006023705373320  0.6644114551688072  0.5214855979501510
  0.2991498880705781  0.9185457192972503  0.5213972325267205
  0.6348715490198146  0.9149987376145222  0.5213880182631557
  0.9681172992319746  0.9153409500983217  0.5209038846390167
  0.1307987894612155  0.0019782709555924  0.5729089622567899
  0.4658022221736138 -0.0002577819304726  0.5730386541454887
  0.4678393468500309  0.6662104269865384  0.5207326681886497
  0.8002782007276218  0.0006568522887227  0.5730662353853151
  0.6352581834800266  0.2477573075674684  0.5731645364611151
  0.9643256527005410  0.2488430885234276  0.5729824567163188
  0.1307292066711807  0.4980034011899802  0.5735472691749428
  0.4671837718737939  0.4977910019067670  0.5729641606233244
  0.7980429065489851  0.4983959629512482  0.5733164332539337
  0.3013820830592204  0.7507556128631139  0.5728383654970004
  0.2996990147013894  0.2486405923010656  0.5732113479879247
  0.2980103176325530  0.0828688817147152  0.4687224687469137
  0.1357239616813324  0.6678924508850967  0.5215910186429358
  0.6357307254609513  0.4188269505324904  0.5208953767264564
  0.9690607069302601  0.0831612369398102  0.4693510858549489
  0.1349244397694106  0.3321463827063102  0.4693954612920891
  0.4657601686569310  0.3323665583696965  0.4691160937007337
  0.8012225599669522  0.3328524043641597  0.4695364256870682
  0.3010681971768429  0.5851178923285097  0.4693645805012602
  0.6354689566676626  0.5810907859726921  0.4688669163272710
  0.9653517839873323  0.4176896894602282  0.5213699719607202
  0.9683784513009569  0.5822351238379130  0.4695079295357245
  0.4651283652919131  0.8335325640730757  0.4695475646122448
  0.8015882969506398  0.8348028658652270  0.4685727301704402
  0.1315952473671910  0.1675212657357622  0.5207791307141584
  0.4641457760234267  0.1665978282534744  0.5212304723142510
  0.7993749205737259  0.1645778732726022  0.5215849111525898
  0.3018272995620836  0.4168617360294771  0.5216648815545818
  0.1336642643029290  0.8317132849371275  0.4691403437457349
  0.3000884952191761  0.0838827384511379  0.3125523756424280
  0.8336692247231403  0.7483590803902448  0.2602421886429813
  0.4997507076104078  0.7511095175130186  0.2606209567342044
  0.3358388944606838  0.6670853121899677  0.0525701334975264
  0.6643923339612799  0.6646222016931079  0.0521137351413423
  0.1648301573786780  0.9182199610098779  0.0517462852663863
  0.4991419963168600  0.9152448389717194  0.0519249527284582
  0.8318034697840747  0.9176480330293754  0.0520653174847856
 -0.0026054985297207 -0.0007057160362895  0.1041964276057860
  0.0019848848796485  0.6666430828325272  0.0525995692873372
  0.3340177149601012 -0.0009322810025033  0.1043875682648718
  0.1688947532696416  0.2502718857093828  0.1038288554685668
  0.5000926900457714  0.2517093582084090  0.1045377450998966
  0.8336312104175458  0.2483784955218571  0.1045718727401389
 -0.0018755480562130  0.4987584023242829  0.1044487356835889
  0.3346525037885504  0.5008752595832302  0.1039747635247733
  0.6688355169638992  0.5001707557241769  0.1044330123404802
  0.6677922964252722 -0.0017371970056596  0.1037509882857904
  0.1641388023658704  0.7483831999653057  0.1040889974169495
  0.8327544386596554  0.4162625254198801  0.0525326163925146
  0.1659376477071947  0.4179325934961570  0.0523867110272389
  0.5011917665557863  0.0814106400854279  0.0004211874684556
  0.8334988356087316  0.0838049776166985 -0.0000270275335149
  0.0025186880617601  0.3344937150706948  0.0000258996424422
  0.3358278520301020  0.3353774735204387 -0.0002325856283229
  0.6688566484907402  0.3333053454771653  0.0004946590672607
  0.1678916038466343  0.5831988984180141 -0.0004676925039043
  0.5007961863508044  0.4173799583331398  0.0519979349879558
  0.4981948404211818  0.5839366717863833 -0.0002965700539344
  0.0016726715280013  0.8323168190259151 -0.0003452348941136
  0.3319067341411336  0.8316828384297185 -0.0002128546144272
  0.6678365265339040  0.8339474631382698  0.0000507586589974
  0.0001296573669810  0.1669836109697027  0.0519436754403874
  0.3319050755503477  0.1668021606776440  0.0526091685401784
  0.6646563971955612  0.1665219093341743  0.0516957096455700
  0.8331322127414164  0.5842062171585727 -0.0004703319519729
  0.4978264607837422  0.7482918801779535  0.1039080917610514
  0.8339929497695709  0.7496118196416450  0.1040172939402164
  0.1651898873597499  0.0855162087090077  0.1560563112430343
  0.6653585978448758  0.6682226113564935  0.2082619694476955
  0.1691884852851494  0.9151711562865167  0.2088037823815692
  0.4979765646383486  0.9186788335248129  0.2087017377516825
  0.8345848694403560  0.9166002586215923  0.2079779062648796
  0.0001228309496171 -0.0003169641759534  0.2602632347016922
  0.3339648582167986  0.0010550052482470  0.2601002637966636
  0.3338577965112747  0.6671841678493330  0.2086666003575403
  0.6659022991487815 -0.0019949069263948  0.2610688561098695
  0.4986987617608598  0.2494726370975969  0.2603905740457926
  0.8335511773902501  0.2514232146031323  0.2608978056594620
 -0.0017830442977550  0.5018184163235027  0.2604500469755367
  0.3312592349310984  0.5004784013960858  0.2605489424345699
  0.6674313863560470  0.4984405876726525  0.2604669200567309
  0.1685238495712656  0.7512515497606315  0.2603195589661526
  0.1673558054854718  0.2516067018098347  0.2608747949889671
 -0.0007423091141960  0.6678802493186418  0.2081104666137533
  0.8314782050569418  0.4145113131465838  0.2080060921673558
  0.4982627784524581  0.4170228613546816  0.2086601209560043
  0.4985908351937801  0.0811994575791243  0.1560223009191707
  0.8314612037319001  0.0813610257942614  0.1565514212773906
 -0.0025737070466785  0.3314147934813993  0.1560047980582959
  0.3344184613851208  0.3347238227946449  0.1560900613184943
  0.6664909623712302  0.3323445021043251  0.1558924091065499
  0.1650393129666184  0.5829162356891341  0.1559973088275073
  0.4991180137928456  0.5855845627855754  0.1559219592392998
  0.8309334323918887  0.5854768163029886  0.1562760940708911
 -0.0020153100119926  0.8322551976882751  0.1559031153865233
  0.3316654631128063  0.8327651149181000  0.1559877963181263
  0.6644668096424335  0.8355595329705512  0.1568536674193377
 -0.0011173010565467  0.1667761791931147  0.2084826998630190
  0.3327416317578875  0.1678887519840535  0.2080218978382962
  0.6686635273410922  0.1669902932783310  0.2081570924267719
  0.1674780974323527  0.4170681910322047  0.2082768494498907
  0.6327066176223212  0.7505147293590343  0.5728792443077452
  0.9664737551176980  0.7499051687094067  0.5730811660206993
