Cu
 1.0000000000000000
     7.6685730419681093    0.0000000000000000    0.0000000000000000
     0.0000000000000000    8.8549054201611881    0.0000000000000000
     0.0000000000000000    0.0000000000000000   40.0454546774459672
 Cu 
 144
Direct
  0.1668194036709199  0.0832985038631856  0.0000205466448845
  0.9668910856423191  0.6645275965451918  0.3653125594097069
  0.4682684414317444  0.9176692450325747  0.3644452690363012
  0.8012697246730724  0.9180499674520065  0.3651554297250731
  0.1317657811207851  0.9164436525218189  0.3650243792238999
  0.2998740745836659 -0.0004421549782357  0.4167599423770089
  0.6311059850031363 -0.0022170830970472  0.4174306929963889
  0.6319074362597574  0.6681064970887307  0.3643735785588491
  0.9657005945395459 -0.0016438212756052  0.4167047870997573
  0.7994959720591976  0.2479387828802728  0.4165938949097417
  0.1350987297329570  0.2516774497067283  0.4169279790752839
  0.2976474882832219  0.5013355223209005  0.4173988342772689
  0.6341493744034320  0.5010323339792896  0.4171083461570415
  0.9666003553320759  0.4989531922298733  0.4171592395089652
  0.4663522801007175  0.7496812389450820  0.4166515585000939
  0.4663045659450369  0.2512691661330203  0.4168831936008852
  0.7990909233915208  0.7493661019758621  0.4165388314581711
  0.3012092106197477  0.6663600048176713  0.3643352635847087
  0.8021329957788018  0.4186755708073620  0.3651007128828907
  0.1322579713982668  0.0823972287857407  0.3124360871853979
  0.2993897801644092  0.3331423380075553  0.3129192185434069
  0.6331940513361810  0.3347257939393579  0.3122426001462365
  0.9686506838891571  0.3312660534133414  0.3126209169691022
  0.4692125112630557  0.5840965760570928  0.3127569265562620
  0.7998122925014008  0.5836020779143977  0.3126637226403891
  0.1329068092350233  0.4153159373248044  0.3644179835292641
  0.1317280748354809  0.5814370668949713  0.3130393596797953
  0.6333281095580979  0.8320432116771213  0.3130156899446169
  0.9662700654320920  0.8318188352336434  0.3130960503167464
  0.2984271566007798  0.1662411730733937  0.3648961575949755
  0.6317896436078715  0.1683847388917724  0.3648687920939709
  0.9645507343658751  0.1685554753251944  0.3643431354578870
  0.4679993249775191  0.4181312813676540  0.3648599159462126
  0.2977821549507254  0.8334988995977908  0.3131716258006052
  0.7983729374645009  0.0848798587917722  0.3127310383367583
  0.1350832869504427  0.7482418872845684  0.4168923756349842
  0.7997746103922092  0.0823768335952952  0.4693025006671483
  0.9689550602760961  0.6651444808424400  0.5212280318656498
  0.4674897888203139  0.9188083398811721  0.5216418978133109
  0.7988073770721019  0.9188169327952086  0.5216417560351971
  0.1323041006512620  0.9156116302267588  0.5210790308704130
  0.2994644689206533  0.0020391578935491  0.5731626544493585
  0.6311938790201954  0.0010385610402052  0.5728751967850674
  0.6317797884240641  0.6679069574792346  0.5209137432680571
  0.9676596766919415  0.0012443862011257  0.5737347805156012
  0.8019274544719138  0.2491881292944016  0.5733752315734316
  0.1331396222580511  0.2509586871904959  0.5733691186958080
  0.3002057503706229  0.4980848449780633  0.5728528730163833
  0.6322445126778214  0.4988562620515459  0.5735223916879417
  0.9666775919801082  0.5007798629647977  0.5735583209909109
  0.4660409238394594  0.7510221527098533  0.5731588117346260
  0.4642851503029325  0.2508477173965030  0.5731900255939959
  0.4650314560141842  0.0816721495165037  0.4687855498229074
  0.2985713689098670  0.6650530247140050  0.5213868477990179
  0.8019113966433880  0.4170358675727708  0.5206996279824032
  0.1351453650147550  0.0815212438365104  0.4694442401650288
  0.2979744307932452  0.3314529160538868  0.4691007394675051
  0.6337868055896831  0.3341766444159414  0.4688140947646209
  0.9687480694829896  0.3329184599677650  0.4694856734712928
  0.4657966389374432  0.5832023315624831  0.4691742486234162
  0.8000695161089254  0.5828316112690118  0.4687663732508201
  0.1323961619842790  0.4189055278519102  0.5216524635566702
  0.1335660412133935  0.5837613470076188  0.4694176231270192
  0.6349545278191657  0.8351299274758854  0.4694021978537542
  0.9659255948249116  0.8324968923498658  0.4686374041315888
  0.3025497469989848  0.1683955944030929  0.5214212461803374
  0.6345825873732565  0.1680240209058494  0.5209362632170883
  0.9675940211828432  0.1653751479617097  0.5214020422318201
  0.4686569392776241  0.4158176111370141  0.5209811075367478
  0.2974962736220427  0.8352586590377125  0.4691268081657343
  0.4663010702185814  0.0845401964775478  0.3123412658239070
  0.8334630112804018  0.7508983649225234  0.2609156614399017
  0.5005580935894725  0.7507762849194455  0.2604828272802296
  0.3312944816280673  0.6663237118085107  0.0520023983766799
  0.6667079531214861  0.6649905291566151  0.0518085069709928
  0.1655527456708097  0.9171205744094544  0.0520835974819807
  0.4978026537712150  0.9151000701141884  0.0524600560979280
  0.8343865247337007  0.9175468509666006  0.0526004614960086
 -0.0017270967504584  0.0020261799306705  0.1041575672756965
 -0.0020911335779627  0.6665933837008149  0.0526130688942600
  0.3355555623941347 -0.0008887446530457  0.1045216859416709
  0.1652684679589141  0.2522432097614588  0.1045563833205676
  0.4978226768494863  0.2513960885697252  0.1044052555989815
  0.8340915501385442  0.2504826243998224  0.1043895321666610
  0.0002446611489393  0.4981633326621826  0.1039582527974969
  0.3346371965569494  0.4988215777620543  0.1038203879735203
  0.6684733342256181  0.4994335927633243  0.1040738156356906
  0.6669874412169098 -0.0013677733157649  0.1041574176123162
  0.1666445727917760  0.7515925823395412  0.1039302064723142
  0.8328862832303040  0.4165344186657025  0.0526119029482199
  0.1644570225641515  0.4169389815088326  0.0521125940524650
  0.5000023131955030  0.0821480213168440  0.0003436893366706
  0.8307559824168531  0.0825173968582161  0.0002730823799618
  0.0012548835504365  0.3326210184558895 -0.0003074966803283
  0.3343277704993110  0.3332892675591184 -0.0000118328731469
  0.6651510272676873  0.3327796562242873 -0.0002369078451963
  0.1669956148110481  0.5828629288940852  0.0000240434006146
  0.5017608045007328  0.4144557170098766  0.0521106972834919
  0.5006766842971494  0.5840658220598688 -0.0002422106584291
  0.0022014615889149  0.8316562541754404 -0.0003579408937982
  0.3355736268966928  0.8345280483090038  0.0003833962320131
  0.6663526970891835  0.8333072346170008 -0.0000787043517385
 -0.0002980350677725  0.1651101998037066  0.0516680719525379
  0.3315652028871495  0.1667623792115228  0.0521594676383850
  0.6665064509543539  0.1654712139030555  0.0524687210097976
  0.8335139663833240  0.5833755542036352  0.0004390703597608
  0.5023787756852638  0.7521017329930501  0.1040727039043965
  0.8327733727358708  0.7509597571187153  0.1038918417796195
  0.1687687402142001  0.0845146352182420  0.1566859601605456
  0.6686152313649326  0.6688328352130780  0.2085895625269656
  0.1680894108502373  0.9167067351516779  0.2087272462233786
  0.4987916587270245  0.9149601251030722  0.2080369850950193
  0.8330747817425137  0.9187642372721911  0.2080203978156883
  0.0007102973589905 -0.0006929269061210  0.2605295676293609
  0.3345536751727310  0.0010878150342861  0.2604156931438116
  0.3345240718016755  0.6661242275209919  0.2084024790789726
  0.6658919012538316  0.0016651209756301  0.2609648208057840
  0.4993425537461687  0.2488132350702353  0.2604015861956377
  0.8340186717284195  0.2477529790541769  0.2607766903494049
  0.0019137780657507  0.4982454947497245  0.2607778629995915
  0.3353905387593846  0.4997132936991622  0.2608113416514283
  0.6667758045990481  0.4990574608866454  0.2608605616860486
  0.1683007935372715  0.7510696133855397  0.2603476213426939
  0.1655646366221105  0.2520833735365004  0.2608810806606705
  0.0011055640654504  0.6646903504937223  0.2089609466559173
  0.8314970983600662  0.4168779874657487  0.2083530426489516
  0.5004627984395416  0.4156930775760071  0.2089027896140466
  0.4976439474358419  0.0817527769669450  0.1562114800495183
  0.8311867991847129  0.0848611792226385  0.1562542721906006
  0.0022163615338134  0.3339547079261690  0.1566393901028184
  0.3350757344131940  0.3313752152342890  0.1562702329636395
  0.6677974476080979  0.3337144581148517  0.1565733373572626
  0.1681589572432113  0.5850103660224534  0.1559052007444390
  0.5010116223014245  0.5821050470117004  0.1566360884022533
  0.8316103745351724  0.5846880839565491  0.1568158725022081
 -0.0023420145950600  0.8315679786916718  0.1561026708097926
  0.3338104215700050  0.8338637631322419  0.1564615894990368
  0.6691757452684599  0.8350870693771169  0.1566877791278189
 -0.0021588193429815  0.1646381375516225  0.2086677533480583
  0.3313010506746015  0.1676887722809015  0.2088149909947679
  0.6686957646184738  0.1681428772739868  0.2080842473900555
  0.1679204537597760  0.4180392930250614  0.2087129901735140
  0.7976397719143319  0.7479144431751837  0.5731781277497932
  0.1321054577139924  0.7492348283589922  0.5735708366082974
