Cu
 1.0000000000000000
     7.6685730419681093    0.0000000000000000    0.0000000000000000
     0.0000000000000000    8.8549054201611881    0.0000000000000000
     0.0000000000000000    0.0000000000000000   40.0454546774459672
 Cu 
 144
Direct
  0.1659359071681303  0.0838169876403058  0.0001411447276161
  0.6689288123134191  0.8562568182802714  0.3646934650239770
  0.1688081548676743  0.1027281300670414  0.3651905018827914
  0.5013662835537178  0.1043689188853144  0.3652276403354847
  0.8347205078178573  0.1055198208679879  0.3643743491653350
 -0.0024318537430222  0.1887095452098514  0.4167262947717655
  0.3336897106892968  0.1858261430009784  0.4170495446562482
  0.3326245409306781  0.8528973953481801  0.3650069238350911
  0.6689720634276100  0.1853383928184305  0.4168688766456454
  0.4998494200029859  0.4354914488631620  0.4170907348407937
  0.8346611277854586  0.4356746381792289  0.4171182379833329
  0.0018077105235965  0.6889740340634011  0.4169355364932900
  0.3358430724762962  0.6883263906778906  0.4170116400838939
  0.6647880657424698  0.6894265906727892  0.4172340630148478
  0.1684530122436704  0.9386528679341541  0.4170775954397622
  0.1679240950798310  0.4357224710308941  0.4166641381855213
  0.5007186643601332  0.9382398862420164  0.4169531310725070
  0.0000602023246582  0.8533341987534206  0.3646971576561117
  0.5025522058442433  0.6033804438193018  0.3648196631568446
  0.8332495033982548  0.2707133631102429  0.3122968871557742
  0.0008592637672538  0.5195960887422045  0.3123944260137870
  0.3307992223555579  0.5186829881036028  0.3123430931861655
  0.6660884508402992  0.5227672501450426  0.3125780450035656
  0.1644283379591703  0.7722361517696265  0.3131485122633216
  0.4999478551101451  0.7721249377409177  0.3127974762932064
  0.8348206277376450  0.6060367118098948  0.3650738679026526
  0.8353635324532768  0.7706467901578863  0.3126700264220955
  0.3348051815977117  0.0194877369239511  0.3122700405655091
  0.6659035925093036  0.0200101845899141  0.3122862063974029
 -0.0018422078696894  0.3536245632538817  0.3651693610838753
  0.3343184464293364  0.3556167804429524  0.3645505550028325
  0.6668655048050713  0.3520810773526580  0.3643419876799963
  0.1661534914022158  0.6049788900736447  0.3647101230235213
 -0.0019534198822429  0.0219129957354700  0.3124877734228009
  0.5022739377261757  0.2729014398927774  0.3130658651559806
  0.8320766621244878  0.9372208535236529  0.4168085840911425
  0.4995858591531735  0.2700727969067224  0.4691982740117952
  0.6677475728285305  0.8544466767822629  0.5212786444063626
  0.1669774779305962  0.1060323058091082  0.5215884606181648
  0.5016122425015613  0.1057541373415626  0.5214934530149778
  0.8352937998001325  0.1033081459532324  0.5208937318338878
  0.0002235670413122  0.1884866455300764  0.5735806315646481
  0.3358866991201356  0.1883648186423516  0.5734520561731670
  0.3334706692237376  0.8549384451712810  0.5216665038380232
  0.6663075402425997  0.1882761811949501  0.5737565906173054
  0.4979106446350078  0.4353453899656516  0.5733502837824154
  0.8307372381528059  0.4394636472793401  0.5734312143147305
  0.0009357450385847  0.6886918639084384  0.5728118501142059
  0.3350084228747713  0.6875912982047849  0.5735214778698685
  0.6677524591208762  0.6877521169864066  0.5733816534276759
  0.1679287006242750  0.9391982187554818  0.5729213610004656
  0.1663341578861689  0.4361372858577109  0.5736809100432512
  0.1661764237420300  0.2710370863855729  0.4688023578597261
  0.0006736488335688  0.8550430945644665  0.5215728360682177
  0.5004014399617075  0.6041970553895392  0.5212942248694479
  0.8330032108625604  0.2724378219517380  0.4693925462838964
 -0.0020443830784846  0.5199043980825445  0.4689318812994536
  0.3354083100417752  0.5192584376703117  0.4692083005555548
  0.6684353385993284  0.5221049749190054  0.4692903958227810
  0.1682330006742540  0.7698204608580533  0.4695336919184037
  0.4982104301667153  0.7707671521619418  0.4694255642658133
  0.8307587717203633  0.6028215345025552  0.5214307916779731
  0.8311202583390311  0.7690119179250653  0.4688017575061147
  0.3331717122429858  0.0209796522732465  0.4689868995834019
  0.6672489214955259  0.0206290275288366  0.4695438310338368
  0.0019315963665270  0.3523100302179153  0.5211884024835818
  0.3349607179633541  0.3555304614299136  0.5207466505567880
  0.6661249681220515  0.3523030445744030  0.5211182501357172
  0.1669896220397562  0.6048833135173343  0.5213065823379109
  0.0011105189767898  0.0193101031171992  0.4693152933506656
  0.1686038224737142  0.2724494097195954  0.3125613576477841
  0.8320701752849391  0.7514787953879158  0.2608906904664997
  0.5005150279627784  0.7509505131162978  0.2605547357618722
  0.3313571524842635  0.6687008062678003  0.0522937538589268
  0.6690517763212893  0.6669356106361117  0.0519399064887083
  0.1661174723443603  0.9184698228859652  0.0517530280111103
  0.5025037955193922  0.9175155337528044  0.0516818457180774
  0.8327350705491877  0.9171180392602132  0.0516500646928060
 -0.0004454232154167  0.0010488467832782  0.1043868599577313
 -0.0018162616185644  0.6667145619841628  0.0521211668229705
  0.3359072450829983 -0.0012201390568551  0.1045111876022274
  0.1663312941348738  0.2505904305478900  0.1044464811717254
  0.4997572635479121  0.2508374242578589  0.1041057333959529
  0.8330421264742881  0.2513929418515912  0.1042031241735246
 -0.0002661476603387  0.4997289940018589  0.1042213590939836
  0.3328113134863058  0.5018573888712523  0.1046256667022369
  0.6653888791042341  0.4990974660482533  0.1045470627865708
  0.6659110103163604  0.0001190547250632  0.1042614237443496
  0.1656913452791483  0.7490139102699430  0.1041697264985481
  0.8311270397742310  0.4188890513587782  0.0522983956438365
  0.1686980832900559  0.4164117751436264  0.0521728188534462
  0.4978767121690393  0.0812124274952952 -0.0003529909660315
  0.8325583784211271  0.0842090786539764 -0.0001872723285833
 -0.0009155343886376  0.3322341029949433 -0.0003714404405276
  0.3356415206400042  0.3343233759390294  0.0001992249598356
  0.6676380408508616  0.3337759640391131 -0.0003555073124474
  0.1683315588597779  0.5848845072062971  0.0001234936323142
  0.5021376982631709  0.4180781721457427  0.0523365258762511
  0.4984808327106341  0.5840253725377662  0.0003936612809171
 -0.0009918744042026  0.8346687018582736  0.0001303109385641
  0.3353437967370642  0.8355442454172166  0.0004766996550916
  0.6655388741578742  0.8322348832063934  0.0002878287292945
  0.0015842581195426  0.1678538102357351  0.0522874117541997
  0.3309254979411241  0.1673795187092362  0.0518480712030032
  0.6650095114323525  0.1650703827694555  0.0523207518799615
  0.8357808730419195  0.5822540644227107  0.0001443366455815
  0.4996892405611983  0.7482663698390050  0.1043904809701067
  0.8310974058006221  0.7478468075070009  0.1039693753760261
  0.1672836837662303  0.0832836472996957  0.1567132351028429
  0.6684248304389759  0.6651427588936877  0.2080846927007271
  0.1655352824582573  0.9161718663556658  0.2089625847956279
  0.4993592106957417  0.9170592941375164  0.2081545952979859
  0.8348428789139248  0.9156818138859367  0.2082057893910857
  0.0000222518595469 -0.0006154653269745  0.2609009418833238
  0.3319085031910518 -0.0000069642036681  0.2604182274940504
  0.3316403327521804  0.6654697805897494  0.2081344711020111
  0.6690179253648556 -0.0020470577974739  0.2601664213608929
  0.5012399092624497  0.2518887091550594  0.2602335657882252
  0.8315845468356141  0.2513982128834530  0.2607994929608319
 -0.0013857702153179  0.4994809193303376  0.2604180996106673
  0.3337878449285833  0.4980558870979341  0.2609616716391159
  0.6667873818955766  0.5016454412734974  0.2601838420476237
  0.1652231323750439  0.7485519361906118  0.2602817189134743
  0.1670896832527095  0.2481436342202088  0.2604458933133045
 -0.0019561372654630  0.6675238178753888  0.2086150928146278
  0.8310642857193667  0.4162235042921774  0.2080461164895984
  0.5000044121079396  0.4187864605922695  0.2089575299807879
  0.5009735688122130  0.0851175168227590  0.1563273079790356
  0.8347739343805687  0.0826497301670729  0.1561724592715252
  0.0001373994245607  0.3328193907412719  0.1560576189518522
  0.3336712357447135  0.3327267510843976  0.1563744651498521
  0.6673138613443592  0.3351626627813174  0.1558662222830653
  0.1669819454750457  0.5814582228461264  0.1566209498310229
  0.4984120030323209  0.5815579783543742  0.1567021991928323
  0.8349175594048758  0.5838236440568472  0.1567398585416202
  0.0004917197686851  0.8347855408971021  0.1562733411709779
  0.3324569934319110  0.8311973438469571  0.1567046594829690
  0.6668682526492741  0.8311740653705063  0.1560405820745355
  0.0013031831611652  0.1662816729963918  0.2083170512268855
  0.3354832205638091  0.1654413397686571  0.2084509067268969
  0.6691570420349040  0.1683946149681332  0.2087461873187403
  0.1691211523315073  0.4150366280820414  0.2079805789707954
  0.4998573994739620  0.9364321194834438  0.5736464022208808
  0.8311615911336857  0.9374689799121030  0.5729959153514328
