Cu
 1.0000000000000000
     7.6685730419681093    0.0000000000000000    0.0000000000000000
     0.0000000000000000    8.8549054201611881    0.0000000000000000
     0.0000000000000000    0.0000000000000000   40.0454546774459672
 Cu 
 144
Direct
  0.1655406414806607  0.0836193828505432 -0.0002870736443483
  0.6652671419438869  0.8041108986658375  0.3646934748932870
  0.1653691849775028  0.0549518860651712  0.3649188332432868
  0.4986475549875140  0.0526849340169616  0.3647886997011353
  0.8336412462948922  0.0560339607042900  0.3647408518069283
  0.0002738355663816  0.1397169879212223  0.4172291471885516
  0.3335126000336466  0.1375330494149823  0.4172990692442847
  0.3331705338240814  0.8028791860839568  0.3644137248837832
  0.6649833537561631  0.1366833292146093  0.4166664671363139
  0.4996138133653296  0.3857984712423422  0.4170585192214192
  0.8326878562439823  0.3889331673884842  0.4169129426713384
  0.0011067061437760  0.6371949549319276  0.4167037124431335
  0.3324967785829209  0.6365292847247720  0.4174462218881267
  0.6689977099709384  0.6385285826137044  0.4166134832547585
  0.1692288400965329  0.8891478719428494  0.4168888681951854
  0.1657178498557551  0.3892729668118257  0.4164680085895344
  0.4989396922776097  0.8862848738159402  0.4164998539516498
 -0.0007894721303974  0.8049319730967380  0.3652742290287648
  0.5022675017513155  0.5548907643921313  0.3651420446555842
  0.8326153984161946  0.2218720728406001  0.3130631847951297
 -0.0025988886249775  0.4706687848511951  0.3126622763322939
  0.3309440846623596  0.4692945725225500  0.3129015439707913
  0.6648566056448829  0.4718288806329064  0.3126541468030081
  0.1640643483924548  0.7211787347285532  0.3127600526875641
  0.4988786741805293  0.7223850078016690  0.3129658668900266
  0.8344260490793139  0.5562701874946393  0.3650192912711645
  0.8325272489064809  0.7228285114898870  0.3129929941504570
  0.3323180775261056  0.9714561593411006  0.3125963799725915
  0.6662586054318436  0.9698464093457423  0.3124619864969293
  0.0018414571229726  0.3052945969483388  0.3646987364891984
  0.3358699132497179  0.3055668189728844  0.3652287629225416
  0.6641790886496900  0.3023002117972036  0.3643869786652151
  0.1671021916882748  0.5539520800414149  0.3651839584371455
  0.0022246650227698  0.9715779342245126  0.3130205069972741
  0.5014188289041900  0.2199198256118658  0.3127132041192224
  0.8339434665994637  0.8855850124715330  0.4173968496387723
  0.4995180387551824  0.2219153646165344  0.4694331268258540
  0.6663791664011189  0.8046821817345187  0.5213335131884181
  0.1689690287323138  0.0553055287498265  0.5211994793299803
  0.4994542611124183  0.0542829150977398  0.5208632579999763
  0.8320019919905870  0.0561540032036088  0.5215828054779434
 -0.0015440389186015  0.1396025673980335  0.5734135408851118
  0.3358549131325748  0.1367994502609761  0.5732488157644203
  0.3317521391740587  0.8061583538164570  0.5216693903698487
  0.6675698546160078  0.1392175834476582  0.5737916393411291
  0.5003922483557793  0.3856828218418522  0.5737212782082849
  0.8317602985970118  0.3891298087868724  0.5732984445182636
  0.0023649840504979  0.6384107599460417  0.5732052108757926
  0.3357410691026189  0.6369313581010693  0.5737544038016932
  0.6678070258573905  0.6362608648822197  0.5730590424633231
  0.1688347372547177  0.8875465964795790  0.5728589536920743
  0.1657081120731545  0.3867928213584355  0.5729838439175169
  0.1672718715313576  0.2215905610008437  0.4692679849624061
 -0.0014274429873447  0.8054745180859763  0.5209918280402039
  0.5017030579034195  0.5537529805362575  0.5208821833977694
  0.8357799377873287  0.2199389941379947  0.4687477911219728
  0.0006664789244722  0.4708294622453379  0.4693892690301200
  0.3336198297200193  0.4730419774467921  0.4686268113233246
  0.6686089657321760  0.4726462730413068  0.4691464213115885
  0.1660274968279442  0.7194585984716051  0.4686206106403192
  0.4974483487006471  0.7207544908595521  0.4693329297196273
  0.8348007534768813  0.5543442718249628  0.5207522771558316
  0.8325522358735079  0.7188957079927464  0.4690225499360304
  0.3341343661363832  0.9703186908855083  0.4686645309709279
  0.6654307663240187  0.9705243624190750  0.4688881789047238
  0.0010127988906272  0.3021997741831363  0.5213533728780648
  0.3358053600001782  0.3061018628782816  0.5210595566607580
  0.6647504365172192  0.3034373968533588  0.5209962244165248
  0.1668073125454498  0.5546168033729015  0.5214387520635099
 -0.0021898662170710  0.9706218897395432  0.4692001110049315
  0.1671419015329244  0.2223001671033785  0.3126912734720265
  0.8333825071469525  0.7503075262981104  0.2605718905620205
  0.4974285234202831  0.7490613009229284  0.2606999430877357
  0.3315215972469303  0.6651207261764256  0.0522446403524815
  0.6691856863551000  0.6665989133700446  0.0522747871973125
  0.1677067878508147  0.9154515394868742  0.0521049587871336
  0.5026055325553336  0.9156953643555429  0.0522649311404483
  0.8307519309066222  0.9160859635934550  0.0521021728798765
  0.0015302196686355 -0.0017450705940861  0.1045033256892711
  0.0006280580926291  0.6663127114414882  0.0525476206411225
  0.3342057561649951 -0.0005248479344666  0.1040981826963368
  0.1660218184945433  0.2481260341360159  0.1041758428162448
  0.5012555593898999  0.2499878622352747  0.1043650788479930
  0.8326368763936404  0.2489428210380220  0.1043085036805688
 -0.0023374528039369  0.4992609778377752  0.1043345145749508
  0.3343696344961204  0.5009168376103023  0.1045279430020059
  0.6653924445430717  0.5014508103978002  0.1040555204870085
  0.6649217805859150 -0.0017730841508987  0.1045272831688761
  0.1666123209000036  0.7492158516714361  0.1044250729308981
  0.8316765546927011  0.4148006202296767  0.0520287284755931
  0.1685187362790225  0.4145313118700188  0.0520609120784221
  0.4978198759175091  0.0815391112569532 -0.0001022202950356
  0.8329112798706862  0.0855125313235676  0.0004862286467793
  0.0000863976536146  0.3312146506764131 -0.0001311162053310
  0.3332773929132565  0.3341067319290546 -0.0004972085456529
  0.6684745485073325  0.3321977337352937 -0.0003462392095941
  0.1667065935822997  0.5838091662641729 -0.0004878202134409
  0.4994576881195708  0.4178366355384129  0.0524729887078175
  0.5012089012935788  0.5816953656030114  0.0001129217054147
 -0.0001202876917894  0.8340882148522526 -0.0003375950251350
  0.3324897937502658  0.8322260324466930 -0.0000569360126662
  0.6646097558817253  0.8324061441913987  0.0003180616103667
  0.0025656442794322  0.1684526320876354  0.0520680877770732
  0.3333073832379190  0.1677786371227072  0.0522020061487220
  0.6670371965189004  0.1651410847127776  0.0516281483907395
  0.8326978611701192  0.5839936168186119 -0.0004436518552173
  0.5004638133028015  0.7517131678401346  0.1045324541444762
  0.8340582865042451  0.7507558252064517  0.1047178120993991
  0.1656172840438305  0.0821198691141118  0.1560390998598481
  0.6644782530558366  0.6681171594139491  0.2085698772848244
  0.1661808643427570  0.9157236379646180  0.2080689809744404
  0.4997298881080223  0.9154147896544617  0.2086178740481506
  0.8345213598297281  0.9185741163218460  0.2082952734543018
  0.0005042146209529 -0.0010421903813590  0.2603261800402911
  0.3345550919374441  0.0021594589197779  0.2609131763244691
  0.3358531136070715  0.6674852988177924  0.2084601233717270
  0.6651022022280916  0.0003996676152525  0.2609733050086489
  0.4975022546556969  0.2496286641382821  0.2610486738170393
  0.8307330470945670  0.2497434098993647  0.2610508789875440
 -0.0010613720798155  0.5019451837406348  0.2610569813879561
  0.3352898529183151  0.4998881105789039  0.2609334673997014
  0.6672534868114233  0.5005146046981990  0.2610926872641046
  0.1651332772391516  0.7513663489979288  0.2609477295428815
  0.1647868932549626  0.2488097833060495  0.2606736734390158
 -0.0006388509968967  0.6650377408252101  0.2081219351702874
  0.8348413467441512  0.4185059324551485  0.2080418679898673
  0.5008172450286610  0.4146744664784532  0.2087943637062140
  0.4995024954999445  0.0838794670855467  0.1561811150528021
  0.8307482139414880  0.0839513939877050  0.1563541472338456
 -0.0001077703833715  0.3319121454503217  0.1561384037664803
  0.3353557965618653  0.3317409175393958  0.1563179656146289
  0.6686116559606751  0.3340904079194481  0.1560671257029347
  0.1680838940378277  0.5846372554891146  0.1560208145151413
  0.4999858098762068  0.5842651315237373  0.1560327980423179
  0.8345353560699127  0.5855268106410271  0.1567278021132330
 -0.0010813909090906  0.8329814949750460  0.1565148404776110
  0.3338398006616345  0.8320863448693776  0.1560368570118774
  0.6663377643537759  0.8344276141746205  0.1566579326252957
  0.0007983107458437  0.1668915798453733  0.2085163318741181
  0.3351288787698720  0.1657785893187989  0.2087332489247613
  0.6649875567770576  0.1670827157886173  0.2089384664753389
  0.1664111944262548  0.4147448009229182  0.2084825598980194
  0.5017251035132071  0.8874132825162109  0.5734623056765337
  0.8323736484041127  0.8869392671965538  0.5731152810862726
