Cu
 1.0000000000000000
     7.6685730419681093    0.0000000000000000    0.0000000000000000
     0.0000000000000000    8.8549054201611881    0.0000000000000000
     0.0000000000000000    0.0000000000000000   40.0454546774459672
 Cu 
 144
Direct
  0.1671568514698856  0.0831298713101147  0.0003710921908571
  0.6642666489300461  0.8938534359862619  0.3649481342661700
  0.1663592525039967  0.1426149396432760  0.3648595545018943
  0.5016881464845960  0.1426432788010032  0.3651201760932219
  0.8316576550938848  0.1404701957777012  0.3644399113663594
  0.0005309077109512  0.2230809334795385  0.4166506554457294
  0.3327342791362999  0.2232172724524106  0.4170379613525315
  0.3332389596141483  0.8937855596565647  0.3644132603720212
  0.6649909459727290  0.2266980710222279  0.4172983296566863
  0.4989319420781497  0.4749855259242429  0.4166931922415990
  0.8359105466619408  0.4757554314674858  0.4165908703143307
 -0.0021285176438919  0.7258162278233559  0.4171335950648593
  0.3308021524758645  0.7241903907080526  0.4166792304875929
  0.6687850256481851  0.7247763975040319  0.4167926347866377
  0.1653083190726158  0.9753109768561732  0.4172954616263184
  0.1640727876517781  0.4730933503329284  0.4172072983758843
  0.4996099489827150  0.9765107327625541  0.4166957794109248
 -0.0017355795911822  0.8932191780731016  0.3649148260408264
  0.4989077882082012  0.6425960989681502  0.3644188486657279
  0.8327828931794951  0.3099449234933290  0.3125457198999003
 -0.0014913729900118  0.5571933998756052  0.3131785942171642
  0.3317296465676833  0.5601955289598542  0.3122908281499160
  0.6689451697973127  0.5572342273308536  0.3127245770540870
  0.1657934285648581  0.8102239201153569  0.3124044089030724
  0.5003735676745418  0.8083074706387232  0.3123091724543854
  0.8351905738798804  0.6419218236928917  0.3645053283957416
  0.8356835340588041  0.8081469620066573  0.3124692093937783
  0.3341492499303571  0.0577167290321785  0.3129710500278920
  0.6674849525497061  0.0566865335014533  0.3130518254880438
 -0.0014639146374149  0.3928637247352163  0.3652442488110683
  0.3334955323910865  0.3912559533592758  0.3652684163796963
  0.6681574669731293  0.3930829462181561  0.3649416166507850
  0.1674490768358025  0.6422924168597307  0.3646597894038245
  0.0020479129378326  0.0563979764827925  0.3124651224627486
  0.4988630243558977  0.3105734490557025  0.3122802889468927
  0.8358250147416977  0.9735269858344139  0.4166524743456304
  0.4976163984474399  0.3081417226360893  0.4686686824555794
  0.6650955259113072  0.8899142011369562  0.5215657393878730
  0.1651061250252241  0.1424205357905874  0.5207032902401325
  0.4999630309876281  0.1410286545384110  0.5210798436976816
  0.8358945459222918  0.1437669135769399  0.5214136354617275
 -0.0023875965363799  0.2257573312975074  0.5728946565750932
  0.3322486494685619  0.2266980407101356  0.5735870487552780
  0.3309462021860473  0.8901283461810747  0.5216838790063647
  0.6677020554935289  0.2258275676890658  0.5736685000940427
  0.4988628412255904  0.4754696236441901  0.5737131379099394
  0.8335484454311476  0.4728907448980604  0.5737894797060160
  0.0011842209778225  0.7258259448679759  0.5730257667992025
  0.3345058144103327  0.7264950091563770  0.5735603859468833
  0.6679359979769857  0.7248672522860610  0.5732272017228596
  0.1644556496868306  0.9767838383593643  0.5731222794177369
  0.1675039471772695  0.4750779956614478  0.5736093844434580
  0.1675356343281739  0.3088287042112429  0.4693043648155010
  0.0009013416880712  0.8897463557314597  0.5212417086387922
  0.4987667795687514  0.6395589184363599  0.5215898026528937
  0.8317589612021282  0.3094358150643612  0.4688936232153996
 -0.0015446487923675  0.5588487910391327  0.4690081346154186
  0.3358221693667666  0.5579940055485528  0.4694720431490419
  0.6654911603049467  0.5570161670152685  0.4692916768740904
  0.1667010112460597  0.8096752684875719  0.4688982511960574
  0.4989827249178910  0.8096771887759221  0.4690968228595750
  0.8355174589821566  0.6401700094659992  0.5212217170729901
  0.8325920540019803  0.8081376313378347  0.4686109547488114
  0.3338791819112079  0.0567369297838213  0.4695570552887042
  0.6667421759040233  0.0567705820010061  0.4689149312001457
  0.0020547820006714  0.3902517061460760  0.5209925525894881
  0.3346132249872187  0.3929038340542441  0.5214121885611647
  0.6671565823700044  0.3911691014825351  0.5214587865175178
  0.1678067433578628  0.6401871614963476  0.5212041336627042
  0.0003961862495726  0.0586125336936191  0.4687080523470766
  0.1689206914751833  0.3105821472892631  0.3128937975063867
  0.8339904618098413  0.7509860469922950  0.2602155100762992
  0.5000956230190815  0.7493099963129851  0.2607284843705819
  0.3346441859494123  0.6644126384171424  0.0517932043970544
  0.6644301843382969  0.6668299079235350  0.0523213812885673
  0.1649773994945875  0.9182176996691022  0.0521171364443763
  0.4985392620064882  0.9145314447638532  0.0522963489807293
  0.8349318923048873  0.9158937678516867  0.0525486621065121
 -0.0005138473774609 -0.0019097031199432  0.1044874317889856
  0.0007943994005268  0.6655793170460798  0.0517221942326572
  0.3327276997130088  0.0016711814479420  0.1044601008646610
  0.1647176819633480  0.2484256216973843  0.1045975714563987
  0.5020260927518500  0.2485225838958752  0.1038780473430236
  0.8327373121577697  0.2500060440938922  0.1046320123524028
  0.0025843985724009  0.5009577380440392  0.1044709654082400
  0.3325882584035920  0.5018788933385480  0.1038728416027561
  0.6692432169218391  0.5001615929485483  0.1047167233664033
  0.6656403567263316  0.0021604743074514  0.1039888728108596
  0.1686788082783150  0.7508775037733452  0.1045144515280119
  0.8330316109670070  0.4168341110808915  0.0518708351816741
  0.1667621349915530  0.4188726853651795  0.0518067102037469
  0.5016398794708118  0.0834609094004217  0.0001762871244886
  0.8322333577847691  0.0837816508382567 -0.0000152644147376
  0.0007884602157361  0.3347070670618514  0.0001747943771330
  0.3311561928624186  0.3340392129003952 -0.0001768883349238
  0.6659521595732706  0.3311469846229143 -0.0004029067531654
  0.1687145602633917  0.5829361075202522  0.0001774172780810
  0.4994241458370798  0.4168947290804983  0.0521439944424524
  0.4995017408163784  0.5825577797479976 -0.0001157964591542
 -0.0010513270522919  0.8315878402966134 -0.0004681404131326
  0.3347090374706962  0.8347311379716168 -0.0002830236685591
  0.6646058933370611  0.8321419164922423  0.0002349440592621
 -0.0010599686281436  0.1664895528070181  0.0522274800092082
  0.3310813025021310  0.1665756872867089  0.0525886465142380
  0.6662755584006123  0.1679016746679714  0.0518306677633705
  0.8327666434901436  0.5840871173476766 -0.0002936511677987
  0.5009335580520867  0.7492137854700475  0.1039576507430781
  0.8343714819656929  0.7516929129712238  0.1045134303166455
  0.1684654819250108  0.0847921494647261  0.1565200385548657
  0.6646053720278670  0.6671747658342814  0.2084478993764089
  0.1641515628624247  0.9161267919623511  0.2080215723473842
  0.5012096956318638  0.9168813405444496  0.2083203932855242
  0.8312903100795433  0.9156605990314742  0.2089588014704050
 -0.0015000471060135 -0.0002719392403860  0.2607495134798989
  0.3310450206369253  0.0001369607883418  0.2601168077947799
  0.3333127981751666  0.6686715384470850  0.2081032695870452
  0.6646930808151145 -0.0010904168001567  0.2606818788527464
  0.5021384179333535  0.2515694501842084  0.2605761589505842
  0.8317739718318944  0.2486379691507472  0.2605878105287260
  0.0006787308088482  0.4998350346375300  0.2601119881853733
  0.3326026824767862  0.5004675985183220  0.2607988383071512
  0.6648427257715274  0.5003196480024220  0.2605858217258331
  0.1641708549453892  0.7514327217182519  0.2604931149720990
  0.1675429414389629  0.2494050621776563  0.2601169790588493
 -0.0007002718920742  0.6663134583698355  0.2086452690523831
  0.8338011156982477  0.4179712822512824  0.2081827681441981
  0.5008651853660938  0.4160271246988808  0.2083217617123119
  0.5025896735394827  0.0840290780918193  0.1564867699090924
  0.8355462932207827  0.0851883718748578  0.1560963368573809
 -0.0021617565161759  0.3313439955110553  0.1565365675550609
  0.3332006237552579  0.3327366089785763  0.1559919023759063
  0.6670790295339275  0.3347474216352457  0.1558946997999546
  0.1652736532454792  0.5838777771602726  0.1568498164099404
  0.5025043323892047  0.5841876870720274  0.1567745521437489
  0.8357175128760038  0.5854644515842438  0.1563215765788419
  0.0002027577687551  0.8332504446730343  0.1559904674335995
  0.3335297805528489  0.8344874756138073  0.1560447407099676
  0.6658497380669276  0.8313649204344294  0.1560248713820687
  0.0019476900202422  0.1678821395573419  0.2085291854112781
  0.3319743122030578  0.1683621569842988  0.2089225553598019
  0.6688689045621101  0.1668587470606916  0.2081381548223511
  0.1646143100787636  0.4164787801608310  0.2084527622761939
  0.5014989605501446  0.9771129640157822  0.5728138334749540
  0.8332146840130136  0.9736512464441535  0.5729009780958513
