Cu
 1.0000000000000000
     7.6685730419681093    0.0000000000000000    0.0000000000000000
     0.0000000000000000    8.8549054201611881    0.0000000000000000
     0.0000000000000000    0.0000000000000000   40.0454546774459672
 Cu 
 144
Direct
  0.1643533312624427  0.0825514642828382 -0.0004496375846424
  0.6667323168883299  0.7806475297767678  0.3651797173840962
  0.1669062734781981  0.0274551211626739  0.3647834296626243
  0.5004851992571951  0.0304263807798740  0.3644823539915671
  0.8339517784951472  0.0299869253255148  0.3649724483267168
  0.0005690828737247  0.1102454602750725  0.4172982252395793
  0.3355326265636666  0.1121860740881923  0.4168222180372128
  0.3341047659023800  0.7801296322806330  0.3644394321701519
  0.6689458177691299  0.1117874637144530  0.4169222945681811
  0.5008005596308707  0.3636366911278084  0.4170057017025615
  0.8318272051458291  0.3609475599214114  0.4174042362974608
 -0.0021146140685099  0.6105975276017269  0.4164961001643361
  0.3332572855970392  0.6123174312164050  0.4168033060283831
  0.6673724137156832  0.6135213491151708  0.4166246632678495
  0.1676231369417338  0.8644311462070231  0.4167879679676364
  0.1643828811182944  0.3606377248842788  0.4164651192520618
  0.5000207575370657  0.8609866855212053  0.4174318561604748
 -0.0026024245983294  0.7796418522741296  0.3644220793825748
  0.5000330316672845  0.5271838466008067  0.3652758259634695
  0.8326049469899967  0.1978543109148951  0.3123179676940083
 -0.0018849438357704  0.4443850082988394  0.3129101252736680
  0.3343912743250811  0.4455536705572350  0.3131176702914559
  0.6679416434440986  0.4452793140997270  0.3128456332477160
  0.1649032282745682  0.6940810730418269  0.3131542296690954
  0.4979666071466610  0.6938830203381766  0.3126503002141615
  0.8312765274959537  0.5280643524852985  0.3651444382978185
  0.8323510429130438  0.6948021590214708  0.3126932500404482
  0.3334533565202072  0.9437592867437958  0.3128632231742277
  0.6692628257966006  0.9480490032260935  0.3126781115621089
  0.0021149009984037  0.2778994683415058  0.3645227075736863
  0.3355231975769402  0.2786236663226297  0.3647775055855169
  0.6641035228505009  0.2813281532132596  0.3644101648893130
  0.1673367611957388  0.5292635703136147  0.3647150934095564
 -0.0021242535213313  0.9479324852288546  0.3127606198140513
  0.4974919441972013  0.1965695528772489  0.3131440122556136
  0.8310402753661922  0.8621684340132991  0.4167649105164652
  0.4999173780836955  0.1976230494634126  0.4691014906451847
  0.6691658614656651  0.7774137963252491  0.5216744388491071
  0.1679189071294433  0.0301206994412684  0.5210592906290873
  0.4999827531967448  0.0296909743438610  0.5216755886433262
  0.8339731758779927  0.0292393507658935  0.5216483452675995
  0.0000453236118645  0.1104627020687565  0.5735229128545329
  0.3351911964373571  0.1131603184848029  0.5733706387752392
  0.3351472692300013  0.7772683722992960  0.5209599070396745
  0.6689929289256397  0.1136742202972204  0.5730053657869727
  0.5015885309949468  0.3619479914437325  0.5736456843289854
  0.8343068267002025  0.3637071163023829  0.5732178409474783
  0.0026078074053676  0.6139537920261919  0.5737870084318560
  0.3308827868286207  0.6110114107501531  0.5735309844703272
  0.6658792196560923  0.6109534161740920  0.5729233687370660
  0.1685594458885320  0.8641531855542680  0.5735801305297965
  0.1651030045579701  0.3613225042671294  0.5736702335718927
  0.1664628007066796  0.1968328141381364  0.4695229188491428
 -0.0008224254190702  0.7794451989482880  0.5208644382023682
  0.4983577842747244  0.5277363528149233  0.5212874428445894
  0.8317761652230581  0.1953423225509971  0.4692955102836206
 -0.0002191192772234  0.4446471989059071  0.4688794629141341
  0.3321588153945116  0.4469606340055436  0.4689478469055799
  0.6690828902544069  0.4447569538594298  0.4695118592709567
  0.1670605529225221  0.6939799503542123  0.4694637697465892
  0.4993228863380960  0.6967878701828593  0.4685981078095689
  0.8341233553118014  0.5297955144810084  0.5210591723639617
  0.8310174580455113  0.6940807287589944  0.4693610683873758
  0.3347521767115699  0.9465374213551269  0.4686014220959347
  0.6660642224816629  0.9439056563420968  0.4692599701506975
 -0.0009657630662230  0.2787415298707092  0.5213529557242159
  0.3346213056348502  0.2775868024450580  0.5207843231758578
  0.6683588026533337  0.2798259784887677  0.5213408684752072
  0.1659475613697569  0.5299512767023746  0.5214943587739878
  0.0006646622767167  0.9466021254342990  0.4687130069446568
  0.1661271926289904  0.1972287750681912  0.3123380321224672
  0.8342516006129822  0.7479978994832077  0.2610752608795681
  0.4974026023563091  0.7494035436470416  0.2603928792411623
  0.3320061603574228  0.6681546627055858  0.0518939204733293
  0.6662843061089132  0.6660801198464978  0.0520632072979678
  0.1681720975212166  0.9149498560798651  0.0518609624226034
  0.4989507709122916  0.9167756073422251  0.0517298559674931
  0.8340501476954614  0.9149231165084203  0.0524957503293470
  0.0006526316815651 -0.0003466428881812  0.1045682059436165
  0.0001285852081665  0.6666842414925314  0.0516823013331123
  0.3307611968505464 -0.0006593741764909  0.1038329495118621
  0.1652195190454004  0.2502371878989055  0.1043360489567357
  0.4986675283683498  0.2487334410326876  0.1047339614906115
  0.8358738093603572  0.2519963146786907  0.1044988056105124
  0.0020334604146856  0.4997841275806358  0.1042073003302346
  0.3356552433272601  0.4986637988673480  0.1045442345964105
  0.6665154947275110  0.4992834019801056  0.1039761612618229
  0.6677233649311778 -0.0020528918303128  0.1047232895954557
  0.1675950022940634  0.7501691811177090  0.1043874413396692
  0.8327694325657575  0.4183310005282657  0.0519333959389468
  0.1664637632115553  0.4186126420366779  0.0518683579775281
  0.4988593779813951  0.0848052671689473  0.0001088537851868
  0.8336584201041004  0.0833241461857599 -0.0004713057133581
 -0.0018138341420131  0.3352846222299979 -0.0004424122094765
  0.3346685779837179  0.3323027285930398 -0.0002214611762578
  0.6673524729279091  0.3345157103770119 -0.0000115568487731
  0.1654267330812070  0.5825317678172668 -0.0004880126368255
  0.5012708736682971  0.4147341204566539  0.0522276729999382
  0.4994673022531863  0.5844016957741268  0.0004866250984614
  0.0005214597763235  0.8334276750086606 -0.0004250532122171
  0.3345290499328474  0.8320445017482929 -0.0004772418553570
  0.6656640029624417  0.8349235618238052  0.0001329106835061
  0.0018594026110031  0.1686894332604185  0.0521649475612562
  0.3357853437558003  0.1676983478502148  0.0522346710876287
  0.6686030189104886  0.1682449053315389  0.0522537587418826
  0.8329699248117400  0.5853099038192381 -0.0002010103075513
  0.4995559741751899  0.7501914940666022  0.1043135597951201
  0.8309928418767333  0.7481865951205133  0.1038382586729495
  0.1675244554601355  0.0837480571608280  0.1560909541048878
  0.6685294137709394  0.6669163776855793  0.2080564868931661
  0.1661614224645502  0.9184815745406435  0.2080059842851738
  0.5011852750039442  0.9176418101655285  0.2087966340052989
  0.8357764830558931  0.9160207450332860  0.2083022350648307
 -0.0012000931729460 -0.0011703661179341  0.2604842288226214
  0.3333644193394378 -0.0001188440326416  0.2606026173555998
  0.3353137827471845  0.6675897434398179  0.2088184992681713
  0.6665216447567737  0.0014878933584336  0.2604719020806783
  0.5004058601434080  0.2522255987465077  0.2609039938382020
  0.8314003541275927  0.2482096839734430  0.2601729297994120
 -0.0023398447186227  0.5020281213498198  0.2605986603878553
  0.3342808256788524  0.4998552736570842  0.2610361814751651
  0.6660586928799330  0.5018309886047173  0.2607745780974802
  0.1657700942230739  0.7509739883487918  0.2601508190081310
  0.1651076731596247  0.2477900179640460  0.2605363116839266
  0.0023188639688803  0.6678392378440469  0.2087708085075145
  0.8348550079814279  0.4163608787347816  0.2087907652237368
  0.4984077881910635  0.4145485330138809  0.2084230326844153
  0.4977479707254264  0.0813001546708999  0.1563955606095211
  0.8334651529344251  0.0836071395330098  0.1567744570060997
  0.0011142941798636  0.3320214430614374  0.1566390536666027
  0.3353287555368755  0.3353348045276944  0.1559594017809757
  0.6669065589243449  0.3339934729407971  0.1564206422695809
  0.1673021157017034  0.5837432422017599  0.1562235572424169
  0.4984120261861493  0.5827026248921496  0.1561199700005574
  0.8342238322263529  0.5847084479515176  0.1559081964370748
 -0.0024345475795143  0.8341809538493046  0.1568423446846209
  0.3328966565327944  0.8345548405816963  0.1566535822203782
  0.6679892582147481  0.8334194813199013  0.1567587926984986
 -0.0021784697470834  0.1668067557940433  0.2086116009351035
  0.3358502785594170  0.1656223887584300  0.2083521271612886
  0.6663641288976774  0.1648238979288390  0.2085112000523237
  0.1660020207929039  0.4159543584802104  0.2086972531139451
  0.4984694786436445  0.8631967319114711  0.5733563657955001
  0.8324042211137030  0.8635142144383483  0.5733902488878962
