Cu
 1.0000000000000000
     7.6685730419681093    0.0000000000000000    0.0000000000000000
     0.0000000000000000    8.8549054201611881    0.0000000000000000
     0.0000000000000000    0.0000000000000000   40.0454546774459672
 Cu 
 144
Direct
  0.1672539724298314  0.0811456215094351 -0.0003119559267174
  0.6685707338624850  0.6794976231050258  0.3649000646418826
  0.1679185718713219  0.9275394702008894  0.3651618191371426
  0.5004286029355367  0.9286304344851698  0.3648235774853437
  0.8314907390717388  0.9305362859901792  0.3649670391154048
  0.0009599047521068  0.0140701954217103  0.4172926938706304
  0.3349187297342355  0.0118059237473865  0.4173577045350790
  0.3324539422803162  0.6789903100042234  0.3643756724274073
  0.6647048968734461  0.0116314291519274  0.4166394637085913
  0.4989539534960594  0.2605600202928643  0.4172629396537350
  0.8309865392393485  0.2618670597650916  0.4174091890896920
 -0.0019596520393873  0.5108124755679231  0.4174422143112378
  0.3335430146994278  0.5121949692543897  0.4167893014356083
  0.6685818067427500  0.5146909754522934  0.4172037102943337
  0.1670971977895562  0.7619090126139234  0.4165392524305586
  0.1672718784806466  0.2645601862828178  0.4169086557601004
  0.5022946303833217  0.7619813934300991  0.4170960164345059
  0.0023235189452979  0.6787524458843345  0.3649980361135325
  0.4995888092626919  0.4277436369978322  0.3650332659857753
  0.8325031870896332  0.0956756633603182  0.3128444813506758
  0.0017264895355089  0.3473644165573946  0.3125674265026534
  0.3338926773866759  0.3475038306631482  0.3131383849673632
  0.6691934475926046  0.3470091959439475  0.3126016105367693
  0.1660024538255762  0.5958762147828917  0.3124245084553194
  0.4997772268873149  0.5941887193482195  0.3129309280200666
  0.8346601990700719  0.4305558733988622  0.3648119969562738
  0.8317423186059137  0.5955938344333848  0.3124687208856575
  0.3330654155997506  0.8456012408180232  0.3127639622170195
  0.6689515282668476  0.8473420069187183  0.3131738242753362
  0.0007611290627021  0.1780523133284765  0.3644177819240350
  0.3319897576702079  0.1770256699930944  0.3644824856524944
  0.6653445986879373  0.1809802045425538  0.3648526592204245
  0.1649664918950507  0.4310335727114126  0.3650507173924150
 -0.0024386860036899  0.8474104156795610  0.3125830866625492
  0.4998167411199551  0.0960834385420587  0.3128288119324645
  0.8332773109564626  0.7639766694306768  0.4167995126265486
  0.4987106542396192  0.0977703803569947  0.4694786648255690
  0.6661211713143900  0.6793819698556035  0.5207775724622034
  0.1679292832791497  0.9304607630583243  0.5207012234792064
  0.4975528852766121  0.9269640692182473  0.5207368329274811
  0.8324962879693546  0.9294896553256330  0.5214674890077545
  0.0001663374791466  0.0116371114276355  0.5732592384755965
  0.3318024873949862  0.0119687314521859  0.5731835883590530
  0.3323339082302117  0.6787924123561370  0.5210359298534227
  0.6684590925493078  0.0111450765368624  0.5735139241079457
  0.5021418535068723  0.2617082984995234  0.5730053485078633
  0.8329763257873961  0.2631843952974661  0.5729988395353822
 -0.0012566046426795  0.5123569801669992  0.5728596293270163
  0.3333363072548148  0.5108161246613053  0.5732373703538961
  0.6668158992373395  0.5116682453341542  0.5731823852826197
  0.1661450272763871  0.7644295516813817  0.5736357412678972
  0.1679951502618594  0.2623785907343721  0.5737511454986409
  0.1654682855510204  0.0967219738862134  0.4685914049869938
 -0.0000995073022434  0.6801524546540988  0.5215861687776442
  0.5016734874288878  0.4277510434081589  0.5208187614045823
  0.8311738984678522  0.0949835958680277  0.4695439798025756
 -0.0004382263323246  0.3461228063899799  0.4686963467191419
  0.3350524712788451  0.3472719472408283  0.4690149317124572
  0.6671803789461641  0.3467621509741424  0.4695506107735276
  0.1651544682351105  0.5940576343738520  0.4689678324139899
  0.4980734131430316  0.5979696640293630  0.4691503499343016
  0.8318926234972459  0.4279291514957332  0.5213289083727127
  0.8340348004288266  0.5953347368243556  0.4694275088485239
  0.3356414419835558  0.8478552911589011  0.4691308692491979
  0.6655512965769078  0.8479220932449270  0.4687928407478283
 -0.0003313496998513  0.1806622919191708  0.5213163266849618
  0.3323814338445152  0.1785556460103396  0.5215000416086194
  0.6668275641785273  0.1792695724885192  0.5216360779092512
  0.1682593071582760  0.4278390349642710  0.5209441865614922
 -0.0000438760602625  0.8476390817810849  0.4691924652680591
  0.1678275553224119  0.0937114490328490  0.3126158790811068
  0.8309870731137567  0.7495685951915383  0.2607489904944879
  0.5003472402583868  0.7482493848606729  0.2603804188994105
  0.3328187419967905  0.6688143648413988  0.0523633254283068
  0.6641856887431089  0.6649158419378980  0.0518762526279372
  0.1668540169130543  0.9160336675307249  0.0521730846925120
  0.5001363857496416  0.9185886904564636  0.0522777256162679
  0.8349995908443540  0.9158188805022365  0.0521786172145875
  0.0024172016277139  0.0010147212155661  0.1039283628501726
 -0.0017873557421141  0.6673464940073137  0.0522948701531498
  0.3333893040723451 -0.0016851360983055  0.1041196394301088
  0.1657723536832967  0.2506625819187734  0.1042118066603162
  0.5002660798386872  0.2521044838011701  0.1045154200828458
  0.8333359808560615  0.2496490058391348  0.1045613251100670
 -0.0020818536541656  0.5010602288020770  0.1044256308856255
  0.3348713420095536  0.4978616823733520  0.1040034228377381
  0.6682244596482999  0.4978066410412808  0.1040758296010920
  0.6675179701723624 -0.0010744017934714  0.1044034594962888
  0.1669152323123953  0.7486873652966808  0.1038010778441262
  0.8312487093130050  0.4163704138128274  0.0517236316026471
  0.1682485966594814  0.4161859594420424  0.0524042456504250
  0.5018667883194563  0.0814189080712983 -0.0002985704699444
  0.8340119524123250  0.0815199300390869 -0.0003474008206835
 -0.0016678721886711  0.3316706544247863  0.0004835674695152
  0.3347163974821903  0.3322196813017796 -0.0000093683703042
  0.6651596469718284  0.3327031084273150  0.0004126563657346
  0.1643860165583334  0.5819835089536940 -0.0002336774220569
  0.5010001167112480  0.4162347168866720  0.0522428673484381
  0.5023802666016323  0.5846158210081729 -0.0003910314902347
 -0.0022379575049766  0.8327490247517559  0.0004772445140663
  0.3327572348419244  0.8327804636025096 -0.0001110039856365
  0.6642951075376853  0.8326927603010236 -0.0003752352533620
 -0.0021544692845484  0.1656325389143100  0.0520190236764368
  0.3344707889757440  0.1653314461178568  0.0524452373175305
  0.6652606281106256  0.1663754114340202  0.0521301952481135
  0.8353636463581288  0.5827914340545947 -0.0001707646157804
  0.4986200849507063  0.7496640829170073  0.1040475669088388
  0.8350958341849434  0.7482487167004277  0.1038999715928390
  0.1642014872900151  0.0842587575220892  0.1561482337945087
  0.6660808125025497  0.6651645281347209  0.2083921744953975
  0.1690253843756587  0.9174352348653246  0.2080830177328584
  0.5003442355502483  0.9144644515618835  0.2085872820267664
  0.8346727218878629  0.9177272257548317  0.2081054118046899
 -0.0004187562973392  0.0004793111503641  0.2607487414969462
  0.3316182832794559 -0.0015170818505609  0.2602653574296601
  0.3348272058778773  0.6658416475676238  0.2088333861729691
  0.6659311879821632 -0.0007098740322442  0.2607609209028103
  0.5001819631096643  0.2477554010055573  0.2604082324854284
  0.8323787637376555  0.2518906173886509  0.2602794705335083
  0.0009348315319256  0.5006111738011887  0.2609658843958901
  0.3307268610443990  0.5015682937384347  0.2604907269445378
  0.6644152359952767  0.5002977777442520  0.2602883699801736
  0.1648665731349944  0.7482834900196117  0.2604219555757538
  0.1655396489386168  0.2478191987118909  0.2607166711597652
  0.0012161698939270  0.6661826233818565  0.2079969509472042
  0.8354878881861789  0.4166481475308155  0.2085432439386488
  0.5010912705281608  0.4174139482876753  0.2087172003535959
  0.4991772114393502  0.0826683118039288  0.1559456573702580
  0.8311306206131300  0.0828063906426311  0.1563306951883894
 -0.0007421671113972  0.3315795861065063  0.1565180457795132
  0.3330755028559215  0.3350356246070940  0.1565844851134152
  0.6650164653608389  0.3321561266056055  0.1563045253278074
  0.1656093940653890  0.5853157057792863  0.1562653016857350
  0.4983197128050749  0.5830281070436808  0.1565941731367902
  0.8339535974441881  0.5845999610646295  0.1564025100826685
  0.0022907099933166  0.8328242241381305  0.1568337431556235
  0.3341534290724058  0.8344788067439947  0.1560702888400549
  0.6684893277344393  0.8311279617966812  0.1565837892832485
 -0.0002279842952553  0.1682244566324744  0.2086412063811216
  0.3320416560431725  0.1651690448459171  0.2083619808250596
  0.6643955830085765  0.1646686959959376  0.2081465748848879
  0.1685261724811529  0.4144837484207721  0.2085311736594185
  0.5009503653485046  0.7642550523871465  0.5728657045842259
  0.8326546909319378  0.7613736391576881  0.5736671788300725
