Cu
 1.0000000000000000
     7.6685730419681093    0.0000000000000000    0.0000000000000000
     0.0000000000000000    8.8549054201611881    0.0000000000000000
     0.0000000000000000    0.0000000000000000   40.0454546774459672
 Cu 
 144
Direct
  0.1667870298704496  0.0833855971875665 -0.0004076905432376
  0.9312655017814387  0.7687183371423097  0.3653063864073601
  0.4341702437383890  0.0160043992167191  0.3644380710394693
  0.7681828029146405  0.0147685809227544  0.3646600930514926
  0.0991818633201149  0.0160693740732549  0.3649190153802117
  0.2651350132876326  0.0992848370007730  0.4172073775855843
  0.6025051730842467  0.0987564153171069  0.4172210833618210
  0.6019810470355660  0.7669301460901188  0.3653134900160218
  0.9354740902401530  0.1000583130850317  0.4167386738428061
  0.7656940703224236  0.3518846711296946  0.4165265405801767
  0.0979497431732777  0.3487663791714256  0.4174186394764374
  0.2659135726546311  0.6015640648347947  0.4174402083325441
  0.6011919324251312  0.5990955519635890  0.4165731577135001
  0.9353242502227178  0.6010563917472223  0.4168999165212011
  0.4308775313390768  0.8487180646883137  0.4174430855410776
  0.4311418387896260  0.3521445942421274  0.4166782343211892
  0.7643973900804295  0.8496367604676820  0.4171788518541121
  0.2685645531212418  0.7667087452329218  0.3649583826282111
  0.7671888247651166  0.5149448731554651  0.3650510718880313
  0.1010881743414205  0.1844637746269538  0.3127150803208268
  0.2660466608311655  0.4316305104834291  0.3131037096077091
  0.6010250857026037  0.4313353364456853  0.3122799000628575
  0.9356680110395473  0.4352394109448343  0.3129552931855586
  0.4317916332749325  0.6840581093317742  0.3123525190296944
  0.7641402657700845  0.6833040241714821  0.3128321113547239
  0.0994375985415234  0.5153649309464328  0.3652188694782549
  0.0996418374304533  0.6814887163759096  0.3123799783421470
  0.5977082896942280  0.9319109469391645  0.3122674971486880
  0.9345714215741527  0.9312928625554442  0.3128844563428198
  0.2652585464349391  0.2653877663258987  0.3650828098009151
  0.6004411817498093  0.2678105741193473  0.3644547409797476
  0.9346000819184719  0.2688766617910971  0.3651928781523099
  0.4314447207036735  0.5175609071618487  0.3650987595799796
  0.2641255415742179  0.9315918819277582  0.3128024552599269
  0.7644322337080318  0.1836426168882671  0.3129277923462476
  0.1006266417669115  0.8517566935125394  0.4172252572235500
  0.7678292907604091  0.1844614108304019  0.4686620458470067
  0.9320113014610442  0.7678234294789414  0.5215887745985757
  0.4354529544270824  0.0187850944502307  0.5216355376668879
  0.7643726610575755  0.0155778139269169  0.5212232157259786
  0.0983061619869986  0.0185898399624077  0.5208961097484376
  0.2652733063258859  0.0983553408311775  0.5734215725417383
  0.6006987695332858  0.0991275875232961  0.5736475684014903
  0.5974481144595459  0.7662168337482330  0.5216148907028638
  0.9345809112435634  0.1014377055810878  0.5736899064421249
  0.7690101159789210  0.3511430382037589  0.5732706743808951
  0.1002713488563153  0.3483932030470511  0.5734906660966523
  0.2650135937099595  0.5978644413975196  0.5732659342418867
  0.5987837905593567  0.5984793339785874  0.5730006073020307
  0.9331268958299488  0.5996549657939695  0.5737473534935543
  0.4335657029802183  0.8498791486470832  0.5731558179708242
  0.4331817947968044  0.3507289609885137  0.5730040927455730
  0.4352263655500391  0.1839336378075533  0.4695073530027600
  0.2642326896438689  0.7683910051983788  0.5211359871855693
  0.7648788023202221  0.5147608677417710  0.5215830276451792
  0.0993561915080463  0.1816076712979180  0.4694459993416725
  0.2672357971638316  0.4338421875297023  0.4692763165677834
  0.5983166640500485  0.4325942185629823  0.4688633885591735
  0.9307831353265279  0.4349366746893383  0.4685776840658306
  0.4326531122451187  0.6835477132158989  0.4691549478590979
  0.7656577763876506  0.6834047069027057  0.4687894578330903
  0.0979384710819288  0.5172896447437649  0.5212885038933797
  0.0982860282514037  0.6822296607464109  0.4694547593436412
  0.6020091526488054  0.9341546942427587  0.4690097150598203
  0.9353146848645373  0.9340370331156710  0.4691747583930778
  0.2670579906578211  0.2665308681987890  0.5212323372159371
  0.5994238327342932  0.2676894617946169  0.5210754354785584
  0.9309017429615630  0.2680573863481847  0.5211058026630092
  0.4337850380503354  0.5147753566898401  0.5210693862669762
  0.2663822601023220  0.9325399280230628  0.4689632927566892
  0.4316450927856024  0.1818126693442205  0.3127923730139475
  0.8353960438306005  0.7497949971821772  0.2601307458664995
  0.4980979757667977  0.7520178288217866  0.2609930689996645
  0.3351639516485274  0.6645085282548057  0.0522497958033726
  0.6644304268557336  0.6674983407333414  0.0522212642728804
  0.1657156176375074  0.9186340725801418  0.0523961315207131
  0.4999225134117674  0.9164610348758510  0.0517970320800057
  0.8309504835272938  0.9157891449507913  0.0517765524146596
  0.0020048025899176 -0.0016092004632215  0.1043173252471752
  0.0022974968527081  0.6650033416999129  0.0520472923999550
  0.3328612592304451 -0.0012620154031425  0.1042484521762360
  0.1674534368767002  0.2480780622463921  0.1042504334694022
  0.5022294792526855  0.2520597502709320  0.1044104436354064
  0.8313158672823581  0.2513674242833475  0.1041822156294841
 -0.0003269305678897  0.5011115968103603  0.1038962635213755
  0.3333979197979717  0.5012009672812447  0.1039591282926904
  0.6645275449850876  0.5000910097824226  0.1040460250910365
  0.6659930751214794 -0.0011367466588779  0.1042259507746455
  0.1646453402098088  0.7503390674108761  0.1046031144131360
  0.8325072801242068  0.4161080895501446  0.0518694057030608
  0.1690182420271867  0.4159691717182512  0.0519403285283193
  0.5021686655300533  0.0824791743984249  0.0001918984451244
  0.8347368749373071  0.0838443916449037 -0.0002865768715430
  0.0021962804431228  0.3333229833057684 -0.0003916959241515
  0.3324625656048735  0.3314494973634237  0.0004531077246464
  0.6643799017063918  0.3323131039778489  0.0001157223236423
  0.1683849440698531  0.5821095305350401 -0.0002273256862123
  0.4975595483043649  0.4187363566709886  0.0516484813065388
  0.4989117607655186  0.5827865753512246  0.0003403227325231
 -0.0021535349530261  0.8317807081912242  0.0001219343274952
  0.3323480907386449  0.8319824735965738  0.0001542991579462
  0.6653329763290284  0.8353214056143061 -0.0003845877185571
 -0.0015824789470096  0.1652783577873576  0.0522832617488205
  0.3344588723942938  0.1670235046692579  0.0524935728874150
  0.6659316433386751  0.1661719921499768  0.0522978202795603
  0.8329711999395365  0.5843193555925784  0.0001215218299434
  0.4988309804624242  0.7518856106517823  0.1039801235141159
  0.8338688991026793  0.7516978070599856  0.1043562913590874
  0.1655308319669560  0.0815517653833437  0.1566468266711717
  0.6680241530699630  0.6656324629464290  0.2088100165827018
  0.1675867154091418  0.9184652992556278  0.2088077171786570
  0.5021360997003407  0.9175444317544321  0.2086902516609103
  0.8330929884279999  0.9176969720263952  0.2081934876312966
  0.0001546636606024 -0.0003591076505439  0.2603118434034640
  0.3308587553893941  0.0001602811625884  0.2607433612180340
  0.3322213537696673  0.6651743873389058  0.2085961220962970
  0.6652373932460796  0.0001546526898031  0.2610247935103902
  0.5016027651694708  0.2480497558616392  0.2607236392452399
  0.8336329032762354  0.2488517461775257  0.2606371675594001
 -0.0009115560813687  0.5021440061822302  0.2608061478406194
  0.3350695634128884  0.4993272395398290  0.2601591147312957
  0.6681382308341045  0.4993544926130438  0.2603509531399005
  0.1682313150747857  0.7507844805786762  0.2604035889757898
  0.1686498068078390  0.2501367663734675  0.2601909900091851
  0.0013260418778624  0.6657783748136376  0.2087048790455061
  0.8357778907653807  0.4180229922914235  0.2084920167316693
  0.5017165297651613  0.4157315539632100  0.2087356092028295
  0.4979719035812905  0.0835386479704704  0.1560826136602971
  0.8309206026098644  0.0851714683136880  0.1563783703160876
 -0.0016429461813005  0.3333501166073620  0.1568293426078102
  0.3355428909398848  0.3339564663471283  0.1563418247929280
  0.6649625315027964  0.3325416023317449  0.1562317420083420
  0.1645428620752792  0.5812406373675595  0.1565246430421496
  0.5013529902104162  0.5827942280849084  0.1559491850535122
  0.8345298417965816  0.5836907479332593  0.1559275772247705
  0.0022498861788002  0.8334530087006570  0.1563545530526526
  0.3336762530618264  0.8350396612433552  0.1560590340384610
  0.6641411595658567  0.8354419594707955  0.1567132178387418
 -0.0011817691360470  0.1689202831230273  0.2083349988164506
  0.3307510017612073  0.1657218808732510  0.2087047052356842
  0.6640803652046025  0.1656217180048819  0.2083232907711071
  0.1655967858119491  0.4144299717581693  0.2080677186955258
  0.7669232469028018  0.8494790929647581  0.5737171946779969
  0.1000558219247086  0.8478768619276321  0.5737039099128602
