Cu
 1.0000000000000000
     7.6685730419681093    0.0000000000000000    0.0000000000000000
     0.0000000000000000    8.8549054201611881    0.0000000000000000
     0.0000000000000000    0.0000000000000000   40.0454546774459672
 Cu 
 144
Direct
  0.1690105452063282  0.0839435165070974 -0.0004829087360657
  0.7324464155137435  0.8158381979250495  0.3648825751772620
  0.2330970826463662  0.0684830331318913  0.3653128470182138
  0.5686904985528834  0.0658669264624278  0.3645348870970904
  0.8974035290049814  0.0655714689854177  0.3649321115778753
  0.0683002702990733  0.1483349364347372  0.4172316324572600
  0.4018425780500187  0.1493604393730925  0.4164524348420733
  0.3996520880258614  0.8154757514898374  0.3644093315676692
  0.7354722681159647  0.1502172578200042  0.4169536270010330
  0.5692744989125561  0.3985535428159023  0.4170154666684922
  0.9010758788538780  0.4007418338690649  0.4167599008971901
  0.0675616307615112  0.6480075891929903  0.4168008464826321
  0.3980637594599578  0.6504857422270217  0.4173643406981618
  0.7339209468209664  0.6513613328179274  0.4174497845470647
  0.2329987019557129  0.9009615077875478  0.4169847620992590
  0.2316870389395919  0.3991800702225067  0.4167825192543586
  0.5674326649930568  0.8986957231638111  0.4168079676566240
  0.0654218683543581  0.8185264381453091  0.3643849050144705
  0.5645546833666120  0.5663997254488542  0.3646669781188780
  0.8975184577877308  0.2332978077871212  0.3131158153743048
  0.0663230166939817  0.4834912622385897  0.3130424518783511
  0.3978382425775232  0.4847324368407711  0.3128783399463631
  0.7358200754583970  0.4838933541242291  0.3123704574348193
  0.2322691425601470  0.7316870851523931  0.3131537615716088
  0.5648537677660327  0.7314292023741753  0.3130507625618845
  0.8979217384467241  0.5662289499612823  0.3645416306427501
  0.8995325568711088  0.7342727938532621  0.3127531910616597
  0.3993656889487993  0.9854311483865711  0.3130073951134291
  0.7347722356972218  0.9837591274674842  0.3127913167068226
  0.0681295115793751  0.3184880962521263  0.3649320669925872
  0.3987532037783621  0.3165166012049226  0.3645226845761392
  0.7324370950173517  0.3150162477293932  0.3651479117269249
  0.2359188054352660  0.5684256505002490  0.3649941425289842
  0.0651403200106804  0.9832786418732177  0.3129857728507351
  0.5656510863136485  0.2352295654442049  0.3127631940246240
  0.9004617853398548  0.8996108326704094  0.4164804282096642
  0.5647468907338046  0.2352758985705063  0.4691175125578711
  0.7356754427927367  0.8182712516603958  0.5208264324412226
  0.2313930270544370  0.0688577088552778  0.5216354573601722
  0.5659541979036764  0.0661751626636358  0.5207463749988283
  0.8989637473676489  0.0652587810605539  0.5211208563145946
  0.0647110085387713  0.1479350448519814  0.5730868451778359
  0.3982475149106127  0.1495409671876226  0.5737521056916016
  0.4025906799893038  0.8145027624910175  0.5210678368973365
  0.7312862379196984  0.1488771902139732  0.5729288124184123
  0.5650880611639698  0.3997044470728032  0.5736225880830548
  0.8982446576893471  0.3992464616329448  0.5735763825729646
  0.0664652477799642  0.6515781248559861  0.5732534810117753
  0.4000279282076255  0.6490307240093613  0.5733867812424263
  0.7314410718948750  0.6505600219104116  0.5728350054778424
  0.2332133974780576  0.8995217462774512  0.5733243956396652
  0.2357319271894447  0.4013778643882311  0.5729971847488665
  0.2313720641677609  0.2314601505973155  0.4689995082899910
  0.0642812279108351  0.8167410630913182  0.5212123590112752
  0.5668763459007331  0.5679478788457328  0.5214020668732776
  0.9003296356182118  0.2335921083241394  0.4692012627299588
  0.0658038415988637  0.4830998921560734  0.4691319623705715
  0.3999009021459307  0.4818137046564989  0.4692359037861442
  0.7330960584936967  0.4821542994953162  0.4692701262726426
  0.2353162008845716  0.7331661474518613  0.4693228510218990
  0.5656180887503570  0.7331661836966236  0.4691770646340822
  0.9006684319971444  0.5677510314207864  0.5216445862789773
  0.8991316715812860  0.7344945429543651  0.4693020536222980
  0.4015986927471449  0.9840496249356001  0.4686529554334786
  0.7332759704376604  0.9832839027640057  0.4690749380382207
  0.0670516121531383  0.3175484235614408  0.5214743950593336
  0.4021063318289642  0.3152243142545698  0.5213493596159632
  0.7341126121322372  0.3151780860864168  0.5212878169388570
  0.2326734541181021  0.5670925448921862  0.5214938336093979
  0.0663892357512898  0.9826286098796650  0.4692498483211671
  0.2325538780208316  0.2339800600958881  0.3129773531626509
  0.8343326323822848  0.7485965776302170  0.2604464881390625
  0.4975571779666190  0.7501159020711472  0.2605470952795353
  0.3325668626385727  0.6647037883143939  0.0521391914528359
  0.6691570702973751  0.6688966581625700  0.0517808983096949
  0.1683209396130324  0.9154345302331198  0.0517355779597848
  0.4987046365919507  0.9176893401415913  0.0521114078693780
  0.8343117267746074  0.9168453062732695  0.0524572700947428
  0.0011261932208044  0.0006680112944437  0.1044858144975269
 -0.0010195320980112  0.6685825470631968  0.0516469941310315
  0.3310761524162341 -0.0020842708747695  0.1039360804789268
  0.1643464539869342  0.2519221479208145  0.1039383799408865
  0.5019918367330806  0.2478463276600443  0.1045639131349816
  0.8320695530265957  0.2484433819944954  0.1042587701685199
 -0.0009633137555382  0.4982835545204901  0.1046490033543117
  0.3325135457196854  0.4981395036150024  0.1044121375261101
  0.6673063233781360  0.4985566847090941  0.1040653098132038
  0.6646802606565386  0.0001395590688383  0.1044791184008849
  0.1683124824442825  0.7498149565112321  0.1040249387218267
  0.8345844915051572  0.4169479235905859  0.0517267826087932
  0.1681238838975142  0.4158977128131714  0.0518223242913928
  0.5001885845835209  0.0826522459261424  0.0001609719749506
  0.8322156197553106  0.0812072331388303  0.0003480273583804
 -0.0015592952228632  0.3344887543779826  0.0003607597726549
  0.3331569319061244  0.3346407864972104  0.0003912737765662
  0.6655421868496167  0.3317149662463975  0.0004943633292001
  0.1670751841983155  0.5855029020030396 -0.0000623318207342
  0.4977856617657265  0.4183940252792947  0.0520895503122109
  0.5014718487526613  0.5842839264397747 -0.0000879915748655
 -0.0018202574860064  0.8346424890591644 -0.0002842413809622
  0.3356593267831916  0.8353583679087551  0.0000530224083154
  0.6655824743132480  0.8339285344644201 -0.0003092758657010
 -0.0016940152939801  0.1682533892048974  0.0524533915995080
  0.3313279724585645  0.1689170009100451  0.0518521197989510
  0.6659074614760578  0.1668814208615827  0.0517509333424887
  0.8356585489344824  0.5841881845781915 -0.0004792625314739
  0.5003844791717919  0.7514353268419115  0.1039144091299018
  0.8314950130322930  0.7482406534761077  0.1043804651296972
  0.1679408046375061  0.0825937737117402  0.1563678855375497
  0.6667179253355520  0.6685962216096536  0.2087239887553482
  0.1667630441279732  0.9153711737544806  0.2082478921633737
  0.5015757651679177  0.9175737705802889  0.2086180993781673
  0.8313828611662060  0.9148963224025044  0.2087274561896500
 -0.0000690871425840 -0.0021588469009652  0.2602880595969560
  0.3330623065925025  0.0019050153355066  0.2603839488932142
  0.3320895202224209  0.6683685395164991  0.2083626751918550
  0.6674375198004240  0.0017833899462953  0.2608426426768080
  0.5010352131831817  0.2508565520489730  0.2601650597661769
  0.8317885408174368  0.2482972234541286  0.2602301205557544
 -0.0022139126579148  0.4978026079250751  0.2604844568254613
  0.3354400696255709  0.4990638844476514  0.2603053988836804
  0.6665969130831111  0.5012704904319231  0.2605235204009491
  0.1676993190657624  0.7480762090152959  0.2609815088011846
  0.1660049824172740  0.2491564825356542  0.2601258594782770
  0.0003433216889621  0.6644521113330633  0.2086802182077637
  0.8331885988716951  0.4155638449473608  0.2082255924362723
  0.4977880539736452  0.4167961064833502  0.2083244631403783
  0.4980476784488972  0.0829076546031263  0.1558946480319947
  0.8345225696506808  0.0814161492377880  0.1561900323621001
 -0.0014072266283281  0.3338122084608339  0.1564419054634638
  0.3315615562525933  0.3311214861507871  0.1564360953986733
  0.6643098421602704  0.3321747416072414  0.1568209526108327
  0.1677312115107034  0.5841432440538861  0.1566526701496475
  0.4995583696547876  0.5855387767540030  0.1559441264971243
  0.8337505165678574  0.5827370183864586  0.1568350810033437
 -0.0003303440414273  0.8353393136021620  0.1561671255408867
  0.3310131737531448  0.8331211411381296  0.1558899980678973
  0.6656505620195926  0.8354492962304486  0.1560999693601542
  0.0024906269292381  0.1676999198536678  0.2087352106284441
  0.3349415554690010  0.1687326946374132  0.2082996349429509
  0.6648420348103274  0.1676840950864544  0.2088673149837929
  0.1667009919879125  0.4166316276262086  0.2088012479989245
  0.5684941809084508  0.8984284327737787  0.5729094616217759
  0.9025815500459765  0.8997899588317717  0.5728238194726832
