Cu
 1.0000000000000000
     7.6685730419681093    0.0000000000000000    0.0000000000000000
     0.0000000000000000    8.8549054201611881    0.0000000000000000
     0.0000000000000000    0.0000000000000000   40.0454546774459672
 Cu 
 144
Direct
  0.1648555049540558  0.0816678933161772  0.0002650086811689
 -0.0013155732746238  0.8677258685283412  0.3644627008967373
  0.4975283016872192  0.1158863059538926  0.3645239300080472
  0.8316933940162980  0.1149920402821167  0.3649195957467171
  0.1666975789606915  0.1149077076782816  0.3650785403383700
  0.3344882447469014  0.2012662538717251  0.4169440123663624
  0.6644171495543655  0.2008900186119537  0.4174445766202369
  0.6659354639767178  0.8647812065321313  0.3649486607879951
  0.0017292225093281  0.2010955400269234  0.4172154496800695
  0.8325226870372423  0.4513663706742411  0.4169934388239002
  0.1676530246401947  0.4510198398380024  0.4164758795557510
  0.3353037549185783  0.7016886846844308  0.4165330031936461
  0.6651782330677584  0.6986075620991855  0.4167708121158023
  0.0008181412791375  0.7007054513248935  0.4167480926785425
  0.5015703980786015  0.9487204545160791  0.4172510994142492
  0.5010283494830237  0.4495149942999917  0.4171772659011143
  0.8307992849462219  0.9505744388540168  0.4170269759541828
  0.3320246840480088  0.8678112877821059  0.3644259240995515
  0.8317863515170962  0.6159535037134202  0.3648338532865557
  0.1683296606679579  0.2825469252487264  0.3124936706977881
  0.3343476765817278  0.5350200623816704  0.3128586445521428
  0.6645785638842461  0.5326559200158675  0.3131906451916623
  0.0005950687969928  0.5353449290273424  0.3129861285914861
  0.4983751981520607  0.7853989948086820  0.3124729937380729
  0.8341615018343063  0.7827087474008002  0.3129898566631987
  0.1687471229132314  0.6183070629428798  0.3646089435612551
  0.1678520664381380  0.7846551514243705  0.3124651872578957
  0.6664316052266437  0.0341556382498032  0.3130968493197299
  0.0010839915765856  0.0313903198967869  0.3124550450699568
  0.3330780540132010  0.3650614908234903  0.3652741552890794
  0.6682711440481471  0.3676368478226736  0.3649164588935040
  0.0022302285159930  0.3645898541968629  0.3648618408182178
  0.4995762618966238  0.6168003198429342  0.3652958235455344
  0.3329457450748082  0.0353348490734674  0.3122546705588105
  0.8354059275598511  0.2837036288748511  0.3129189172446763
  0.1673203619615952  0.9481790613446359  0.4173005903136348
  0.8335819012731359  0.2844138072805910  0.4691840758098530
 -0.0012020597780547  0.8650305404741944  0.5207521262711645
  0.5016711505325319  0.1144865754653198  0.5212015644201112
  0.8328722260483318  0.1151752868476082  0.5208804463610781
  0.1665999462803501  0.1159441471532583  0.5211122135070168
  0.3332609403033161  0.1997569910308408  0.5735062049056817
  0.6677550695125556  0.1995233465541647  0.5731960188586406
  0.6660670524641498  0.8655815470613524  0.5207386955103739
  0.0013140991993868  0.1996548021221405  0.5736366605965031
  0.8317346977673655  0.4493953120476816  0.5736062745488912
  0.1673046015032205  0.4512421977009522  0.5730480172476289
  0.3352808166086074  0.6995904616327744  0.5731007700396725
  0.6675686430055683  0.7006223588033024  0.5735103511794502
  0.0016795981446500  0.7002012267064689  0.5735637105477202
  0.4995218570654806  0.9511587992357494  0.5732507667917998
  0.5011238250439158  0.4501473460129403  0.5729023053365736
  0.5002984278681581  0.2820952806745763  0.4694324317495415
  0.3311175415648820  0.8667178173926614  0.5209616561441839
  0.8311999885370074  0.6184641556185813  0.5216526583501302
  0.1667703610019984  0.2854937156683380  0.4692349728209060
  0.3340499534008901  0.5344968420974602  0.4689663049607625
  0.6654582460592412  0.5341127579571551  0.4687830121267497
  0.0006633636203274  0.5349032838728721  0.4693201925528941
  0.4978121761602758  0.7848690869643773  0.4686953904317611
  0.8308126297310451  0.7817567540874064  0.4695385708856510
  0.1688163201331908  0.6180496092825110  0.5207040269041359
  0.1650484054912470  0.7835661258383591  0.4687554157379389
  0.6647254270804408  0.0347346138349708  0.4686001102973537
  0.0023681374616926  0.0352419493021407  0.4694607029698750
  0.3308863981510367  0.3664670057361453  0.5214737518891919
  0.6672301181139704  0.3662328251840530  0.5211561014517756
  0.0001335687260091  0.3688870741349858  0.5216822383383810
  0.5025524743424611  0.6144491505013188  0.5211012530805466
  0.3330590882203612  0.0321828325832994  0.4687225563260413
  0.5023561671806313  0.2818182078315726  0.3123932266245121
  0.8328214736550725  0.7479037838323984  0.2601609088621991
  0.5012130631091877  0.7522359547901027  0.2600965900548513
  0.3357871570361149  0.6668033944326495  0.0518194936579412
  0.6653331185860378  0.6656672565584690  0.0522568295760261
  0.1692482072322676  0.9147801211868659  0.0519759626198493
  0.4989474848857355  0.9179800051060752  0.0523113758691326
  0.8334211431149432  0.9163881001808721  0.0524595976561888
  0.0012070823891044 -0.0020360331616272  0.1042765143821674
 -0.0022241946855863  0.6665282880084820  0.0523200997363456
  0.3346295500779853  0.0011037815474396  0.1042028948451638
  0.1676114770546397  0.2498009990840246  0.1039384886498016
  0.5024583184144239  0.2501656613792950  0.1045309129502972
  0.8346794477442762  0.2509265343620352  0.1042833058139385
 -0.0005976392245506  0.4987611608832760  0.1038371469511015
  0.3331527769120942  0.5008938606865903  0.1040809125507029
  0.6656547733281513  0.5019726081220059  0.1045057141952211
  0.6680084908980344 -0.0000064053551816  0.1044283818322613
  0.1642289493094277  0.7516195529256883  0.1045253166127686
  0.8316327394434796  0.4167568637665419  0.0524271503754908
  0.1691612059397741  0.4181483761030623  0.0518585063129486
  0.4985485543634246  0.0840052652653387  0.0004913282861416
  0.8355811188518590  0.0820736156796199 -0.0000288257317016
 -0.0005899046767371  0.3332154536131589  0.0004082822302341
  0.3351676530679087  0.3322156291672568  0.0003661551524450
  0.6687598592373478  0.3320156823921329  0.0001190162833968
  0.1644127204983972  0.5826581801915033  0.0002142470404241
  0.5018498624174884  0.4154765960008153  0.0525445592210602
  0.5002547836949400  0.5855228402399640 -0.0001237521524492
  0.0016015453056715  0.8343848885478560 -0.0003461912860248
  0.3326126794320726  0.8315958709420379  0.0001942226212790
  0.6690771131724856  0.8341911236007776 -0.0000917706042757
  0.0025471869141118  0.1652415597350156  0.0519082021765374
  0.3336151832779983  0.1671914705358639  0.0520635735968539
  0.6670215188574177  0.1672978692688003  0.0517238718410577
  0.8322553990740705  0.5822012669325406 -0.0004708671093407
  0.4977949608453697  0.7493084161965625  0.1041904648155154
  0.8320634752839395  0.7517392917041180  0.1046970737393866
  0.1640731640829431  0.0815585556304254  0.1567128169327608
  0.6671343128471241  0.6649306380919923  0.2080722249054121
  0.1668160329857392  0.9166474238959452  0.2088220978673349
  0.5014830845163859  0.9166453936077508  0.2081469608200662
  0.8345812902696242  0.9159897998727017  0.2085613929792112
  0.0004986599317829 -0.0011103267493141  0.2605375336712670
  0.3323270833234374  0.0006737105634001  0.2606158879846032
  0.3325575069355627  0.6645522411814603  0.2087116734723944
  0.6658171521813298  0.0020985463040587  0.2609220977134725
  0.5024772080312755  0.2505275682347320  0.2607835472151444
  0.8338553959121746  0.2502192572803956  0.2607410488799354
 -0.0008300003056898  0.4989657047908573  0.2602682268128477
  0.3338654181874159  0.4981444511871367  0.2609989424386158
  0.6671948634085103  0.4991437946157349  0.2609169510992630
  0.1672707757289155  0.7479958716805453  0.2606258288616491
  0.1644046061661644  0.2485608313827729  0.2601793471850513
 -0.0013842953817562  0.6647241221297244  0.2085214935608884
  0.8333862832546746  0.4147801674944304  0.2081111293730617
  0.4990950990532959  0.4161763327072770  0.2088718267598520
  0.4992691585312830  0.0824711256652708  0.1561402958745436
  0.8308707890570947  0.0828634377495813  0.1563287011599742
  0.0005183510240871  0.3333293036194093  0.1568184031305811
  0.3354418187102733  0.3326574617642702  0.1567886538655982
  0.6685557948859957  0.3346979018615387  0.1564405042183065
  0.1659715890001477  0.5813790083429035  0.1568123073510347
  0.4989676197512391  0.5822220967640929  0.1558731813146240
  0.8311741735128078  0.5823215714359589  0.1563547232536538
 -0.0011537002156037  0.8330624260034157  0.1560802857147121
  0.3341023279552860  0.8353806678665501  0.1562165866168755
  0.6689289690386324  0.8311095004051617  0.1561231527211648
 -0.0004003399526230  0.1665754072348933  0.2089666161539329
  0.3315222370683341  0.1648933139603856  0.2081093787257950
  0.6657948934867379  0.1645068742626873  0.2081731717766037
  0.1642617006119259  0.4149780807446852  0.2081987675049094
  0.8310298427496263  0.9488390838820885  0.5733139401013082
  0.1644097034451670  0.9504361286943351  0.5731436818492591
