Cu
 1.0000000000000000
     7.6685730419681093    0.0000000000000000    0.0000000000000000
     0.0000000000000000    8.8549054201611881    0.0000000000000000
     0.0000000000000000    0.0000000000000000   40.0454546774459672
 Cu 
 144
Direct
  0.1672598960838370  0.0813696927133065 -0.0003530568951851
  0.9329606577491140  0.7144089139686097  0.3648257446108910
  0.4348393111530124  0.9681098549508339  0.3646039547727694
  0.7643687231706401  0.9665926663916580  0.3653234265899267
  0.1023145110899615  0.9672652021091908  0.3650837412937693
  0.2677200060877639  0.0494006182365125  0.4172428870628196
  0.6006786976641748  0.0480509119215924  0.4166769314525648
  0.6004413929977255  0.7169526665238597  0.3650238715892743
  0.9317475506969864  0.0504645926230065  0.4167939729354541
  0.7681635142301956  0.3015947368897446  0.4169705395889565
  0.1005675938798459  0.3007951205883948  0.4171636088668711
  0.2659613292891328  0.5486079340698997  0.4164961126869860
  0.6024774409395838  0.5503040341846084  0.4169889527988084
  0.9311854389574500  0.5517098373227465  0.4170077538951343
  0.4330090705852551  0.7995893245409074  0.4169452800041226
  0.4334292595483383  0.2993495951153270  0.4172297246785844
  0.7654353298693001  0.8010491490276043  0.4171006363689046
  0.2672314959542778  0.7149960738675549  0.3646056239442662
  0.7648792851839914  0.4678768279749384  0.3648288801340510
  0.0985331611730156  0.1321081602496074  0.3127244002269792
  0.2665912362442394  0.3829854456278570  0.3129697291496946
  0.5976040436328625  0.3847508410435494  0.3129848370398686
  0.9323987698341434  0.3823980711897539  0.3127342847220604
  0.4346713810040768  0.6349300319582593  0.3128499351857906
  0.7686044555291892  0.6334698166816828  0.3131624386904643
  0.0976413049668943  0.4673335175665059  0.3648954829379006
  0.1013016294701938  0.6321300865247165  0.3122934020851115
  0.6004555320414494  0.8833508161174505  0.3126443995857587
  0.9343797387661075  0.8814812667856619  0.3124648091305108
  0.2658172245833708  0.2187470065123672  0.3645645212165879
  0.6018841977734690  0.2172719329865634  0.3643949433836511
  0.9316590365864262  0.2144256921515929  0.3652029496856906
  0.4353881311642179  0.4685681009031868  0.3646067815571393
  0.2651630807007728  0.8825295896948387  0.3125687754840241
  0.7690567955533996  0.1341626829559379  0.3126844893004633
  0.0997136494161848  0.8020225698797689  0.4170687294271773
  0.7680343231742597  0.1336555932373751  0.4689754004000047
  0.9309573743700347  0.7182686484080926  0.5212739022650650
  0.4353392163636270  0.9674216827159627  0.5216424595283243
  0.7656982575061612  0.9678224259128766  0.5216692235820197
  0.0977128625292136  0.9667239367143210  0.5207238206207375
  0.2685663941378800  0.0510567332984898  0.5733273101584468
  0.6009966383533398  0.0482407052983976  0.5735172019082745
  0.5990578519488895  0.7182332625038004  0.5215231133811964
  0.9350545246424147  0.0511093619061002  0.5728763080975875
  0.7666506802428650  0.3014719552543918  0.5734275201321435
  0.1003479248231252  0.3011562929878308  0.5737340358057844
  0.2686636303566455  0.5503130121779889  0.5730706807002122
  0.5987989212952771  0.5479538966737562  0.5734725338324418
  0.9347808246077577  0.5512696780518385  0.5733237223739099
  0.4321544349726105  0.7977520258766443  0.5735912803474135
  0.4356366872832912  0.3000878640227579  0.5729834760035916
  0.4345557176149155  0.1338600539081532  0.4690541874184064
  0.2681802438235268  0.7151822384848779  0.5208600441500734
  0.7658368598251073  0.4677664677974637  0.5210625680440069
  0.0979664237666083  0.1348496801269886  0.4694376764434381
  0.2661972788372022  0.3852743798134000  0.4694552553624098
  0.5989284092293978  0.3855130610621558  0.4692085338960598
  0.9313658899150942  0.3839971644169672  0.4689520423931550
  0.4328240802757185  0.6345329384784193  0.4695125015101446
  0.7663648500204697  0.6350594691530567  0.4692333718933595
  0.0995679433223734  0.4672246920822236  0.5213928121775968
  0.1012601220915913  0.6351955757731170  0.4694177703675628
  0.6009677290416203  0.8825016523027814  0.4690575572484804
  0.9318127772593880  0.8845400931062353  0.4694138889731728
  0.2665307994829645  0.2173933106050216  0.5213418342086229
  0.5994185492270514  0.2174285473223129  0.5211581747301646
  0.9307842633483403  0.2171638023691077  0.5208717893864658
  0.4355502592560335  0.4645329353676851  0.5212859671378444
  0.2640883312313476  0.8825001802680453  0.4694008455265674
  0.4325077992645516  0.1322764887105751  0.3122179110760814
  0.8327479710366863  0.7519297585092747  0.2602352585778289
  0.5013823139507042  0.7504343008401834  0.2608059492659737
  0.3355501506465546  0.6646176883996517  0.0524650043032875
  0.6658543717567287  0.6685564540451466  0.0516562288788716
  0.1679288640626473  0.9175516268462577  0.0521794355455172
  0.4976110478905285  0.9160592963623306  0.0524269454696222
  0.8339200817594841  0.9179918528546204  0.0522245114547622
  0.0011453248105262  0.0012271143502587  0.1044158769984813
  0.0007265328089941  0.6666387915683829  0.0517912010887885
  0.3317283602925850  0.0004429307929502  0.1037511983977014
  0.1667524711434085  0.2495462039856504  0.1039278392655047
  0.5002454368464396  0.2502228324089605  0.1044316193822168
  0.8344144779277857  0.2481067800035264  0.1043046113332464
 -0.0013455177929098  0.5010203940945164  0.1038972870752938
  0.3328288117234688  0.5015020226461988  0.1042725679709346
  0.6690157985346803  0.5002613092899775  0.1038107370182069
  0.6641408842047200  0.0008911629055493  0.1041046858816439
  0.1679352517110508  0.7511596727083021  0.1043372226785551
  0.8314048952593487  0.4164503948877297  0.0518210207120723
  0.1687766046160661  0.4154643650703440  0.0520088386839984
  0.4986072958232111  0.0855870592982210  0.0004678291255728
  0.8349470386672815  0.0823817050477875 -0.0002181830771104
 -0.0014305661783963  0.3312493067524539  0.0001809316514291
  0.3333668709408243  0.3314748937343429 -0.0002942772797853
  0.6648422470419693  0.3353501538931661 -0.0001423610675862
  0.1642609179695465  0.5849642659914062  0.0002235632668466
  0.4992276476609627  0.4164297896415206  0.0523791079639533
  0.5012209617815565  0.5830634441559598 -0.0004063176483429
 -0.0008059894121641  0.8311394385955775 -0.0002820130960655
  0.3310952850771067  0.8352186185590317 -0.0000708241003425
  0.6667669452349424  0.8324848156759013  0.0000680433079849
  0.0006295268259129  0.1668253510784573  0.0520235969210663
  0.3326809307148784  0.1682607948395396  0.0523043775165980
  0.6692519338577232  0.1667146919423751  0.0518106269802166
  0.8332567065909737  0.5811852254455424 -0.0004390284947256
  0.5003100764917616  0.7521937764434463  0.1041687035548814
  0.8352029936842574  0.7484029517819401  0.1041806645190374
  0.1687671080672869  0.0852623983874759  0.1568270592768465
  0.6691421339865711  0.6655988533315694  0.2087491932256787
  0.1684651570876878  0.9161920489996126  0.2086076646753168
  0.4975464761255168  0.9166277984430442  0.2086980292594783
  0.8330838552602491  0.9149479517569213  0.2080974879619409
 -0.0018802540957620 -0.0010940696811877  0.2605038495744390
  0.3330801710998930 -0.0006037024266602  0.2609807661708813
  0.3325763254236345  0.6666855798261870  0.2088195251511381
  0.6687473231974580  0.0002825893610771  0.2601484970640088
  0.4997909307604685  0.2483168228917576  0.2607666800474180
  0.8351612166574236  0.2512161837040999  0.2610160155704557
 -0.0011316736267236  0.4999059154728225  0.2605607861488294
  0.3344840197428373  0.4997901770416767  0.2603484868394382
  0.6661947590954845  0.4989858996039954  0.2602348033230100
  0.1674711250299722  0.7509882280154334  0.2604746119150813
  0.1669646634580052  0.2516420658907425  0.2605736416407546
  0.0012559299030330  0.6681654698695066  0.2084455565920869
  0.8320766398936765  0.4147267768805228  0.2084235076465113
  0.4996452452563902  0.4164239292602256  0.2086031202156576
  0.5014330934071743  0.0822628307698886  0.1560803982387650
  0.8319909685229171  0.0837612584764644  0.1567468200920390
  0.0014142615393445  0.3338829711473317  0.1563312968125917
  0.3346173742428252  0.3337389420425469  0.1563351270110676
  0.6647431255673409  0.3315920142581325  0.1566363514579528
  0.1657555071939847  0.5841688109175075  0.1568157295942584
  0.5022373127478327  0.5812895456137283  0.1559392439364710
  0.8344054381518370  0.5839080278747822  0.1562458804063919
 -0.0009112730413180  0.8341378344932083  0.1564773535851799
  0.3328023930278679  0.8330654185333197  0.1567395666645420
  0.6662170570445328  0.8347079181266763  0.1565311123195133
 -0.0000182775831949  0.1654240041182804  0.2084120951089168
  0.3356459307804209  0.1660377468732083  0.2082403682839783
  0.6665019945132896  0.1659981218177764  0.2085651783265512
  0.1663891744509183  0.4160638643387903  0.2089568000060598
  0.7662616793714659  0.8002491181260554  0.5734149044330316
  0.1022849025132611  0.8007261896747838  0.5729805645533379
