Cu
 1.0000000000000000
     7.6685730419681093    0.0000000000000000    0.0000000000000000
     0.0000000000000000    8.8549054201611881    0.0000000000000000
     0.0000000000000000    0.0000000000000000   40.0454546774459672
 Cu 
 144
Direct
  0.1646228476136748  0.0831326038910592  0.0004705118586353
  0.7318393734301387  0.7184896310930381  0.3649925316597375
  0.2335420310280749  0.9670157341237188  0.3645720850000774
  0.5655641351811498  0.9656335642693401  0.3649449658935780
  0.9003131222915217  0.9660658586752565  0.3650375397089280
  0.0687498707729299  0.0519869691585787  0.4172577357398479
  0.4003171730899697  0.0489308079515038  0.4165298782524988
  0.3984305713736786  0.7173868169149454  0.3646122176808609
  0.7339966925989088  0.0483996881878549  0.4164797602045744
  0.5677420706984172  0.2981710513413766  0.4166836719650466
  0.9011361062920175  0.3003750103966780  0.4169396910785003
  0.0662785455650286  0.5504341570841664  0.4173884856386582
  0.4019570919233572  0.5507896479499026  0.4173982391287896
  0.7312708221824498  0.5485405945212671  0.4165594000182323
  0.2356456628828136  0.7997002572201922  0.4171166480185592
  0.2322469610064786  0.2982220149284211  0.4164791451837817
  0.5646309171751590  0.8005387872065295  0.4172041014976078
  0.0643382323229427  0.7184657607445839  0.3649419494211870
  0.5653229191364402  0.4664885200091135  0.3645375416338113
  0.9008641737483127  0.1334222191182104  0.3125503979713374
  0.0678045001946947  0.3848234286727670  0.3128237426950168
  0.3996465125555935  0.3829627396743970  0.3127381656683786
  0.7340778454531770  0.3853875174446092  0.3130192596727367
  0.2315157809437219  0.6332138321424369  0.3132106334076448
  0.5676159429333810  0.6338128825887421  0.3127478239388048
  0.8993994134331810  0.4687304486784881  0.3653130689704759
  0.8986599584210592  0.6318520146144310  0.3129751517801981
  0.4011274914814785  0.8841388983708864  0.3122898109160697
  0.7357518723037101  0.8836212642808564  0.3123346259835009
  0.0648433032342337  0.2173888365651784  0.3648151992159276
  0.3978407666107541  0.2149243719581871  0.3643955490181893
  0.7308310688090207  0.2152437084747567  0.3652545856612175
  0.2331774988814815  0.4675576420430752  0.3652738726017472
  0.0667226510318816  0.8852908092977291  0.3128948663209639
  0.5641798741666881  0.1316665479920489  0.3131100247039606
  0.8979215539209252  0.7991883172692760  0.4165771938271706
  0.5668801709961723  0.1326392958821259  0.4692985846601684
  0.7314206093302548  0.7188459300497183  0.5212740921826220
  0.2337586208309239  0.9654719711201694  0.5210442456695892
  0.5644745492863459  0.9662970832484582  0.5211558428026890
  0.8976737504006566  0.9676894369853271  0.5211599409923985
  0.0671940036537938  0.0487467732704797  0.5731906708758796
  0.4018837169789421  0.0493096053453256  0.5730261759598094
  0.3982803648083759  0.7165237299922005  0.5211279003432022
  0.7312801907199074  0.0510799899370149  0.5729417002904359
  0.5652005242810419  0.3013279014472298  0.5734484542571323
  0.9015590929044610  0.2980931839041299  0.5728973804800092
  0.0667031845663842  0.5522430413096491  0.5736812610119710
  0.3981417671025068  0.5517174383784599  0.5737107587929536
  0.7343117553241906  0.5501394631583909  0.5736478642250584
  0.2333742269505349  0.8002826271598311  0.5732874201512660
  0.2311004440289038  0.3003648678526196  0.5734376056473122
  0.2353371464742628  0.1352065944638891  0.4692698834574138
  0.0665073103346882  0.7162113671859555  0.5211718463060524
  0.5644799326755180  0.4689193147894635  0.5216467367696167
  0.8986718094415893  0.1312710202488456  0.4689594768828730
  0.0677822783945217  0.3824602506422206  0.4688141140460027
  0.4004756930974301  0.3826922102745389  0.4685771534970829
  0.7331520806618803  0.3841872032877474  0.4693956966820541
  0.2346317457510620  0.6349337320023665  0.4692024955995518
  0.5655590894321939  0.6311293242254133  0.4694253444199994
  0.9016070371384164  0.4645220229829760  0.5208459374578465
  0.9018123978323846  0.6325233292847653  0.4689772613055490
  0.4016325716452833  0.8851102703222115  0.4689154386850168
  0.7343077506556455  0.8828215650254818  0.4690221280316058
  0.0662367495646223  0.2155859060608551  0.5210760286327398
  0.4002799322181471  0.2149744032517402  0.5209454176850599
  0.7319214783063862  0.2171972394530564  0.5216206783569700
  0.2335782227084263  0.4652663045185707  0.5212735817323439
  0.0646475661627072  0.8844949230223950  0.4694729251655724
  0.2308192285552905  0.1316375215815689  0.3123527016249550
  0.8357929068999721  0.7490371311848275  0.2610371959991749
  0.4991810428557036  0.7495800375744749  0.2602691546780010
  0.3341072970486978  0.6664316201482665  0.0516402894865339
  0.6687648118088800  0.6680878235976337  0.0521503362627573
  0.1674175838413347  0.9176574349656372  0.0522924871542286
  0.5000915877672075  0.9159876642775316  0.0521947023389059
  0.8329908956619241  0.9185687084805767  0.0521305283479482
 -0.0020738029810760 -0.0011341907106561  0.1038598277442173
  0.0001798616739841  0.6671577846235381  0.0516300958673916
  0.3334855093966520  0.0019083718638651  0.1045332335817610
  0.1663355874896099  0.2522273083214778  0.1040356962618258
  0.5002992072258186  0.2519735439672709  0.1044338813451908
  0.8352771048672597  0.2480817147546435  0.1038282618448042
 -0.0000345406420962  0.5014421521697409  0.1040670144383964
  0.3355999136316274  0.5009712108588378  0.1037582793468623
  0.6664214581860147  0.5017632896453039  0.1037833657399595
  0.6648984908137121  0.0012677676780891  0.1044997171179262
  0.1660852739018512  0.7492957954215891  0.1045295944380912
  0.8313568162356074  0.4184479459784251  0.0520492246177868
  0.1666032184515200  0.4148055256266742  0.0516755307366674
  0.4999497993036661  0.0825791689525707  0.0000444676872257
  0.8314291898983900  0.0833947438154710  0.0002907278074132
 -0.0003498204346298  0.3336616443392832 -0.0004161078653532
  0.3350194650208230  0.3328182335745282 -0.0003499622567250
  0.6687401923694326  0.3317658111702384 -0.0003966554437529
  0.1649180294109494  0.5837493275890154  0.0001931479068491
  0.4983257613802847  0.4163705090280727  0.0524401723984618
  0.5005482588027016  0.5835682223346353 -0.0001222393096929
 -0.0009342672240027  0.8351997666314414  0.0001597111007676
  0.3338414472880193  0.8343280951478227 -0.0001641405841536
  0.6646400928987869  0.8334958574658663  0.0004775966592131
 -0.0008779287840924  0.1657917499575784  0.0517683277023292
  0.3310243073834553  0.1653357736520778  0.0518540422190798
  0.6692212890225574  0.1671362765145636  0.0521047335681594
  0.8324726427375889  0.5838663316473434 -0.0001096896143197
  0.4979166262879119  0.7514756761256641  0.1038260703191776
  0.8330948753938899  0.7516649658662893  0.1041879657176079
  0.1686436251483183  0.0842222324926438  0.1561926139957161
  0.6690148651904126  0.6658961133820301  0.2081807190460939
  0.1659222371908038  0.9187195046520531  0.2082522644651201
  0.5009507293885254  0.9168788022736539  0.2080619525626318
  0.8335111841771368  0.9160310405215281  0.2084747496471651
 -0.0024711423895706  0.0020349974469803  0.2601800577247427
  0.3323760560043915  0.0021917401297499  0.2610676299298215
  0.3352084493229135  0.6686459478268810  0.2088621472417590
  0.6646002943039115 -0.0005551099669464  0.2610190916688217
  0.4978109839433647  0.2504506283800298  0.2605157669658458
  0.8354812905996319  0.2511862719855909  0.2608913687796046
  0.0002703780058360  0.4983414198356488  0.2604375412992964
  0.3342256158885214  0.5005670536727628  0.2609770415148736
  0.6691441960357277  0.5020612829588487  0.2602491910644106
  0.1655397969212621  0.7500563008726109  0.2606828009430558
  0.1661993664069212  0.2485886495810577  0.2606889196806524
  0.0025626053082609  0.6677118735264856  0.2087873578148942
  0.8309432313912277  0.4162236566265459  0.2083918659805972
  0.5004722174319505  0.4161611829706683  0.2083232071630654
  0.5010817361179513  0.0825054595628622  0.1562780532170784
  0.8359210881242376  0.0836513429187415  0.1567010908071213
 -0.0011199556340280  0.3318370376447200  0.1564953572707506
  0.3342993452474025  0.3316209473887193  0.1558685279437340
  0.6691096294067699  0.3320502696672152  0.1558685405559226
  0.1677439306762618  0.5835283082013188  0.1561413734733818
  0.5005589689240619  0.5854330015493165  0.1561450184122062
  0.8311845973797942  0.5843962094188030  0.1562123720154983
 -0.0009516060928630  0.8341830399655068  0.1559887341743517
  0.3319224770278824  0.8329847108459126  0.1563721482502516
  0.6660949594879023  0.8335333311050301  0.1567970752882611
  0.0009110735057734  0.1682922203140468  0.2088061025635953
  0.3313698690697992  0.1670425484117337  0.2083148370981366
  0.6665945905959791  0.1683992085969137  0.2088575976386118
  0.1685217154029013  0.4171874685246886  0.2081694941633062
  0.5681725387299793  0.7979552682685931  0.5731615459267611
  0.9014919100748082  0.8007448448861618  0.5734629189608221
