Cu
 1.0000000000000000
     7.6685730419681093    0.0000000000000000    0.0000000000000000
     0.0000000000000000    8.8549054201611881    0.0000000000000000
     0.0000000000000000    0.0000000000000000   40.0454546774459672
 Cu 
 144
Direct
  0.1662685211598721  0.0819949769233541 -0.0000248714816532
  0.6672988012940866  0.7159899763886702  0.3646957059752183
  0.1658270388666296  0.9673285985114980  0.3649124935549027
  0.4986976998810852  0.9684143791448810  0.3651461018671174
  0.8358268171376692  0.9666153672735426  0.3651217161955220
  0.0020703419472818  0.0516398195808103  0.4165295617069432
  0.3325177490097716  0.0511387954368214  0.4171928632053333
  0.3358071687014328  0.7175747930514034  0.3650431189918031
  0.6641213867128106  0.0482810748389540  0.4168797567923153
  0.5006011836950351  0.3006158560898213  0.4168004281564352
  0.8350668733735642  0.2994961438727373  0.4169519626028454
  0.0009411725035513  0.5515203207687555  0.4171151702965052
  0.3342837561818938  0.5497016752037932  0.4170212720963313
  0.6677326723137698  0.5485901294670452  0.4173038215833422
  0.1676918005925409  0.7979151144543990  0.4172222411073682
  0.1689797382652360  0.3016864043177743  0.4169475400196821
  0.4981963015669826  0.7997037010855231  0.4164657202067478
 -0.0008956121320943  0.7186259493157884  0.3647349327119573
  0.4985754002020760  0.4669451853079465  0.3650638574509974
  0.8356136789159220  0.1333683431025713  0.3125852608766636
  0.0001948319687109  0.3822015685038734  0.3130721692079344
  0.3344135238158596  0.3848566133284737  0.3129175098164113
  0.6669041082408438  0.3814989071928320  0.3127285299719552
  0.1671102111631484  0.6325488021907718  0.3130962998091641
  0.4991101572675724  0.6321175086334992  0.3128454676841300
  0.8334482817537029  0.4649549588317625  0.3649344476130619
  0.8337557328387415  0.6354800847507832  0.3129438460577417
  0.3335867538174120  0.8813908183975202  0.3126516909176401
  0.6669438742222484  0.8822815653487303  0.3127768410850394
 -0.0015872487709897  0.2160520660116453  0.3652572900521458
  0.3352133660830536  0.2184282155797571  0.3644419433614627
  0.6642972492694202  0.2177867151507906  0.3653263979464675
  0.1679132080684774  0.4657607036173840  0.3644709229060533
  0.0011886987316964  0.8829905088427499  0.3128016945889452
  0.4981976554251002  0.1324496270616330  0.3129402026234093
  0.8314170825443039  0.8016035150387825  0.4170086678277748
  0.5025316806588781  0.1318339759687854  0.4690889118284314
  0.6656336765477577  0.7182957607546793  0.5207680043393588
  0.1650365975008864  0.9672380551073714  0.5212742650489470
  0.5001270714491692  0.9682074401984041  0.5212834914960448
  0.8330040519079490  0.9663091105066287  0.5207318957018889
  0.0010986157277784  0.0519964256044330  0.5733897350639892
  0.3337610183159611  0.0501812392840764  0.5737636108970948
  0.3339631263992091  0.7153562118352710  0.5213592162453468
  0.6673794141611215  0.0484889120514163  0.5734609284816475
  0.4996687383675597  0.2992396693610767  0.5735334325930671
  0.8356524515853959  0.2992771446318277  0.5734894529614835
 -0.0003813247991917  0.5485699257212764  0.5728509081096487
  0.3328997485468826  0.5498833970608679  0.5734455381946810
  0.6690229502439055  0.5480414750501761  0.5737731482005589
  0.1651154423185254  0.7982856474861934  0.5730993283108456
  0.1666847888551355  0.3017036278883620  0.5731430014134783
  0.1649829044864813  0.1332386442955892  0.4689633394750877
  0.0000050108270167  0.7176645593774053  0.5212243235911015
  0.4979899071846699  0.4664838222342826  0.5210658717470211
  0.8358023333272495  0.1327083331342731  0.4691701263182443
  0.0017299612065315  0.3825745399303428  0.4694417596041982
  0.3324552489308850  0.3831399308371920  0.4695186572890891
  0.6670628948367321  0.3811751215733009  0.4690888569690960
  0.1646746806565360  0.6326871811628243  0.4693609716684101
  0.4991608033332826  0.6352034810968832  0.4694132212175565
  0.8338999753337517  0.4675149245675885  0.5214330071556308
  0.8315173509136297  0.6324453125989968  0.4693324967972780
  0.3321459110475972  0.8850430864418544  0.4687005433712789
  0.6686161504788084  0.8845324654709238  0.4689803821554670
 -0.0016501810426165  0.2145053071090209  0.5210792047211709
  0.3317692929434032  0.2154350462908605  0.5212566253904217
  0.6670532710197411  0.2171285926061219  0.5214242587398479
  0.1660130772111267  0.4670747592880948  0.5208576648320840
 -0.0003224681940060  0.8852969917063852  0.4686373443451434
  0.1665038202263419  0.1328016200057483  0.3130203853232775
  0.8307727079878671  0.7509755742845385  0.2610072132887224
  0.4978012245439592  0.7496419116140800  0.2607929075493581
  0.3337163478487929  0.6673531325260191  0.0524261610925513
  0.6653522578471573  0.6665479367030678  0.0516270013637152
  0.1646257262315076  0.9180744819514980  0.0525193168871203
  0.5019751755884261  0.9146832797747315  0.0523548225022211
  0.8323731927931476  0.9149326506342255  0.0521305658780584
  0.0024401923902469  0.0000934248194845  0.1046255259973236
  0.0016455344030045  0.6680640150240387  0.0521174309427837
  0.3354485928120463  0.0002104512431653  0.1042040327576184
  0.1642738656960944  0.2520132493564534  0.1046493523114291
  0.5015002891984912  0.2511570667498171  0.1041739948526421
  0.8308521070408675  0.2501162177044940  0.1042104520631114
  0.0017186174445798  0.5009644097228469  0.1044086665274881
  0.3349463968823116  0.4978958377188144  0.1039112816886445
  0.6641934664443374  0.4988181250312745  0.1040378905497087
  0.6662893303663657  0.0012640999062345  0.1038329166683671
  0.1670957493926255  0.7507182958093868  0.1041540771287267
  0.8320455754077656  0.4184231714674999  0.0525957607048290
  0.1657230007607474  0.4187995431663302  0.0524372625349694
  0.5024106098906472  0.0830260638294204 -0.0001624284212615
  0.8359334694206789  0.0846115806560610 -0.0002795773341743
  0.0005161303843044  0.3355424029972818 -0.0000484040055955
  0.3312496286364356  0.3333976196899353 -0.0003368521468905
  0.6653158946938006  0.3332116925314317  0.0002319988399518
  0.1684509440564342  0.5835904988190755 -0.0000975709203626
  0.5002142988465108  0.4171266290989827  0.0516761198339304
  0.5018421118562132  0.5849062500255366 -0.0002453227859660
 -0.0015637219358158  0.8317767611396720  0.0002119526566916
  0.3318573838325783  0.8311064690817731  0.0004564569162866
  0.6643399199898330  0.8315836765038760  0.0000755355015173
  0.0017062795791954  0.1679360586655351  0.0523954104819526
  0.3332232172407067  0.1665230522996970  0.0521605977954469
  0.6673155833088887  0.1677130816988699  0.0524195193692056
  0.8337951546296503  0.5849855790217935 -0.0004411600453326
  0.5025490003147621  0.7502888072896496  0.1037727951170074
  0.8320826193265235  0.7516563234074638  0.1040722426726907
  0.1676920257775840  0.0826515352924038  0.1561743649878627
  0.6661822233625214  0.6650477327620635  0.2082089730498426
  0.1680152368133411  0.9169452424026368  0.2083348022570515
  0.4977279125835855  0.9149869042368530  0.2087746560716434
  0.8354842152142258  0.9172995360166536  0.2085510992301736
  0.0011141186024290  0.0019790518087868  0.2609614880590838
  0.3332973405158938  0.0015148725267301  0.2601256397315140
  0.3335404415770586  0.6667029906114113  0.2088829405093746
  0.6681656112818223 -0.0020147889293556  0.2607746411144123
  0.4996866591639192  0.2487056628105832  0.2602513982362418
  0.8312002861462791  0.2483513483890412  0.2603931699197782
 -0.0005751233959568  0.4999305929507063  0.2605146281635724
  0.3327890488084680  0.4997968613442618  0.2608538623455544
  0.6677568333055491  0.5015257066059541  0.2605297738566158
  0.1649447616720459  0.7494122912764070  0.2606083496885953
  0.1669789799503755  0.2507836977386660  0.2609577313811308
  0.0016472692990186  0.6663398728673366  0.2084242250806923
  0.8336746649182412  0.4188177416901793  0.2084050720733837
  0.4982499218423476  0.4167390595591747  0.2089379846205636
  0.5002077838196023  0.0851017849727334  0.1567222197654931
  0.8325972025095374  0.0836185862810899  0.1564772071949450
  0.0000796850635886  0.3351288653884308  0.1564674283723083
  0.3348792814287368  0.3333884053110483  0.1564581971033928
  0.6649653898960933  0.3341598782438234  0.1558797334245770
  0.1692565048863742  0.5817112248133099  0.1564520157251637
  0.5008668694292325  0.5838593933162041  0.1567148774072598
  0.8316888026595248  0.5818690284335609  0.1568530365379324
 -0.0011765371611477  0.8329190072989237  0.1564483148930273
  0.3328318175958108  0.8344444864015546  0.1568022358653289
  0.6690348816386258  0.8339301210532837  0.1561082178175770
  0.0000805216354335  0.1658756087148693  0.2086785735311721
  0.3315169965642565  0.1684172342316353  0.2084894621936344
  0.6681726361957521  0.1671753832562391  0.2081231194692893
  0.1672463507073286  0.4185972491070384  0.2085061004058208
  0.4976367111484116  0.7995304144032817  0.5728837350752281
  0.8351101198006440  0.8008731506048297  0.5728640782307268
