Cu
 1.0000000000000000
     7.6685730419681093    0.0000000000000000    0.0000000000000000
     0.0000000000000000    8.8549054201611881    0.0000000000000000
     0.0000000000000000    0.0000000000000000   40.0454546774459672
 Cu 
 144
Direct
  0.1656184252732855  0.0853609191022374 -0.0002331868977449
  0.7347626619988928  0.6689030093033901  0.3648008464077325
  0.2333424474950803  0.9161838881555974  0.3649905814328552
  0.5668674846943254  0.9187963128705000  0.3650520187548557
  0.8981211911460922  0.9184481845620142  0.3651610093117061
  0.0643875614718824  0.0018335177357399  0.4174291796151245
  0.4014908259528299  0.0020098705731646  0.4169514741511029
  0.3982096835977729  0.6654422415189662  0.3645661816783159
  0.7355153321203748  0.0015565836943847  0.4172392074469066
  0.5672493553687085  0.2481455084952753  0.4173290307335595
  0.8999059187894122  0.2516411991103695  0.4171548657722469
  0.0656639971217421  0.5019115258331712  0.4166312579201598
  0.3997294116800052  0.4996276762403486  0.4168837700943035
  0.7350659046856048  0.4986409396255616  0.4168591614494711
  0.2328077152089672  0.7511806454956005  0.4171902487673840
  0.2346801530688403  0.2520955200151473  0.4167950932338811
  0.5692560545729431  0.7516605003634375  0.4167690864429233
  0.0684152968267959  0.6658791656592810  0.3650554353762731
  0.5642746873988771  0.4160771722319798  0.3647137546824336
  0.8987213965285393  0.0839205410326373  0.3128380739615449
  0.0671580105163468  0.3329626727028955  0.3123434865234864
  0.4000391858914601  0.3317200369928352  0.3125208489413848
  0.7317969245086060  0.3315059523208635  0.3124904923719161
  0.2331173245984421  0.5822544586088368  0.3131263722745027
  0.5655651052967553  0.5818665479179073  0.3125878804213290
  0.8999262673087262  0.4182234175653891  0.3652948327648825
  0.8978283052312571  0.5852433344763444  0.3128996971398986
  0.4026002412622948  0.8326006435936546  0.3131596185004603
  0.7311146832610583  0.8349027595767303  0.3126728391204843
  0.0667676960289444  0.1659275791608486  0.3648110171427324
  0.4008734559866576  0.1684526741803287  0.3653163435218262
  0.7355415121329539  0.1673698259474264  0.3644032150996663
  0.2308728387639415  0.4155460322129351  0.3648611120480869
  0.0661026540258154  0.8354803292182675  0.3129636103572554
  0.5691185061990112  0.0833408731650393  0.3128931865525053
  0.8993156989999254  0.7515880915568048  0.4168186279297831
  0.5680446196588668  0.0847213193309165  0.4694029251547233
  0.7338448497065128  0.6654634735554732  0.5214814461340291
  0.2314022883082527  0.9171253346216606  0.5209872824158703
  0.5670662823003308  0.9154594420780819  0.5209450028114700
  0.9018331880674080  0.9167763931118387  0.5209327713531927
  0.0651107305233821  0.0007310589530992  0.5731309418915068
  0.4013985886610683 -0.0005955265514296  0.5735334906097410
  0.4025762250455892  0.6683469230150381  0.5216801462729647
  0.7337402179792629  0.0005888410889657  0.5737874797284306
  0.5643267330186468  0.2497590972181188  0.5729313875198678
  0.9022260657077773  0.2488124569108847  0.5736138210209624
  0.0687779692709882  0.4990702076529605  0.5728397645001407
  0.4024376284457674  0.5002405765481673  0.5734174827152771
  0.7313083698220652  0.5019969916509006  0.5733861241959884
  0.2342785377183556  0.7499949080692163  0.5730390664357153
  0.2347532112845638  0.2492793428561946  0.5731416567428007
  0.2346750619847830  0.0836979406680095  0.4686051092673953
  0.0686423114673132  0.6674444405866908  0.5213348206190096
  0.5666637917037858  0.4162340702033276  0.5212439049578116
  0.8980007143384410  0.0848391534063657  0.4693804415085568
  0.0688718080084527  0.3352509813212303  0.4694286836744159
  0.4018642033492633  0.3343086412919771  0.4686051411196751
  0.7348843255334565  0.3341359577602802  0.4694826071465848
  0.2318752005575282  0.5826379544714531  0.4690375270757884
  0.5641616469697868  0.5841157511045960  0.4690866815448406
  0.8988642603404516  0.4152057001259037  0.5216165989596896
  0.9015138567131513  0.5835751513231042  0.4694859132228925
  0.4008649199160507  0.8316955595815219  0.4686629593341161
  0.7336778343182975  0.8353871964741862  0.4688750335439560
  0.0641264609965065  0.1686326574592269  0.5216105724937212
  0.4012858571315132  0.1658251257205297  0.5213738693583921
  0.7309280444881473  0.1675668540037491  0.5214222264326084
  0.2339052281665778  0.4152628549660208  0.5206891532342058
  0.0672729311072343  0.8323628949200618  0.4685951506684385
  0.2316405751205900  0.0836054773305997  0.3130910845219017
  0.8326772117486573  0.7490123970745106  0.2610212371649545
  0.4974988764743343  0.7501633894585743  0.2602426303425112
  0.3331958797126643  0.6668437522242532  0.0516219279726331
  0.6682233465709130  0.6650495301027060  0.0517404310962076
  0.1656830539394226  0.9180726304817537  0.0519268293834542
  0.5022480318814047  0.9168574909480027  0.0517023045798354
  0.8307598272499623  0.9167200671990179  0.0517752809032118
 -0.0018288473176401  0.0013136496885340  0.1045763051561771
 -0.0005098656735136  0.6645938939328160  0.0518226131134593
  0.3330472058657873 -0.0004662730367332  0.1041929462497866
  0.1642062986824024  0.2506540838661570  0.1040951901592236
  0.4987880863149361  0.2496995005819214  0.1044646328410804
  0.8323415168943512  0.2517805233332414  0.1038469494238841
 -0.0004392282177367  0.5012416273154287  0.1040578824908503
  0.3314749130501130  0.4987954379309233  0.1044046803138300
  0.6667297174802683  0.5001665331452728  0.1037442533201825
  0.6642102440412940  0.0011506958727757  0.1043956095771295
  0.1643727898566263  0.7491857114720279  0.1043051581255405
  0.8358408878922350  0.4152103827692378  0.0521405455461189
  0.1667587325525141  0.4165721701771848  0.0516789112520362
  0.5003257963548067  0.0812583400918639 -0.0001372779532062
  0.8323461519186656  0.0811738128663303 -0.0002721835687994
 -0.0002776556013410  0.3333751579211098 -0.0002993488937158
  0.3346887912970173  0.3314720344476205  0.0000223680097850
  0.6675493496860097  0.3348782186836437 -0.0001760480142945
  0.1645861166519062  0.5832326826294600  0.0004678116052557
  0.4997196980999980  0.4159201570915170  0.0521236130399473
  0.5005941648431569  0.5816871901504981 -0.0002868498911747
  0.0011354853364890  0.8343588052176671  0.0003581854446451
  0.3324508057185575  0.8326669115588554 -0.0004821098770800
  0.6651180034134037  0.8312458064916933 -0.0000842023801653
  0.0024820432953639  0.1667186974397251  0.0526114504834248
  0.3346888328858377  0.1687433213287791  0.0519630152679746
  0.6677226588702345  0.1666416416321883  0.0521618596049137
  0.8328527715170011  0.5817099203921759  0.0001618032184683
  0.4994250043705205  0.7485590170359004  0.1037962951342884
  0.8317947172287929  0.7488370982880364  0.1039097786472464
  0.1671254430697731  0.0828915642581675  0.1560829337283317
  0.6688284954120877  0.6653466158242110  0.2087401167010034
  0.1688188465071224  0.9177121182560699  0.2088927219190785
  0.5017285614433807  0.9148237419603280  0.2083665954839218
  0.8326363409586143  0.9183807459772546  0.2088323538310151
 -0.0001214871668321  0.0006504479027145  0.2605772027362221
  0.3316830407556000  0.0014440206000390  0.2609698727474284
  0.3344285613763728  0.6646278017034467  0.2080752999057829
  0.6649198684529107  0.0004837311320652  0.2601875870021795
  0.4998641019287811  0.2480116206272219  0.2600993769669998
  0.8318185758885700  0.2478850553112080  0.2602048006224911
 -0.0023592550177663  0.5011754291232923  0.2609955069646963
  0.3313032393265370  0.5020714861606963  0.2605876468453868
  0.6682505052626012  0.4981230911678544  0.2606393229440861
  0.1662416884435691  0.7509249766111489  0.2603925834628340
  0.1651860102729397  0.2513295634931973  0.2610879506156919
 -0.0006610257981506  0.6678250034529730  0.2080520653468469
  0.8334352689966958  0.4153448574439805  0.2081415937654381
  0.5011050703695162  0.4173380732305705  0.2088455180376856
  0.5017240572162871  0.0854928468063946  0.1562024069705098
  0.8322331541357435  0.0830090818123868  0.1559553340923160
 -0.0015221391524647  0.3344681042341813  0.1558800192682973
  0.3326522469865312  0.3319829251024340  0.1560792237723764
  0.6687038691213950  0.3347499018300423  0.1562082902871818
  0.1661812090974174  0.5834498201282845  0.1563542023994004
  0.4994565238281519  0.5844402634374161  0.1560848405509345
  0.8325255417060528  0.5849632940730766  0.1563018740943812
  0.0011664905136311  0.8319008339168741  0.1565762827112274
  0.3336203481861408  0.8335025253817016  0.1561825737019083
  0.6668411447727713  0.8327476685026635  0.1563878489018207
 -0.0008474881810408  0.1667446573764531  0.2087113063913130
  0.3335509436202780  0.1644145020769374  0.2080984974750933
  0.6653757372575628  0.1672354123256159  0.2086957773134306
  0.1681665329992940  0.4182292695248800  0.2084371726334225
  0.5650032264602467  0.7495727075729023  0.5729920468171597
  0.8985726446980344  0.7519884178058959  0.5729815931050902
