Cu
 1.0000000000000000
     7.6685730419681093    0.0000000000000000    0.0000000000000000
     0.0000000000000000    8.8549054201611881    0.0000000000000000
     0.0000000000000000    0.0000000000000000   40.0454546774459672
 Cu 
 144
Direct
  0.1686944721278675  0.0854144904125794  0.0001579331413712
  0.6669998588910754  0.7649677997914868  0.3651495150183556
  0.1689237047890039  0.0184493126964357  0.3648700910237518
  0.5008939753233119  0.0170812084093044  0.3649915444936123
  0.8308805103461856  0.0169683707191221  0.3651624231223575
 -0.0024972515599669  0.1015403550930883  0.4170269366880309
  0.3356914991816464  0.0998006497934233  0.4167129492601778
  0.3345456051021874  0.7659171370436738  0.3649385894482989
  0.6664153587515960  0.0999826381054548  0.4168081751573475
  0.4994175980950789  0.3498383634491619  0.4170598489408801
  0.8336607351075549  0.3521619766556296  0.4170235630467419
 -0.0009390550005363  0.6014919846447639  0.4168255076593458
  0.3336589426687922  0.5986990386641005  0.4165704347432747
  0.6678313680730158  0.5994439553082793  0.4165549267208071
  0.1660483425034569  0.8486435833979785  0.4167984766828044
  0.1688890014370047  0.3489504891166729  0.4169298659902176
  0.5019475685565554  0.8494052746509434  0.4174108714004674
 -0.0020167936711998  0.7650238986537119  0.3650846171779915
  0.5016828685442971  0.5169622819984566  0.3652008873579342
  0.8312196576534393  0.1812885913170128  0.3131754680978164
  0.0013781328864690  0.4313374746825200  0.3122606774321639
  0.3349216158631447  0.4354698366318830  0.3124217451861808
  0.6642107370744712  0.4327808801247293  0.3128811935276497
  0.1655257990777604  0.6827293310220344  0.3126638912279358
  0.5010287615569594  0.6846934034324298  0.3130577406461606
  0.8351704379933852  0.5169479611703854  0.3647150200589291
  0.8332978247860038  0.6818778723492966  0.3126978156445465
  0.3324258054965996  0.9353938878894063  0.3129737709854357
  0.6654584780304462  0.9323937743693393  0.3125686368652890
  0.0001154660683366  0.2688737090303039  0.3645664037391354
  0.3343750332144626  0.2680994580395243  0.3649257845035707
  0.6669889615077370  0.2650759021898251  0.3643553556755794
  0.1686894523548951  0.5152098427288241  0.3645647685400377
 -0.0003304643095198  0.9342921878350258  0.3131026207587069
  0.4981452949380583  0.1852830888301440  0.3122726900805358
  0.8338537939095584  0.8492508604527506  0.4172441942814851
  0.4995518381695564  0.1835661096548324  0.4690967238946683
  0.6653536339032918  0.7674483808266482  0.5207518652904086
  0.1649994544066136  0.0171614623273963  0.5214626764072272
  0.5018992256823790  0.0182954396425781  0.5208944911915228
  0.8334324813179624  0.0168226038316392  0.5211351403616897
  0.0017589873217757  0.0988850661876425  0.5734694773641043
  0.3338510611066986  0.0978581387480845  0.5732004713019782
  0.3345708188991302  0.7659871482455570  0.5214072273620757
  0.6676620304929667  0.0979947905286455  0.5733406423395661
  0.5014520956873995  0.3521251898722010  0.5731346497233715
  0.8323022282332898  0.3519363802531472  0.5729548570057774
  0.0015181774035453  0.6020687082687597  0.5731768081511859
  0.3315960366089967  0.5998367199091367  0.5733152363875528
  0.6654041753799796  0.5997351070322550  0.5735153386175622
  0.1671128217669437  0.8496250164917800  0.5729992479543594
  0.1657175447599586  0.3485536870457518  0.5736845245303588
  0.1658865224130796  0.1825228062852357  0.4687471887931580
  0.0012767762640868  0.7674401258912329  0.5215922958755693
  0.4990396646005624  0.5161725709937540  0.5215078661661847
  0.8339103096476361  0.1843139730263548  0.4688672081865206
  0.0002034321592296  0.4315891041736122  0.4692134175708827
  0.3359341497514804  0.4351526831173005  0.4695212830488688
  0.6645630212470635  0.4341196674500788  0.4692554563141186
  0.1666269229998536  0.6831875702036707  0.4688489938092032
  0.4977059984764061  0.6829849551065797  0.4691779368015129
  0.8343073248625498  0.5164786168928175  0.5216539041272985
  0.8338954176674522  0.6833280073469932  0.4685878434523318
  0.3342410484992668  0.9327939247813263  0.4693171896806923
  0.6651496060896825  0.9340486908050717  0.4689772148729747
 -0.0010786936687037  0.2645885578153986  0.5210128699436399
  0.3348351113260803  0.2684525092024492  0.5212436651947990
  0.6645345186715208  0.2644391174437492  0.5213357627780051
  0.1650512852318927  0.5154489266079862  0.5207539196979177
  0.0008027872165413  0.9352002694520619  0.4694420724965444
  0.1678217096357911  0.1839775196811753  0.3131196625137957
  0.8340128290153361  0.7490168578983136  0.2603295903194375
  0.5018143130103057  0.7510858283011954  0.2604025794606701
  0.3356709416925362  0.6685108294387705  0.0521234113060082
  0.6673074390732691  0.6688732669492992  0.0523969893325647
  0.1676089037316759  0.9146259981768455  0.0522969327528159
  0.4997380090532607  0.9174198395571532  0.0521580743648180
  0.8351999300753300  0.9164516760570185  0.0520200972931650
  0.0001790558421042  0.0021845921063401  0.1038538030380871
  0.0003469181762170  0.6674825968316798  0.0524961876981942
  0.3343976907093274  0.0001768761215359  0.1039817229092592
  0.1653977356456881  0.2513655623843480  0.1039373384268920
  0.4978904783775784  0.2510325205221967  0.1043015632724162
  0.8340584884415622  0.2500698945311417  0.1046380815357152
  0.0014801761510996  0.5021306423865517  0.1038074298546181
  0.3318350372828163  0.5008838759383566  0.1037400023371629
  0.6668020284175507  0.4990780072434364  0.1039562521847918
  0.6666707250873130 -0.0007061743684445  0.1039550160181845
  0.1659386960910711  0.7510654426607425  0.1038214355815720
  0.8346384091450918  0.4164548412122954  0.0516874774854054
  0.1649958942585291  0.4152270904436544  0.0517566313497569
  0.4981809210010978  0.0842030072751868 -0.0003474826513836
  0.8324219902818684  0.0818499858691918  0.0003959892667804
 -0.0007566847155695  0.3352923960664054 -0.0004628808000632
  0.3312885427035502  0.3329223362084868  0.0003285194187823
  0.6646109853811246  0.3331307498929779  0.0001142555854622
  0.1647489580101556  0.5814860526098508 -0.0003080864631734
  0.4979138702166676  0.4155292751357864  0.0524990851604727
  0.5017609896085078  0.5853946687821064 -0.0003631628126060
  0.0003656152565480  0.8336639583972784  0.0000441433020513
  0.3342735456980679  0.8330624362410907 -0.0003660040072486
  0.6657036436628534  0.8345592217378692  0.0000934721126595
 -0.0017849698486429  0.1656172078221704  0.0519148952697534
  0.3328780151130471  0.1673352207125153  0.0518425824690269
  0.6683015958286339  0.1655401762376783  0.0520774787144391
  0.8354287070232836  0.5821926630380176  0.0002630459869655
  0.4985808061150605  0.7509700932779378  0.1046895757255214
  0.8352438599771219  0.7516037301372892  0.1045376055706365
  0.1678362834733400  0.0823129731316584  0.1562857958294699
  0.6674327463840455  0.6658958850949568  0.2082554926115746
  0.1663855783305237  0.9167414467124043  0.2080504184136875
  0.5015313464066892  0.9180267050334182  0.2080370248086557
  0.8341125663689180  0.9175912666618713  0.2085173718310116
 -0.0005067796309165  0.0005369190790612  0.2608223695858032
  0.3332469679640686  0.0003146077525621  0.2609270925305455
  0.3320784591929601  0.6664347366228456  0.2084080084880101
  0.6653717930190411 -0.0011032288362476  0.2608678595330288
  0.5008261657801161  0.2519256623267804  0.2607013849746701
  0.8330693203236523  0.2481478073525521  0.2604109074320248
  0.0006144744839437  0.4995033365272463  0.2606893003029916
  0.3332350977484570  0.5018395396526337  0.2607812652380474
  0.6691301887809444  0.4982668336916495  0.2606703416953103
  0.1646040352132648  0.7488628951246664  0.2604955856622570
  0.1679653229741844  0.2521500741117577  0.2604340359036720
 -0.0004754146141250  0.6653798899520902  0.2080803401477117
  0.8354121486711050  0.4180978945427399  0.2082112665026442
  0.5018575285162282  0.4152846601948882  0.2084415542435126
  0.4994565601288661  0.0832133169717410  0.1566420081218663
  0.8335460315314924  0.0843593528909672  0.1561364712620805
 -0.0025055258854493  0.3345730464722650  0.1568152137376414
  0.3357210190083966  0.3328748357906347  0.1559499082961539
  0.6675779682337931  0.3320472988170134  0.1566011512994529
  0.1641056205735577  0.5834677084765562  0.1568354960212608
  0.5009385426820536  0.5831968642125850  0.1558791347121932
  0.8352406401190653  0.5854506703192718  0.1559139009217295
  0.0004917052968374  0.8354460303686186  0.1560974229677932
  0.3310607086278883  0.8322434965787273  0.1563152119096040
  0.6665128764372485  0.8324805927579858  0.1559417338684276
 -0.0003238340815077  0.1684523009346741  0.2080854268338518
  0.3354349757802864  0.1681351644315601  0.2081341276375928
  0.6680561330707937  0.1681619356445711  0.2089580424088380
  0.1680446913094926  0.4158501132915847  0.2080061952085146
  0.4988261643132448  0.8478251512174934  0.5732825824168032
  0.8352549225960855  0.8509684401296134  0.5729594592469677
