Cu
 1.0000000000000000
     7.6685730419681093    0.0000000000000000    0.0000000000000000
     0.0000000000000000    8.8549054201611881    0.0000000000000000
     0.0000000000000000    0.0000000000000000   40.0454546774459672
 Cu 
 144
Direct
  0.1664339919446878  0.0842586300905600 -0.0000102381622902
  0.7980303678860802  0.9149992455571538  0.3644221870391996
  0.2981002561717661  0.1674303147252451  0.3646998775945667
  0.6337515545347233  0.1688021426776171  0.3652699945218815
  0.9691085929404136  0.1673886680129509  0.3651668463799614
  0.1319870872976317  0.2489911329096798  0.4172814649846865
  0.4657414837937157  0.2500397608449909  0.4172141547423718
  0.4685461112982870  0.9159917846024780  0.3643484988606268
  0.7987928960617026  0.2488301841420700  0.4171241194133393
  0.6357745089005720  0.4998259404291648  0.4171354965167493
  0.9649331650892394  0.5007518274664750  0.4164786966935732
  0.1316998568257828  0.7498505167787830  0.4173316148336810
  0.4651110700550832  0.7518751630644123  0.4174018764828041
  0.8023016816166560  0.7489557735811903  0.4168117095564072
  0.3009610185243158 -0.0000331995289911  0.4173494531207851
  0.2987265196514743  0.5009861216936652  0.4171406766550659
  0.6316578077852192 -0.0008050401383914  0.4170622502092921
  0.1330487005174791  0.9166256341967413  0.3643333711381282
  0.6321032911427410  0.6654248869984933  0.3653304662289569
  0.9648464020648397  0.3314579534784476  0.3130955691991652
  0.1308738326222100  0.5814171403142916  0.3127211288358560
  0.4665492390220006  0.5835835572332634  0.3125052670266096
  0.7989893449358518  0.5822882051752046  0.3127771232137591
  0.3010810424762679  0.8334920804658059  0.3127919032441002
  0.6327735937258137  0.8318554058133396  0.3128582073663865
  0.9669879091063521  0.6675992209265671  0.3650135186676957
  0.9642964404042669  0.8330117467082664  0.3122768829623905
  0.4676718874689898  0.0810816694187114  0.3126286618202318
  0.8020433540723382  0.0843330324532723  0.3130156251430822
  0.1333694021478975  0.4171008352870720  0.3645074815812682
  0.4646999917487913  0.4156628360789536  0.3652362066039950
  0.7996733386608826  0.4174377953372584  0.3646956235009934
  0.2999164943947460  0.6646647686337995  0.3649402749035588
  0.1309955525171748  0.0824484101972719  0.3123333057639598
  0.6328779816546174  0.3312171598570181  0.3123874162753079
  0.9680416818423302  0.0010755551085516  0.4164918089803800
  0.6325694905502006  0.3327107506711775  0.4690485971507051
  0.7992417884493999  0.9180880646301299  0.5208049266693578
  0.3024046862659961  0.1654580002994556  0.5211363829949752
  0.6339985494934491  0.1672005102755316  0.5215440739639025
  0.9677762055727571  0.1661137444624418  0.5209167670880531
  0.1316413559203293  0.2510221211787763  0.5729180959834784
  0.4641293253076508  0.2481635023156833  0.5734638237476098
  0.4649184250318748  0.9174697507054255  0.5213598150058968
  0.7994105408279560  0.2507990790759732  0.5736790604404369
  0.6356283376807781  0.4996630456506170  0.5736934036213212
  0.9690715807693264  0.4992916385952761  0.5735289288030030
  0.1346985051620504  0.7522371644929580  0.5733000332041550
  0.4652017006386450  0.7498417426233610  0.5735608189745428
  0.7985821429544775  0.7493371148457918  0.5736191618206072
  0.3009387060224866  0.0004152211222391  0.5736653449642528
  0.3025869318657666  0.5001538012204074  0.5732023744280211
  0.2988738117823339  0.3348204800909845  0.4693019493542031
  0.1345007452117927  0.9179495696206974  0.5209728346699229
  0.6339089532560940  0.6676754865925064  0.5212277847380352
  0.9678099438093528  0.3328124703749605  0.4692383702699669
  0.1317714515637176  0.5821336583611407  0.4689052118566481
  0.4676492478090175  0.5836847401972538  0.4692671958812927
  0.7993911415185655  0.5846729776175462  0.4694754674673254
  0.3021758740237610  0.8351221884071282  0.4686761350221948
  0.6327785517393054  0.8337509164440838  0.4691918870600135
  0.9682593800252649  0.6651404457255167  0.5208996055796620
  0.9687773859052458  0.8352561108398439  0.4694854440863278
  0.4650481868057887  0.0840673786982087  0.4690797133879278
  0.7980870197156126  0.0849988260949403  0.4690020782741038
  0.1319107760858322  0.4185690110030401  0.5212830136653959
  0.4655812555141651  0.4154761457016583  0.5214167604984939
  0.8025536023505506  0.4169091632261949  0.5210666682906596
  0.2997894039062694  0.6682907286371784  0.5215337124875292
  0.1337960319981489  0.0832808352905422  0.4687434035041613
  0.2993311623747857  0.3339131643134475  0.3123157673785526
  0.8309405708644866  0.7488354897898182  0.2608997523608350
  0.5025828639100081  0.7509886293759770  0.2607703159365773
  0.3316374826282579  0.6664447962771249  0.0526158402758155
  0.6667071042556674  0.6661248508431186  0.0521837570715311
  0.1664842287893379  0.9152965006413495  0.0518434269672150
  0.5001782520486190  0.9170846846029920  0.0523485747395609
  0.8357903338142342  0.9187377440333462  0.0526083948522818
 -0.0017143894123123  0.0019143985083951  0.1046083593204103
  0.0018247184645112  0.6685598006804975  0.0516599252562874
  0.3356050921711659 -0.0009892573045332  0.1046589084828805
  0.1641550536661789  0.2482303172148883  0.1038793532975755
  0.4982697069322902  0.2481851677091743  0.1045740290993869
  0.8315747023531126  0.2493873782061050  0.1045390804605490
  0.0015977506971978  0.4991334661239576  0.1043913410195353
  0.3315476066162468  0.5005210704624274  0.1046339891643498
  0.6679160500597847  0.4979586731846383  0.1038337519571619
  0.6642075670653871 -0.0005735017876644  0.1039421812888567
  0.1659304675976254  0.7510941222924304  0.1044935867526519
  0.8323639298208286  0.4154078924601536  0.0516589306331851
  0.1678159953489935  0.4171845458166830  0.0517279321469842
  0.4992113452929460  0.0822901727068540  0.0002662367560970
  0.8336002564503612  0.0854123442711228  0.0001615538766594
  0.0009081482025305  0.3349225043649915  0.0001800144495346
  0.3309009900044821  0.3310834091291460 -0.0004709775860899
  0.6668447877237244  0.3317806970423957  0.0001104592750619
  0.1688387556241082  0.5837170427001571  0.0002799727116163
  0.4985040993583756  0.4184021407019255  0.0521866902535494
  0.5010203150147902  0.5829165070743842  0.0001652564277114
  0.0024971063087266  0.8327444840982881  0.0004850044716942
  0.3357319106159979  0.8350694995936291 -0.0002783375833593
  0.6680950787444063  0.8319376648766971  0.0002039248375673
  0.0024489673060861  0.1644116079734043  0.0522283659880172
  0.3315564229812054  0.1677521858658785  0.0519619603284228
  0.6654700044036254  0.1646631086666307  0.0522300449978663
  0.8318046693864214  0.5838062280203314 -0.0003321522996488
  0.5021508132584013  0.7504491537750950  0.1045537104499669
  0.8338734268507959  0.7518218346094084  0.1044389529739208
  0.1687766124479606  0.0847154390750790  0.1559409815190010
  0.6647552673766642  0.6686290974902013  0.2088776574947973
  0.1672162135762755  0.9166274618787924  0.2088828061337426
  0.5020256267403327  0.9181599546067756  0.2087614629188465
  0.8355648316197045  0.9160806653404610  0.2087089971929982
 -0.0025167304357709  0.0002105760511478  0.2610349507151558
  0.3334831855235906  0.0000121731112715  0.2601040223269590
  0.3309206360119488  0.6674856314847399  0.2089716131732665
  0.6651574803423280  0.0019095071743603  0.2607552215570846
  0.5023641001205179  0.2484338141020610  0.2607794467424508
  0.8314109737012488  0.2495912841003071  0.2603430669619853
  0.0000485164783921  0.5019426167867912  0.2603363005743929
  0.3324567280232784  0.4990739049335767  0.2607087349749367
  0.6645977043307583  0.5011464040678217  0.2601180153237956
  0.1648411047427783  0.7506075294074457  0.2608062361798057
  0.1665757336464305  0.2483763090675231  0.2606477794066419
  0.0018187048828122  0.6668821731088911  0.2085361771150670
  0.8308985644134870  0.4169310223834805  0.2089688856241680
  0.5012118711224275  0.4160425199191030  0.2080510131257732
  0.5002037173804771  0.0854808361748451  0.1564210960300884
  0.8309987242777154  0.0845174411857824  0.1565304430872190
 -0.0007608914541586  0.3336412956041111  0.1565454617976029
  0.3311546476274768  0.3353238156706759  0.1561688039216195
  0.6664580487990521  0.3311221752423723  0.1561477871114071
  0.1669326722856903  0.5829023278672495  0.1559540059907176
  0.5023232178856989  0.5849818027652691  0.1565786373730921
  0.8311853416682656  0.5854704113095764  0.1559650035415553
 -0.0003886504713400  0.8349361265780498  0.1564418474974676
  0.3338307460891717  0.8323406346955237  0.1566092983429758
  0.6648954687743416  0.8351018879996588  0.1568224872817843
  0.0022958597225699  0.1658443967060333  0.2086619486201192
  0.3345311184793054  0.1667578330527897  0.2082135813539358
  0.6647454627217236  0.1682605060637392  0.2079953397521340
  0.1689956644627872  0.4146416321061385  0.2089102818722802
  0.6319466611554168 -0.0000483008055821  0.5737720345996883
  0.9683892552989990 -0.0007912034690742  0.5731348035887931
