Cu
 1.0000000000000000
     7.6685730419681093    0.0000000000000000    0.0000000000000000
     0.0000000000000000    8.8549054201611881    0.0000000000000000
     0.0000000000000000    0.0000000000000000   40.0454546774459672
 Cu 
 144
Direct
  0.1678024555599706  0.0832604738213220  0.0003047306799534
  0.6687090831939336  0.9184787101435132  0.3645170526670291
  0.1680690534645366  0.1658525484225743  0.3647155941134527
  0.5018344048807485  0.1676179503797652  0.3644934447341715
  0.8324780988121763  0.1681947753123431  0.3648871974619641
 -0.0006492119028837  0.2505854182316201  0.4169972417471795
  0.3348253663892836  0.2477618167014901  0.4164803110273645
  0.3313455427318499  0.9147444435024202  0.3647693602439545
  0.6672833883641139  0.2503742833860413  0.4172686234468589
  0.5018840720101568  0.5006477886524767  0.4168799514349831
  0.8326383319630182  0.4995414866575433  0.4171211741882116
 -0.0025784411298662  0.7500002999874076  0.4173471259929963
  0.3349587021296694  0.7479330063133599  0.4167321442712211
  0.6663368419486315  0.7496889715813922  0.4165442443174496
  0.1691649422173939  0.0005959545364617  0.4165325576362663
  0.1654730404368393  0.5001171514823868  0.4169402943995797
  0.5017904024400720  0.0013801965647641  0.4166221173870576
  0.0013414256033724  0.9182238914755192  0.3649187449642240
  0.5008599375993994  0.6665031287626410  0.3650492821271411
  0.8317423269607003  0.3352092959308791  0.3130841108516243
 -0.0010844557083605  0.5831724864434960  0.3129298812100090
  0.3342072763356575  0.5838750664972182  0.3130395541296721
  0.6656645704424758  0.5844909340751618  0.3131230349544271
  0.1665820280637798  0.8346824359045175  0.3129759353272833
  0.4979445278902922  0.8336355938631349  0.3128100335844082
  0.8322529171364398  0.6679451365812582  0.3648193274893881
  0.8349219006166546  0.8329044085996160  0.3125829166012009
  0.3321594394690852  0.0814304151744106  0.3124300939497521
  0.6643329602144119  0.0847212525994216  0.3123545221755513
  0.0004758893409119  0.4168477778873927  0.3649971908353767
  0.3351960558934666  0.4166610285439274  0.3648309825722638
  0.6641344752213455  0.4168072349094901  0.3648189311924211
  0.1686588076910308  0.6655640999561921  0.3647444915986549
  0.0002275153658116  0.0834096258735150  0.3129997562816401
  0.5022977982347413  0.3348592267208533  0.3129222219442528
  0.8343267581489543 -0.0006274108884459  0.4167706079185223
  0.5001941962700591  0.3348193680372121  0.4688627369181438
  0.6656467093974233  0.9149545059213927  0.5213847138572840
  0.1660216360398516  0.1651802803122127  0.5210124739771794
  0.5019235434370397  0.1686129667488373  0.5214170139595994
  0.8355639840955776  0.1675067487937616  0.5210532537905288
 -0.0007159044413033  0.2496785427435282  0.5732825780202575
  0.3356951817509740  0.2479525345769859  0.5729783546517474
  0.3337473999379107  0.9154197501529604  0.5215732631515605
  0.6660887200693172  0.2501090792944666  0.5736335921890275
  0.5015655561819748  0.4985640171161858  0.5731916649976532
  0.8349840964225242  0.4999697667013053  0.5729741837808068
 -0.0017026911141713  0.7500524900337552  0.5732072904659478
  0.3312749115923374  0.7482487398858619  0.5732371285439056
  0.6682426771055291  0.7509652828560978  0.5728243033874767
  0.1679720780824621 -0.0015445749031344  0.5734956247777560
  0.1683777962616814  0.4990987403423818  0.5736643651635259
  0.1640628750935426  0.3353568811099013  0.4688648879040770
 -0.0011480116912666  0.9153345078081818  0.5209575308242814
  0.4999819726089058  0.6662060119021784  0.5209999996403453
  0.8353844036969701  0.3313128976582176  0.4689320770901863
  0.0011986853421189  0.5845332498595951  0.4686849082724954
  0.3328495243075861  0.5847004574798496  0.4686123882247730
  0.6654156284012190  0.5846632862639087  0.4695636296505979
  0.1657789266786449  0.8317245945834018  0.4687696717779273
  0.5020596862540573  0.8316303240934172  0.4688133069706197
  0.8332104780107843  0.6656430855783124  0.5212930488197662
  0.8359075254967052  0.8335814371495512  0.4691654878599691
  0.3319530914186273  0.0822571874159208  0.4688413954599909
  0.6649258291292603  0.0832860933012612  0.4688814307451125
 -0.0022705634497109  0.4154268376187556  0.5208925798463296
  0.3346855537796025  0.4174661073308753  0.5213650053517587
  0.6666150420226645  0.4175090647500782  0.5210370231683094
  0.1651163531783607  0.6677320377743349  0.5211200197157557
 -0.0020472792170753  0.0833585643125978  0.4686569998820213
  0.1662399973103362  0.3345282725839036  0.3129709986821850
  0.8336294024103499  0.7519606354333244  0.2608877118347920
  0.5018141335531026  0.7486379183819928  0.2606494539964251
  0.3341279743614537  0.6652694902286508  0.0521562208470958
  0.6687820991555193  0.6662126369688401  0.0518295467504994
  0.1657023158578499  0.9155006337218450  0.0521338156473740
  0.4998578730685082  0.9158295587948752  0.0517661343750840
  0.8355241960622222  0.9150127909549638  0.0522682248592501
 -0.0007187497106828 -0.0005900515258680  0.1038088167307909
  0.0009653592043030  0.6670242159140510  0.0524894544856980
  0.3347151208880338  0.0006039298884293  0.1043226660189379
  0.1643028182394725  0.2483685486296270  0.1047007851575001
  0.4990127829754065  0.2520820826624710  0.1041239238500239
  0.8311378102482451  0.2477941524847572  0.1040354601334112
  0.0011764491290816  0.4977698763514751  0.1040938188700708
  0.3357938022738424  0.4980882557526730  0.1038820443966310
  0.6685218208819912  0.4994860143964212  0.1042556607391544
  0.6683896985937781  0.0004984620426176  0.1047112455299512
  0.1676848773129896  0.7509310311541471  0.1045959026298478
  0.8342468356521551  0.4187211258826343  0.0522623481457283
  0.1666533759322798  0.4161930116256709  0.0524188343897081
  0.5020721639246140  0.0811505425552530  0.0000915874063795
  0.8333705382197846  0.0841598560790963 -0.0004960219433788
 -0.0007568556501036  0.3343408617554453 -0.0000337874423693
  0.3338356332893964  0.3340763340606726  0.0004050755543077
  0.6675551319273078  0.3319534013791922  0.0004485066609331
  0.1682525969161347  0.5817654435982547 -0.0001172118983471
  0.4985319013615694  0.4184024411788871  0.0519871536468141
  0.5003460369040522  0.5826644850950384  0.0001806774003417
  0.0022960596592868  0.8324966868536913  0.0001161437872811
  0.3353656077079873  0.8339127870075500 -0.0003890869543336
  0.6646076318709569  0.8339503346992103  0.0004272686590848
  0.0019638030602261  0.1655001406310899  0.0517863366945966
  0.3329103810890206  0.1657271436288314  0.0525788757277358
  0.6645935706667568  0.1658229108765591  0.0522283503142894
  0.8344395552389374  0.5819426721365588  0.0002903122788265
  0.5008137075096037  0.7477572726619529  0.1046432332279471
  0.8312849975113437  0.7503461579223888  0.1038198700077402
  0.1661349801238089  0.0833715543425738  0.1560297818285829
  0.6651976748241726  0.6664443239889706  0.2081891991907628
  0.1682189480712565  0.9175869992073126  0.2088207128190727
  0.5022198399656314  0.9164791239004227  0.2087385200881580
  0.8356324767203234  0.9163835560368512  0.2084779378142810
 -0.0005103121899716  0.0021265125813567  0.2606516060167103
  0.3358461364432797 -0.0019856766910798  0.2603257309903328
  0.3325933418051945  0.6665521980699575  0.2086548670227448
  0.6649651651950924  0.0014411282456965  0.2606920413550662
  0.5021223247153601  0.2516711840192953  0.2608012530939829
  0.8348267124893062  0.2496380950297430  0.2610029745603685
  0.0024694052939508  0.4995153309546493  0.2601622851373684
  0.3348780441339401  0.4993610239457287  0.2604003063015022
  0.6654585255603100  0.4994721715642272  0.2607629735688229
  0.1675613829833275  0.7518892519769329  0.2606347348757142
  0.1680089213256325  0.2515472925428296  0.2609333352742291
 -0.0009972817336417  0.6661976057489656  0.2083005054304535
  0.8318337775605855  0.4155179912914233  0.2081841009958082
  0.4980055952302805  0.4171721146671908  0.2081639714853642
  0.4978121314178544  0.0848085509706691  0.1559412478925060
  0.8351376977079517  0.0844274561102075  0.1563417534008684
  0.0018387006443171  0.3347090956813790  0.1561313045829317
  0.3319173314179562  0.3311828908172347  0.1567684243361339
  0.6685655057562833  0.3336932717165508  0.1564646987864899
  0.1679445165536436  0.5813813553443213  0.1566163589529773
  0.4992105183563947  0.5834277935379890  0.1561915668897195
  0.8311105481317624  0.5847679615187675  0.1564492074974765
  0.0021515474673501  0.8327132150394052  0.1561613452357471
  0.3355465132970339  0.8352830353921511  0.1562745222001233
  0.6678161593733868  0.8331628998023823  0.1563273950514823
  0.0009798264092125  0.1664530862921538  0.2085714124646345
  0.3316355880003213  0.1675354893953370  0.2089695020999475
  0.6679666457519599  0.1685293495114243  0.2080828985995314
  0.1673837544032103  0.4159402695122287  0.2082775278706199
  0.5019444450523707  0.0018308531360031  0.5737124568472898
  0.8331871613254581 -0.0020135513621615  0.5734600944009975
