Cu
 1.0000000000000000
     7.6685730419681093    0.0000000000000000    0.0000000000000000
     0.0000000000000000    8.8549054201611881    0.0000000000000000
     0.0000000000000000    0.0000000000000000   40.0454546774459672
 Cu 
 144
Direct
  0.1664917590814413  0.0821233210063324 -0.0001153755080842
 -0.0001795224925805  0.7169690829345765  0.3652280041625566
  0.4987783415534044  0.9662556264552820  0.3649799717400446
  0.8348311441521507  0.9654761269531712  0.3649950967554779
  0.1658589627676578  0.9662375505207829  0.3646715909644793
  0.3323074928340713  0.0505252682252918  0.4168577084706807
  0.6675053673764239  0.0516598875666256  0.4173022779771662
  0.6672995964710089  0.7163858030329795  0.3651619840030341
 -0.0015600657471469  0.0506099355741555  0.4165163221666372
  0.8341584257437088  0.3008294461493474  0.4165222672522909
  0.1663657043700730  0.2979568491048205  0.4164683528234905
  0.3340460538973180  0.5506081315793758  0.4167000226970666
  0.6679813068823172  0.5508990692284572  0.4167783776932417
  0.0004024420013338  0.5520888741484817  0.4172228713621421
  0.5014806987770116  0.7992483598535919  0.4173207895572715
  0.5013573801471117  0.2977664806705917  0.4172023173677166
  0.8316629316856016  0.8012527649971339  0.4173492490099487
  0.3359387201641799  0.7186987973765899  0.3649901387591497
  0.8358215481300402  0.4685887675669085  0.3645551443815609
  0.1679120575064235  0.1319261325758590  0.3127359851458063
  0.3330644272165544  0.3811963763606933  0.3127671155380636
  0.6658709896388310  0.3840199656681776  0.3130236627797382
 -0.0010098801276031  0.3827099392972529  0.3123846445483476
  0.4979018071159192  0.6314222791072112  0.3127105672262941
  0.8308531188061411  0.6327654891565078  0.3131627957079193
  0.1647847046282112  0.4665320850680870  0.3649187214854692
  0.1675758003800289  0.6355463753052778  0.3123536088270076
  0.6664794626100868  0.8843860487797299  0.3130805482556609
 -0.0023953530354681  0.8822539281431215  0.3131710872602320
  0.3350725322814960  0.2179991557517081  0.3645006317774021
  0.6643817369239809  0.2144809369402872  0.3646561248101402
 -0.0004703849454632  0.2184365045204279  0.3648027559259311
  0.4999713363840249  0.4676535813016746  0.3649207572384104
  0.3312466596954518  0.8854900956034403  0.3124920020373105
  0.8309259165630329  0.1349603367831737  0.3123770385990572
  0.1659738407271033  0.8010703068179338  0.4169704935798976
  0.8348763970090708  0.1318829323427345  0.4689095552571578
  0.0000427642536631  0.7179515005306083  0.5209395215694774
  0.5014839894324084  0.9683991349146004  0.5207475959223428
  0.8351005111346892  0.9679351545771449  0.5214515174081719
  0.1649347100677059  0.9687156981872468  0.5208957953893404
  0.3346964261451919  0.0509642262160291  0.5728082487552481
  0.6675038513200824  0.0478887782413262  0.5729984628369994
  0.6669771677282413  0.7181645583486810  0.5211548362067780
 -0.0006989202761915  0.0498733457285332  0.5737657567882426
  0.8334842600436921  0.3013700416708683  0.5729291513704742
  0.1688286608982498  0.3000060712859291  0.5736897207542790
  0.3336862406804140  0.5494961992005370  0.5733153883508914
  0.6642618236917742  0.5486387115976347  0.5729579105510658
  0.0010061502665700  0.5488858189023365  0.5738021168795079
  0.5016371096786207  0.8016446746329662  0.5728436723316950
  0.5000329988430052  0.3020443927368744  0.5729005870898928
  0.5025306092509754  0.1339760368585395  0.4694283044917372
  0.3330652164321977  0.7175155929632788  0.5212344265697121
  0.8314477826468537  0.4670220492413700  0.5216651654903761
  0.1692371357075999  0.1332735954104725  0.4693577673716290
  0.3354629434738127  0.3831821589893737  0.4688617247451701
  0.6663929306591719  0.3848578382575288  0.4686356814623085
 -0.0006661415376524  0.3850772068648260  0.4687072221127179
  0.4974156261351868  0.6324741688369665  0.4691072088032933
  0.8314755276623573  0.6320245122509149  0.4693885069576720
  0.1641319469997740  0.4665432666143253  0.5213386619631482
  0.1676587645723411  0.6352195787465595  0.4695419700131846
  0.6685854885269747  0.8855894464995971  0.4691211516274352
 -0.0019273075190655  0.8843429651107163  0.4691228972926255
  0.3309496053369234  0.2146519193964652  0.5214323209342124
  0.6657995440536204  0.2175630993442426  0.5210821831956515
  0.0015745511526434  0.2154488974208960  0.5214928199305425
  0.5009460352216804  0.4646779426918738  0.5209334697409079
  0.3308382158188367  0.8854402220113032  0.4686234953581699
  0.4999303577453645  0.1348101716397688  0.3125184982264742
  0.8337060313410496  0.7484497769658958  0.2603471175483692
  0.4974054687947018  0.7517201686623927  0.2602813129476947
  0.3331373282519742  0.6656392613979905  0.0522403543768008
  0.6692133103277202  0.6653359834816809  0.0520464560484955
  0.1660159241741868  0.9178267751758215  0.0517022351764917
  0.4974212269117730  0.9144514364897810  0.0525263358639204
  0.8328371341532339  0.9149312693983254  0.0517155509956919
  0.0024287340814240 -0.0016166745678389  0.1041199043032892
  0.0016770207417772  0.6661604208026435  0.0522278873530846
  0.3324747605595140 -0.0009384748053987  0.1043180797244860
  0.1651634648965603  0.2497953915580573  0.1042985842344357
  0.4994585122659964  0.2495010694195650  0.1046641848640793
  0.8334291272889172  0.2507359365184063  0.1047105885873322
 -0.0005391399428016  0.4990989902715105  0.1040010810643753
  0.3356622473916064  0.4986199606476286  0.1037714911895835
  0.6677683559771876  0.5012178483919228  0.1037416540217657
  0.6660751412064397  0.0012239153139618  0.1037832900999697
  0.1689388650974214  0.7514491452395152  0.1047153920304233
  0.8334321360565247  0.4159975017140810  0.0519973577636872
  0.1672302349441726  0.4156985964704391  0.0516459494681761
  0.5021883770411592  0.0816773260083558 -0.0004752015320343
  0.8330276296770585  0.0831495926716140 -0.0000675370739030
  0.0001286700467100  0.3317772850675392  0.0000473039186048
  0.3352090262912030  0.3329004555508172 -0.0000106555667212
  0.6690733633686772  0.3345466162757941  0.0000683463810007
  0.1663196356702032  0.5814726389570331 -0.0002835394055026
  0.4999599534035744  0.4176349904881936  0.0519266091154391
  0.4993412584567439  0.5826001035328849  0.0003125991886689
 -0.0001768232730164  0.8340958684845601  0.0001366505249538
  0.3334131013389322  0.8342919965662167 -0.0000499565143489
  0.6656731216031465  0.8332160554541381 -0.0001131538316505
  0.0012861384490556  0.1687601247340385  0.0522365005669622
  0.3336339567309878  0.1646706085599073  0.0517205576552386
  0.6670525453166285  0.1663215810618257  0.0524334523723186
  0.8353622674524327  0.5840372261138056 -0.0004028294870243
  0.4977716868092670  0.7511082029536870  0.1037935311787368
  0.8351171557663916  0.7493105208474654  0.1037504099137577
  0.1651365190293654  0.0814044724909503  0.1564517525684374
  0.6656557921352200  0.6665194459084476  0.2083845749677923
  0.1658894522009082  0.9145898787853763  0.2088599393667351
  0.5020702578447265  0.9149933812363890  0.2088206474868153
  0.8309081931574226  0.9165671787421676  0.2082247379205509
  0.0007926587893982 -0.0012535808584398  0.2605057771844537
  0.3347270818572211  0.0017906269878658  0.2606734382081480
  0.3348598920767097  0.6649490061563247  0.2085559817485554
  0.6669441988132440 -0.0017338708069797  0.2606941644732050
  0.4996076040214084  0.2495611973423887  0.2603168958810521
  0.8310519681394031  0.2514196944900055  0.2602995007019328
 -0.0018969908113287  0.5019933376056342  0.2601880568421369
  0.3331930806150804  0.5015587814886161  0.2605056503953015
  0.6683274586729905  0.4985046115589833  0.2610877698014442
  0.1668623788655413  0.7514984004943811  0.2607922211553705
  0.1652086898086578  0.2492780369540886  0.2605036323103666
  0.0014260598536022  0.6671664448777380  0.2089230964986879
  0.8325711360061923  0.4169552898782862  0.2082363160270196
  0.4974641461042791  0.4148282820946151  0.2087625022384607
  0.4979344190892441  0.0844837041552394  0.1566292525930161
  0.8358170291443274  0.0850848273589203  0.1568067504331492
  0.0023161890027594  0.3352013631487898  0.1568213710827069
  0.3349812184963418  0.3313378831257670  0.1563762348905733
  0.6689437042429680  0.3350551163150496  0.1562463976128661
  0.1691929461336860  0.5818486127721254  0.1562042660781169
  0.5009261016512994  0.5819915762066448  0.1560046587515518
  0.8349956712679201  0.5842734493972797  0.1565639373201779
  0.0019068389358811  0.8349140699342138  0.1560633093362633
  0.3319182892097993  0.8355425946545015  0.1562934648194793
  0.6646305973521320  0.8354109843868547  0.1561905326330640
 -0.0016286732618444  0.1654930953714218  0.2080411002946070
  0.3342600420783093  0.1649184536993908  0.2085469679067971
  0.6671766335110101  0.1644440436598306  0.2082730095184152
  0.1674285744282551  0.4154240294982380  0.2085916892388890
  0.8328275522392530  0.8007339793314207  0.5731429423692803
  0.1674913079415005  0.7984481748663711  0.5728701818664794
