Cu
 1.0000000000000000
     7.6685730419681093    0.0000000000000000    0.0000000000000000
     0.0000000000000000    8.8549054201611881    0.0000000000000000
     0.0000000000000000    0.0000000000000000   40.0454546774459672
 Cu 
 144
Direct
  0.1648171445192483  0.0812038915930926  0.0003421641083010
  0.7308867955882393  0.7687107128756555  0.3652880945733459
  0.2331802859217491  0.0171984941493890  0.3644256387027898
  0.5657210490194112  0.0177281473531736  0.3646318701382800
  0.8984517762850905  0.0153535231816135  0.3648664786049910
  0.0659318818628038  0.0995436969800992  0.4168771466910079
  0.3990285104584437  0.0977598567324837  0.4173771605969736
  0.3987503208621836  0.7659479705407993  0.3647510037560969
  0.7311042844158665  0.0998965343719495  0.4173612975696011
  0.5681721639486984  0.3513241158359978  0.4166644207277479
  0.9021211015676394  0.3519467911361515  0.4171932047281118
  0.0690886620170310  0.6020183020915910  0.4164728417102300
  0.4004422056239149  0.6007045546082702  0.4173157894388987
  0.7320528625625251  0.6000061192130143  0.4170503777636572
  0.2328859304534597  0.8485529028457062  0.4171337460141413
  0.2314531122249792  0.3484419377024996  0.4171275838985343
  0.5651581919945938  0.8497110971653710  0.4172787983340445
  0.0687571930580452  0.7644217501425843  0.3650208481204865
  0.5670091801468641  0.5172859855765863  0.3648651691197505
  0.8978537833612119  0.1850118008399927  0.3122250860143484
  0.0658335069840358  0.4334330117311412  0.3130994783482834
  0.3994536338803917  0.4332947166666434  0.3123192098764285
  0.7316338139282625  0.4351473881540963  0.3131402567753288
  0.2312886903537107  0.6840335153103652  0.3125745260559735
  0.5645075636764981  0.6834490036640372  0.3124021572585384
  0.8982551309398129  0.5156864401722722  0.3653012423414616
  0.8976584504082840  0.6855094300023413  0.3128573406838960
  0.4025552701963565  0.9331564811764309  0.3124703462637331
  0.7311488772514722  0.9332704574045275  0.3130433706118568
  0.0681598811513721  0.2685914420209732  0.3645436804017302
  0.4024085290995352  0.2680998750741720  0.3651033120266273
  0.7348720466916387  0.2662879340976868  0.3650296945537683
  0.2333694605755290  0.5153506286014752  0.3650180948607866
  0.0655045709275859  0.9319432646708020  0.3129369527402754
  0.5681112781758791  0.1811983618640642  0.3125566132374825
  0.8989815862505720  0.8480205114283823  0.4166791175614240
  0.5692214890955960  0.1842920050352362  0.4692144828906963
  0.7331082719124351  0.7655651973911781  0.5211018922561430
  0.2355768136315987  0.0180778990275368  0.5213169271251661
  0.5683816135288190  0.0146368002128301  0.5210568180518339
  0.8998407670793763  0.0181304369418060  0.5208224539462767
  0.0686209984448031  0.0997808846373249  0.5730599561069323
  0.3987975318461802  0.1009106590994681  0.5730628799908536
  0.3991510762635865  0.7683800998060473  0.5209136851435662
  0.7315269894865560  0.0991284677227913  0.5737401248791961
  0.5669004704129992  0.3479646812833976  0.5734317934150482
  0.9001635876625376  0.3495361786954332  0.5733675222593688
  0.0662036426087580  0.5987984093918211  0.5733124832300407
  0.4023460839174986  0.6005705123384761  0.5731380600381307
  0.7318597627960512  0.6017429799851964  0.5730800796603516
  0.2350363089067997  0.8477561284827762  0.5735723437107632
  0.2339972035778899  0.3498569148470446  0.5731508053373773
  0.2346472335104050  0.1853875239012875  0.4692298293785784
  0.0683323524648754  0.7681120785757695  0.5211932111602022
  0.5656024004391007  0.5188027941012782  0.5208888931884212
  0.8998227558956070  0.1811103093586809  0.4687984721687832
  0.0668481224888685  0.4355891000786946  0.4693621193119439
  0.3988721480016120  0.4323500908734338  0.4688454173298042
  0.7336738314227037  0.4325269532308468  0.4690218182676769
  0.2315889387531013  0.6838713776877395  0.4688233618176723
  0.5687843564316808  0.6846366604178663  0.4695633173695868
  0.8990071759978394  0.5163955973287461  0.5213770329124962
  0.9003315863437878  0.6846506829448488  0.4689360978112681
  0.4016061596517481  0.9331837843827467  0.4689418738993084
  0.7348762972415944  0.9319932432074799  0.4690276325946443
  0.0671800379330647  0.2645321200919465  0.5209430005312100
  0.4011128187382241  0.2661669250029105  0.5215189775304693
  0.7353949569058925  0.2651994076881631  0.5210490517786068
  0.2357882109003518  0.5165739371684104  0.5212062021613021
  0.0659959576279242  0.9325408949618451  0.4695520568491999
  0.2340751832499585  0.1841616704312092  0.3131448764795673
  0.8321783754696424  0.7516088815268053  0.2605622146231669
  0.5002161632100618  0.7478430342893438  0.2604709836191937
  0.3314959869715415  0.6644285035605444  0.0525138701747005
  0.6642712264616122  0.6662399147867156  0.0518937108984588
  0.1660735381254150  0.9158455844104546  0.0523563948122600
  0.5006074834710027  0.9160780632899469  0.0518023365471434
  0.8317037583090249  0.9146137030570266  0.0520556044079026
 -0.0015178204971331  0.0003286085619546  0.1039794066005370
  0.0001286717638122  0.6646068127618604  0.0524357171734457
  0.3340642606765216 -0.0001548930405416  0.1042423648301820
  0.1679096560117140  0.2483199746623870  0.1046463982663822
  0.4989374328902237  0.2484708043011610  0.1045802845020205
  0.8318100567511545  0.2521633103466344  0.1045824365153696
  0.0013305766659508  0.5012803183720291  0.1046776626393131
  0.3327018373081525  0.5000964312838949  0.1047052851706669
  0.6667718552983629  0.5002997327241405  0.1040279392021663
  0.6650382097136470 -0.0001245972795790  0.1045561871275845
  0.1681946863129486  0.7482682261323382  0.1039379271340304
  0.8350251528108268  0.4168209789196547  0.0524484878415364
  0.1645008853702537  0.4164728203495561  0.0518166243170744
  0.5010931829533100  0.0826291421705954  0.0003953830499792
  0.8315255131523931  0.0844218221007830 -0.0000603896165272
 -0.0005371796167221  0.3340195741474081  0.0002390221486731
  0.3350542478711356  0.3334358658855832  0.0000529686467707
  0.6645369075290328  0.3350476110751954  0.0000115515399672
  0.1647791169125850  0.5811061168125917  0.0002658875069136
  0.4999482825286282  0.4172112639283480  0.0517094014938276
  0.4984863002943591  0.5850845370581780  0.0004569071878005
 -0.0023378286797175  0.8323070743999930 -0.0004490891528070
  0.3348151613352788  0.8347154442084259 -0.0001692663106427
  0.6666368015399469  0.8342075872433206 -0.0000518351958483
 -0.0025370084369633  0.1657121657916002  0.0520391867482647
  0.3340551306126857  0.1661015191226720  0.0518116871459071
  0.6646940356828537  0.1658760257032481  0.0522735859259897
  0.8324181847430047  0.5828309768743448  0.0003785201753774
  0.4975283282187009  0.7516835368563054  0.1040638694024602
  0.8308318846086502  0.7512450019867483  0.1047098827154210
  0.1675441031366607  0.0823001237134965  0.1560771847919102
  0.6664840323374994  0.6658230623478887  0.2084104066829248
  0.1669736291582597  0.9172910947089981  0.2083828399406116
  0.5011602177951117  0.9150395165339010  0.2087420330135917
  0.8328075223216287  0.9182810805263366  0.2087436252114962
 -0.0006889227266093 -0.0003614654459730  0.2604582014896774
  0.3358600615544962  0.0018025372123265  0.2604386158876964
  0.3312441535865616  0.6652806704704382  0.2085069044831737
  0.6676314190884811  0.0001356889438498  0.2604179061745628
  0.5019695572428500  0.2500258722639829  0.2606928820392271
  0.8347216454708866  0.2480433546989134  0.2609590540611936
 -0.0011252711004741  0.5015804385431694  0.2608346665831126
  0.3358198877782151  0.4990467190073040  0.2603628465356783
  0.6672455974521441  0.4978428220576628  0.2605934811399072
  0.1657078415782504  0.7495348034339258  0.2603355670361461
  0.1679118474859679  0.2493587442033983  0.2605379794809923
 -0.0005801208844570  0.6657823915609582  0.2083296965544664
  0.8314565596700605  0.4170487061253686  0.2081537189507461
  0.4997694338886138  0.4176946090266842  0.2080766304474681
  0.4995013716613816  0.0834175126935295  0.1567100254127299
  0.8320484338984850  0.0838980272513073  0.1561858238414227
 -0.0011834955621895  0.3329182192347226  0.1560070884756423
  0.3356454657628507  0.3335860756496861  0.1561210972336106
  0.6689704201299249  0.3345510414641654  0.1564255317416172
  0.1653778742769464  0.5840945316428795  0.1562101882419485
  0.4997024349300013  0.5835083427992277  0.1566777582868623
  0.8342391276521377  0.5840080021126182  0.1564557108595904
  0.0016831940250810  0.8353644957839579  0.1561296717980485
  0.3346359998639179  0.8324068129541504  0.1565204740745969
  0.6660767831955500  0.8318587533805362  0.1561998348743587
  0.0008566899788242  0.1682774626670693  0.2083485746807309
  0.3314403531873721  0.1651652545369236  0.2081719228339420
  0.6688785833822649  0.1661212170729577  0.2085861409716709
  0.1666537984833577  0.4182339683695320  0.2083505377576333
  0.5647529884724827  0.8505211690565150  0.5729784937576953
  0.9003291806325856  0.8497275757082882  0.5730291446592661
