Cu
 1.0000000000000000
     7.6685730419681093    0.0000000000000000    0.0000000000000000
     0.0000000000000000    8.8549054201611881    0.0000000000000000
     0.0000000000000000    0.0000000000000000   40.0454546774459672
 Cu 
 144
Direct
  0.1678878793005936  0.0817159481299515  0.0002202186875131
  0.8014914902286817  0.7157254797956782  0.3650832820342306
  0.3019991207439434  0.9653076418946885  0.3645566426968330
  0.6348068327265390  0.9688978227011424  0.3647995265952861
  0.9690330930229514  0.9644705607695417  0.3649315747248176
  0.1331230538516095  0.0512634509657290  0.4168756958891883
  0.4658419968223301  0.0499767963815518  0.4173518666825111
  0.4644618951134625  0.7184848613523497  0.3649400303817878
  0.7984526300724227  0.0494056744779616  0.4166923818198342
  0.6327530057146187  0.2993670439696438  0.4168079487709235
  0.9690103603951051  0.2999658690764457  0.4172616120618920
  0.1333647181385553  0.5518252469780066  0.4165730024789505
  0.4648616212565067  0.5489027618473555  0.4166607151989093
  0.7980381358127825  0.5502964471067934  0.4172472101282724
  0.3013253952603008  0.7994082418439423  0.4170064819776430
  0.2975826744645322  0.3012565464658347  0.4169181633615199
  0.6336345777244783  0.7985426568095798  0.4164526530008845
  0.1321725817953811  0.7156185316318228  0.3653155770620014
  0.6322548945418652  0.4672675207829278  0.3649211438592595
  0.9688490877925272  0.1337247724818700  0.3125574047869312
  0.1307802788262694  0.3839092438582181  0.3124552553206225
  0.4680587411505748  0.3839520577085397  0.3125309663706564
  0.7975330339944208  0.3811239466571061  0.3124824008798826
  0.3007189467691298  0.6322388267166965  0.3131857222087913
  0.6312278972744670  0.6347254878088723  0.3130659919595156
  0.9660439638209165  0.4660712159891006  0.3653093988151244
  0.9674258733297143  0.6334154304148935  0.3129981765953416
  0.4683564727525616  0.8838361564229127  0.3129925045934399
  0.7992648383931051  0.8836125113119395  0.3126627367852471
  0.1330294990290666  0.2163764091151376  0.3652421857891786
  0.4653357706445287  0.2184236485878950  0.3652179428019054
  0.8015623808229935  0.2159225150056318  0.3648786162724683
  0.2999271393358747  0.4665649332892290  0.3649847010993787
  0.1340375479598264  0.8852922260808164  0.3123390200919781
  0.6316373817726230  0.1345838031545152  0.3128026817463191
  0.9669541953288985  0.7997551309735811  0.4172453013569036
  0.6324042972675591  0.1317722638595974  0.4694859181926460
  0.7979393067425966  0.7183105856216796  0.5213228279089884
  0.3006043638463771  0.9666915556063960  0.5214305977288072
  0.6314123874132230  0.9684156414388111  0.5211259429190033
  0.9665135007009069  0.9665403691450419  0.5215179014164742
  0.1309978951137932  0.0500842542172554  0.5731422633994708
  0.4649256203400574  0.0516235485559239  0.5736722633030731
  0.4645684393398113  0.7180262739952868  0.5216857382743521
  0.7983594883537721  0.0517103182229286  0.5734301161240393
  0.6308585452664413  0.3017179214580621  0.5733720657473461
  0.9689961483600510  0.3009145381738880  0.5728528985285917
  0.1311471789148723  0.5516478272334628  0.5732875862047403
  0.4685830727261366  0.5511393434327467  0.5731026088821678
  0.8011002449382094  0.5487920808455035  0.5735874154592217
  0.3017010094033266  0.8013431693715840  0.5728723840078237
  0.2982939936048770  0.2994717525911990  0.5731205165386857
  0.3011830179944875  0.1337878593565546  0.4695433716404401
  0.1358020414017283  0.7156704935874153  0.5208629416149233
  0.6321888799487010  0.4671200388967150  0.5215630841665172
  0.9641399562319843  0.1312926153128826  0.4688089041827255
  0.1336331402195858  0.3818915954690816  0.4689442757699365
  0.4643777238148307  0.3813262103983280  0.4692138065205870
  0.7978164488164440  0.3837048204560727  0.4686614022175000
  0.2995932428971551  0.6352026995763381  0.4691622683872437
  0.6315217581854604  0.6318077380555704  0.4690616216450226
  0.9692329064743895  0.4651745733205864  0.5214095623355299
  0.9686748770332539  0.6335205967966250  0.4691764238265809
  0.4679411118497616  0.8841589049632226  0.4694219823560155
  0.8019097530928218  0.8842791094028012  0.4694741688596580
  0.1338412061570547  0.2160619449440913  0.5213831089251776
  0.4641520322738837  0.2162534062845152  0.5210093194550900
  0.7976731221959089  0.2167131972422780  0.5216827523173982
  0.2987142207884110  0.4669044404846289  0.5210827876657267
  0.1343797701211839  0.8838353913096548  0.4685901515232885
  0.3017845281797644  0.1332108241070992  0.3123580505203930
  0.8343676875286471  0.7484665487320560  0.2605635947192336
  0.4980986271150803  0.7514351060150460  0.2603066368483777
  0.3312813664365740  0.6644562524329662  0.0518159967616113
  0.6684827629470622  0.6686149180521235  0.0520204775886265
  0.1675751699915362  0.9186875909499574  0.0525027726398928
  0.5020472636457824  0.9183863854276124  0.0521688613188114
  0.8357306706960543  0.9144326966924603  0.0519676361105651
  0.0004930209723148  0.0005613410458378  0.1039146523329587
 -0.0017109363107448  0.6687194697282638  0.0523731795474110
  0.3327406357139435  0.0014950195910616  0.1046591213153778
  0.1649540091725168  0.2517674819318166  0.1043602186385012
  0.4987616286195588  0.2507145843071096  0.1046213477172760
  0.8337680183337556  0.2512553315783648  0.1044937297469456
  0.0025649435907146  0.4995041036975686  0.1044218653269873
  0.3338880634441767  0.4981823372119251  0.1043114914976642
  0.6690648772122453  0.4995837772897759  0.1043766684767180
  0.6676269791787128 -0.0014807489279989  0.1046365927443351
  0.1656169085753210  0.7519683288830841  0.1039893185312297
  0.8314696062820984  0.4183550021454057  0.0523432775125201
  0.1652642504595080  0.4164992004909406  0.0523743080854969
  0.5010327872906477  0.0842384746605057  0.0003961776848314
  0.8311558897621377  0.0847616513874541  0.0003887506105522
 -0.0000767354531270  0.3325673493695022  0.0003033360027208
  0.3324231949515382  0.3315826674283892 -0.0001844105763905
  0.6692597622287862  0.3335502842040242  0.0000994371272502
  0.1653973232806930  0.5823615876446663 -0.0000756265540431
  0.4975873155661424  0.4149583582520006  0.0522667343143058
  0.5000485313247306  0.5825157524058177  0.0001440644021311
 -0.0009785107110724  0.8330336687472778 -0.0002055773512224
  0.3352548569241014  0.8346478318049843 -0.0000769566028408
  0.6651686080097406  0.8337671656543028 -0.0001130301397114
 -0.0007534737196322  0.1657234145997392  0.0518085829646118
  0.3340670939159842  0.1662838175792402  0.0522859214190734
  0.6667695616511278  0.1650822855431989  0.0517205608477756
  0.8312610256406409  0.5828245892847931 -0.0002053228073192
  0.5002878357304908  0.7478851324368438  0.1043409981842950
  0.8354554171618918  0.7481674084557600  0.1038939782239988
  0.1683649323606244  0.0834655565519627  0.1568145001288453
  0.6686037407747381  0.6647149801296899  0.2085352257227713
  0.1670801990981789  0.9168882048151307  0.2080972337165560
  0.4994731793799168  0.9157440946603207  0.2088812775080045
  0.8333540838262730  0.9181258183397015  0.2085387575590993
 -0.0022805038013109 -0.0012143541988805  0.2603511835153119
  0.3319866115131080 -0.0014680991673183  0.2606852134838891
  0.3353403387234712  0.6666143279404979  0.2083739189604890
  0.6658285193445328  0.0000434945084104  0.2604534684196330
  0.5022375526004088  0.2484514539282255  0.2609511876777194
  0.8340271747888106  0.2517163977980661  0.2604504663159147
  0.0025708471365995  0.4985497115060750  0.2608301291990475
  0.3314112934330458  0.4990809256755273  0.2604235053592757
  0.6680596775362024  0.4990855715847686  0.2609700153780526
  0.1648202847260669  0.7482973008728760  0.2604437289238534
  0.1668370184302077  0.2478587370081575  0.2607115600452950
 -0.0010539698104866  0.6663857321757143  0.2079794496464712
  0.8323054920992579  0.4172428881786304  0.2082030001467354
  0.5022494116152779  0.4148609915216622  0.2082282710978978
  0.5003994819295216  0.0846306234221940  0.1567156731377486
  0.8340217102104936  0.0851594140950997  0.1566602496076550
 -0.0002907009717541  0.3332849263668287  0.1562532622536991
  0.3319109695670146  0.3326051993464683  0.1562013448247083
  0.6646615529998855  0.3312814197573698  0.1566886924071486
  0.1672853270556283  0.5828460649522240  0.1565225132502065
  0.5000923244889303  0.5852035821295444  0.1560259343738365
  0.8339758645178386  0.5836908575484966  0.1566867968207496
 -0.0016443745124831  0.8350467953714833  0.1560321652002214
  0.3358514269079505  0.8327696074864580  0.1559383937640422
  0.6679089564196518  0.8345986381677770  0.1562964112250299
 -0.0000872602229268  0.1675025489056446  0.2084852999745569
  0.3340278865014463  0.1666829807860906  0.2087106779930566
  0.6692675732749968  0.1654572488265005  0.2084772081671530
  0.1664905528321907  0.4167151766170847  0.2089278973308951
  0.6315795648200159  0.7999775560407916  0.5732283262841541
  0.9686381353361924  0.7983203278639976  0.5736495500903918
