Cu
 1.0000000000000000
     7.6685730419681093    0.0000000000000000    0.0000000000000000
     0.0000000000000000    8.8549054201611881    0.0000000000000000
     0.0000000000000000    0.0000000000000000   40.0454546774459672
 Cu 
 144
Direct
  0.1651873820324406  0.0845499243247848  0.0001295795367460
 -0.0025469489011238  0.8150442995797079  0.3649729922040950
  0.5015572893113821  0.0663831479915771  0.3643798339191990
  0.8339907826300365  0.0646658778186457  0.3646968813529859
  0.1648496223969657  0.0660864145712105  0.3644405143952431
  0.3309991437362952  0.1491017857545238  0.4174477058657510
  0.6692427542430522  0.1499953042340613  0.4169324314828785
  0.6686521505995828  0.8145505861859413  0.3650607880295467
 -0.0012998238511301  0.1511038835036711  0.4170125514286679
  0.8315011915976710  0.4011791099942147  0.4166168456273688
  0.1663905299783023  0.3979445850558154  0.4165008413293924
  0.3344244917593866  0.6518473406129315  0.4170240991255037
  0.6692048635272919  0.6490407515318699  0.4167629510393096
 -0.0020939977481666  0.6519100009253517  0.4167256815851716
  0.5016560241454674  0.8984139072329311  0.4173690364850417
  0.4985665006417637  0.4004633913712624  0.4172924168409426
  0.8307700111312222  0.8986078924755557  0.4165555052017919
  0.3313140323131097  0.8163286262833419  0.3647197013756899
  0.8342029192992236  0.5679096010474404  0.3650918143033637
  0.1649912311875608  0.2347344669027227  0.3127206349807456
  0.3340216777561936  0.4815348378136209  0.3130773787269190
  0.6664911521925941  0.4854639606404051  0.3123894992743652
 -0.0001144172825305  0.4811950051138971  0.3127500102422320
  0.5001234023609592  0.7346552104842157  0.3128589177385457
  0.8310149514998627  0.7341028099705728  0.3126846292235415
  0.1686744149506038  0.5673620222952899  0.3645851305473606
  0.1666543701852658  0.7321019035452490  0.3124720012807993
  0.6665410884507650  0.9828242112836200  0.3124311882607848
  0.0009564352032845  0.9852999492195507  0.3125036706452035
  0.3316262218037068  0.3185816879316511  0.3650182767143108
  0.6687300682160621  0.3167524830029720  0.3648797733266356
  0.0006785692138672  0.3171567065091306  0.3643991360637634
  0.5004257242733605  0.5677137122444196  0.3643946235136964
  0.3337872008181660  0.9835414566614598  0.3125137685637110
  0.8338121654834602  0.2350810446511770  0.3123234613047725
  0.1671045623190525  0.8978890356549722  0.4171991596813819
  0.8318052245578046  0.2348899141312394  0.4692167869690158
  0.0011552841653384  0.8156642652326649  0.5211036329520740
  0.4991491464813394  0.0664488983735882  0.5208803162889317
  0.8344716114947553  0.0685366739591468  0.5211880649444716
  0.1678930555127422  0.0656100483866685  0.5211676484307081
  0.3310825351640224  0.1520151886747538  0.5731789095847061
  0.6651384268512358  0.1509170594689520  0.5731531852263745
  0.6675658356199367  0.8173752622760005  0.5215984611257389
  0.0023718106688404  0.1481574236473440  0.5737320461163521
  0.8331602190519767  0.3993838605018278  0.5730106962407778
  0.1641624145834306  0.3996950478258432  0.5730508866012223
  0.3336888361900252  0.6477839187499217  0.5737480808682385
  0.6669299978688489  0.6490861862041972  0.5730660221217742
  0.0000106637167411  0.6484140267089571  0.5729088462581898
  0.4993366736332269  0.9017524189965305  0.5730080315461560
  0.5013634117727355  0.3991025238135690  0.5732896576404694
  0.4999178163017677  0.2347266719959306  0.4691247735526575
  0.3313626151204245  0.8156323922567104  0.5209798911344469
  0.8326547127529517  0.5663001574851430  0.5215414973693348
  0.1663999237007715  0.2321031047943143  0.4686538532873591
  0.3318432905872411  0.4842918677083645  0.4693592111400602
  0.6662001626007100  0.4824955392267181  0.4688201555923492
 -0.0023965562285432  0.4843444604054751  0.4689830358799005
  0.5022654952335877  0.7337152055003524  0.4688373355283815
  0.8343177365249151  0.7328175396163242  0.4690539623407103
  0.1646568880009728  0.5652752066146814  0.5207498662133444
  0.1643649955756800  0.7355795846827822  0.4695384297352135
  0.6650242766002089  0.9823545609308213  0.4689502886712822
  0.0012430218784898  0.9844176992110484  0.4690644174212386
  0.3311483340508066  0.3173551383962311  0.5211648945021766
  0.6647044370993468  0.3174667632960146  0.5212507458045339
  0.0000862975425656  0.3149182540063702  0.5213859986275484
  0.4980135888532315  0.5680960708951596  0.5215238295064064
  0.3307607010534797  0.9824686906449324  0.4694801732649821
  0.5013146576567551  0.2315709374269970  0.3126393387793809
  0.8337942097636548  0.7514798254306684  0.2601657262957193
  0.4974345433958946  0.7497024987094697  0.2604156185467011
  0.3353299360645962  0.6660798292671025  0.0521436944928174
  0.6664086514210411  0.6660550005125634  0.0523919582190693
  0.1675276672269198  0.9167876934172849  0.0524148369016161
  0.4986306003301911  0.9149879423439260  0.0517225809959082
  0.8318532497373718  0.9176743130381116  0.0523829529779385
 -0.0009007068538727  0.0009070009034218  0.1043780801713057
 -0.0003609101047849  0.6681238099808031  0.0518201843148382
  0.3326832724496636 -0.0003259993819179  0.1039941848289602
  0.1690749421983027  0.2522533285387273  0.1046226773719250
  0.5021323228022789  0.2519895186407778  0.1038395877043831
  0.8310847088620182  0.2517635834507483  0.1047270518356318
  0.0018565831125252  0.5008078200772001  0.1046526421257616
  0.3308673607058351  0.4978112313863625  0.1042559275927569
  0.6652126775785933  0.4998141033282280  0.1046534302106299
  0.6668983063736367  0.0022185292695933  0.1047010696544857
  0.1692506548642592  0.7519887015750979  0.1038667968036484
  0.8346614258706992  0.4187253601203163  0.0523676937295484
  0.1647410162791220  0.4158071209641533  0.0521448292118436
  0.4981937448995775  0.0852004147321429  0.0003030642621402
  0.8311378880498428  0.0818412013770954  0.0000818224536313
 -0.0011247130303006  0.3338235313021332 -0.0001008326793734
  0.3310779697141829  0.3351439744158406 -0.0003436062048397
  0.6640857907848590  0.3317047615618861 -0.0001000797493007
  0.1648512245071326  0.5849293475612822  0.0004538023006115
  0.5003900620495890  0.4184875039480866  0.0523205524425491
  0.5005243275827810  0.5823109173079060  0.0002592825668376
 -0.0015008943906188  0.8327080974457373  0.0000747010686941
  0.3313642807844730  0.8340022123931264  0.0004670997142648
  0.6664950848629854  0.8352439124559401 -0.0000202538888026
  0.0018315369566351  0.1659138544970531  0.0522748138904374
  0.3336415991034042  0.1666361946515239  0.0518735095256333
  0.6649248634849878  0.1655080685230965  0.0517261202637463
  0.8318601096584153  0.5820462257761695  0.0000283283172989
  0.4990077285898737  0.7522489912075729  0.1043589297766539
  0.8333704389750377  0.7506322500245777  0.1042739271324667
  0.1680038701091420  0.0813732170785395  0.1564519914247522
  0.6660638165939572  0.6649075214569073  0.2087571799160219
  0.1670434832158522  0.9151375672766572  0.2080223655038221
  0.5024336083492525  0.9181769182403976  0.2083198531513746
  0.8339809069799796  0.9187621032208524  0.2089048032838754
 -0.0012333218982746 -0.0020980476001225  0.2610582555834011
  0.3342326749186815  0.0020999003080615  0.2607013751922888
  0.3323091182406070  0.6682884614298437  0.2089608425892619
  0.6669111322621903  0.0019470968974335  0.2604746673389047
  0.4975468098267493  0.2487288349665728  0.2608243971847140
  0.8336689489217800  0.2491905065948462  0.2607033841530627
  0.0018963952125568  0.5006510063912933  0.2609039296071478
  0.3344835366468199  0.5013770770676493  0.2606661305677938
  0.6659394052662837  0.5004074825457179  0.2603143742161960
  0.1676287696800062  0.7489549237850605  0.2603251002567626
  0.1643459633639690  0.2488589895758649  0.2603396963539473
 -0.0014708678284384  0.6681584790109258  0.2086330828457616
  0.8324851730681299  0.4183688884782855  0.2080618288461921
  0.4994644593415513  0.4150396159610289  0.2085701122574522
  0.4998246410673632  0.0823220407222690  0.1559777549310785
  0.8310295534329717  0.0820731823975336  0.1559051387469435
 -0.0005504057178602  0.3311740436701492  0.1566571832058405
  0.3307294611620152  0.3310867379561572  0.1565669396251748
  0.6658898869150928  0.3340712657629618  0.1562768176971983
  0.1653967398552461  0.5827525726274899  0.1562491092435812
  0.4994609413248262  0.5826254979488117  0.1568447787808508
  0.8335290400808091  0.5831148758775979  0.1561201845732778
  0.0004729393063835  0.8319081325859656  0.1567264532169368
  0.3343135121043870  0.8348674185492162  0.1559799175599275
  0.6660033203931885  0.8339671506499541  0.1562179309510670
  0.0022059676472872  0.1669879278836553  0.2081309012568389
  0.3345052413904385  0.1686123180037218  0.2083760565854112
  0.6681180159340242  0.1651332886920379  0.2080441868783093
  0.1691484112805415  0.4162135962247662  0.2089505875594736
  0.8325491250132604  0.8983546147402266  0.5730366071951908
  0.1679734268857989  0.9006042292520861  0.5733083295920592
