Cu
 1.0000000000000000
     7.6685730419681093    0.0000000000000000    0.0000000000000000
     3.8342865209840546    6.6411790651208911    0.0000000000000000
     0.0000000000000000    0.0000000000000000   25.0450909090909093
 Cu 
 108
Direct
  0.1103463950447821  0.1094436333407103  0.0003655035598190
  0.1822062696783777  0.6681281916508780  0.6672784828055054
  0.8529113972283000  0.3324605750322541  0.6664239999821975
  0.5200013863336985  0.3310713945321758  0.6667905208187372
  0.1828662158773285  0.3340669874333546  0.6669568904919041
  0.8488433932377395  0.0009748736888973  0.6671378999043271
  0.5173209004740222  0.0026767080254591  0.6670027985088106
  0.1854163440358754  0.0006145078879408  0.6670788396924060
  0.7410865892039296  0.8861331438554089  0.5838382764034130
  0.4065299813356731  0.8868611076390247  0.5838401827293144
  0.0707726809050759  0.8898622947677116  0.5832108155578046
  0.7388959394544357  0.5538665596620195  0.5831223985109859
  0.4025975854734485  0.5583405135423756  0.5827110812106725
  0.0747139817539017  0.5555579459738402  0.5829099996908820
  0.7366720889854685  0.2217457149093164  0.5832393524125864
  0.4068840240438427  0.2235260744092027  0.5828654257667292
  0.0738938413555935  0.2239727726300004  0.5830770502757616
  0.9633739433903048  0.7754664174596653  0.5001996420564984
  0.6273453674665951  0.7794966439206317  0.4992551285552798
  0.2929471847713759  0.7771548387301841  0.5006796347648617
  0.9601672742126836  0.4473418183906352  0.5004565757290855
  0.6272035507062237  0.4418077085875274  0.4998782661072407
  0.2949201332473321  0.4436722380460761  0.5003496904210061
  0.9615117026153576  0.1119906744417760  0.5000193255527519
  0.5149841115684476  0.6661559048689411  0.6673431538756796
  0.6293375530397772  0.1127566809280162  0.5005254389347138
  0.8519118948820338  0.6679740513090253  0.6664898344727646
  0.6251823687827847  0.1123523274918975  0.7497200445171193
  0.1807880935988616  0.6685459965979479  0.9166604188610747
  0.8488732015279563  0.3328338886037497  0.9165718675039557
  0.5187891918908486  0.3323901838452057  0.9158894395414086
  0.1869392213385934  0.3307084324055271  0.9168572533281012
  0.8483985423858961  0.0027277721204360  0.9165666047029086
  0.5169724936767062 -0.0015719383427838  0.9164542627995015
  0.1828488564097662 -0.0009368307902072  0.9173973608909478
  0.7410539031772593  0.8871154727973426  0.8326017608538820
  0.4068775584248615  0.8871781423595415  0.8334255101882660
  0.0700965301982207  0.8879952115000914  0.8335898066280651
  0.7386609080954092  0.5554471072691307  0.8327828698096879
  0.4054451438936246  0.5554042997163189  0.8338917106189334
  0.0688206495198460  0.5578373369712801  0.8332717792828752
  0.7388452239727515  0.2215063632834041  0.8329900543657542
  0.4081018183883073  0.2198186906248071  0.8329524735530144
  0.0732181352779087  0.2192563787845390  0.8331232476349651
  0.9615335897245446  0.7804922142268893  0.7502009855553546
  0.6281244164410144  0.7757993240600513  0.7494495106394211
  0.2945262281342619  0.7749677262372743  0.7492842205721846
  0.9626788249330729  0.4415076344743630  0.7495828776110406
  0.6261216261506471  0.4451664093396044  0.7503677970121846
  0.2963724395370574  0.4437938306505282  0.7499203511466177
  0.9614874354632983  0.1137449748338307  0.7504342821468706
  0.2965486429007597  0.1108269381083231  0.7495448812770067
  0.2934503431295660  0.1129620905855251  0.4999124517670858
  0.6667798676243967  0.6652341909756146  0.4173722949148431
  0.3325998829827059  0.6647649263054495  0.4171552270808175
  0.6665417014088012  0.3305135451511151  0.1660237921818962
  0.3348806117733401  0.3328697878507739  0.1661484692747057
  0.0034909748311924  0.3308402039661331  0.1663458538707747
  0.6689040750905981 -0.0022537166662593  0.1663160641151021
  0.3318323879623883  0.0009790649439284  0.1662670468738683
  0.0032597028650248 -0.0023316770393695  0.1671785232072921
  0.5574595315727573  0.8860670174309564  0.0829965129692555
  0.2240460184615472  0.8864677017195515  0.0825558462682578
  0.8916834168897850  0.8879240243197307  0.0838140008634074
  0.5537475320558106  0.5558109961772578  0.0828330641406586
  0.2225208193088005  0.5567329587621085  0.0825851729036021
  0.8886047184951771  0.5529871676461477  0.0830452617187873
  0.5560609493122366  0.2199858073898331  0.0828753148245947
  0.2208766500073986  0.2203257624584007  0.0840729175736970
  0.8887901299712803  0.2202102793020396  0.0838947953829313
  0.7771176013568429  0.7799492343547056 -0.0001581070275217
  0.4468943394726415  0.7771925968680868 -0.0007115269943665
  0.1131438629830707  0.7750537290368622 -0.0001124910201637
  0.7756060649711241  0.4441408819175035 -0.0003920531018722
  0.4481240682920700  0.4414833573947216 -0.0003300152565941
  0.1119145417062894  0.4444349390310620  0.0003138104766948
  0.7774118400154355  0.1096989253162981 -0.0005815792101623
  0.4427326564918574  0.1093730844757906  0.0000842570995356
 -0.0001537432775400  0.6648696548547235  0.1664853087607283
  0.3361444404791303  0.6647749487856415  0.1663467092044756
  0.6661411966393919  0.6648684790320384  0.1672073991322315
  0.1091136602638692  0.1104480966613013  0.2494735899335219
  0.0005321479306208  0.6647484368363540  0.4159342120038952
  0.6684418965273564  0.3309221386497856  0.4172018361609673
  0.3317924360926549  0.3363125977434533  0.4162575811771548
  0.0008042345621263  0.3343897811253184  0.4168781938039548
  0.6646482716770540  0.0001362353360221  0.4166478989633957
  0.3326132155529939  0.0026357096246795  0.4162670870887107
  0.0014631696104294  0.0012778084875380  0.4164466018318294
  0.5557279068865669  0.8868952999352544  0.3327914478909664
  0.2235841994010625  0.8898655922322043  0.3335012487848679
  0.8905317695547075  0.8890584959609499  0.3336985988409341
  0.5525950487206134  0.5564153145077477  0.3339001953369312
  0.5156278503276113  0.6686896560446459  0.9171136481049987
  0.2248954278031726  0.5550360383541413  0.3336335501083761
  0.5532032435385812  0.2249517474837942  0.3339929878930146
  0.2196710444354212  0.2234120929250341  0.3339297224179955
  0.8912442904345779  0.2201142817898358  0.3340865886523306
  0.7746803335343142  0.7793473567950951  0.2501289854418648
  0.4446045091053866  0.7773386645168003  0.2505926534707859
  0.1109795756457260  0.7750026753214261  0.2500248678616582
  0.7791236776991846  0.4469182341994860  0.2494087631743364
  0.4445115884257906  0.4456940116188975  0.2494443973324908
  0.1085345973761066  0.4457948376673947  0.2492839460044918
  0.7760460077857100  0.1099637711132451  0.2500476265598439
  0.4439071960878818  0.1090877589660837  0.2494073877323394
  0.8895963040635390  0.5534508299212370  0.3341238933718040
  0.8488893363018932  0.6688028843830882  0.9160109752227712
