Cu
 1.0000000000000000
     7.6685730419681093    0.0000000000000000    0.0000000000000000
     3.8342865209840546    6.6411790651208911    0.0000000000000000
     0.0000000000000000    0.0000000000000000   25.0450909090909093
 Cu 
 108
Direct
  0.1100579154079265  0.1117559835204077  0.0002256811449888
 -0.0031735409983584  0.9185370912483908  0.6673729818774364
  0.6647991729658264  0.5859118890822791  0.6664608422138811
  0.3322327858420450  0.5804662063603593  0.6660851696962917
  0.0016840934946729  0.5816836738784952  0.6661672475146333
  0.6666628168803154  0.2498400397025461  0.6660112892898450
  0.3342285333532131  0.2527574754125922  0.6672408345834513
  0.0008597715495396  0.2521547685150161  0.6664341602284949
  0.5533065339152176  0.1408606160727769  0.5838161586300081
  0.2221035747741355  0.1401562397106194  0.5832789891325337
  0.8884107304701917  0.1369581371430379  0.5828424531315913
  0.5545793099354671  0.8077494772535524  0.5826859544544806
  0.2239728090855159  0.8029634050194681  0.5839296528609245
  0.8878491724533460  0.8048634479960060  0.5830605169049727
  0.5528746271355347  0.4740865060668263  0.5836703398109361
  0.2222029920479659  0.4747405010956347  0.5827654594484084
  0.8905494826614593  0.4697470678491673  0.5831049572091952
  0.7814937416742824  0.0250483673811461  0.4993235562096576
  0.4430242571046083  0.0277684921728871  0.4997261776706642
  0.1115436731886410  0.0269571573418119  0.5004980062604651
  0.7799438918788560  0.6931313074034712  0.4995764636790346
  0.4435419034929532  0.6949679477389108  0.4994946076880773
  0.1103095937767023  0.6937847106964433  0.5007865298026793
  0.7805518800654064  0.3590792340804726  0.4993828380282855
  0.3324201188384224  0.9183888058767792  0.6668116984274209
  0.4435493679145697  0.3595152630085547  0.4994624304210531
  0.6688212279035749  0.9164179424327372  0.6666079144581096
  0.4468133569817443  0.3593169825652682  0.7493029070675067
  0.0010177669542344  0.9182038239122053  0.9168833005188788
  0.6635036719606103  0.5859021208970525  0.9171334818901231
  0.3352921453577024  0.5844351875705210  0.9167778422387013
  0.0008250211479957  0.5852987120845350  0.9166561575980113
  0.6692113689993064  0.2475661842389718  0.9169482852754700
  0.3345217874275448  0.2473219318175494  0.9169043095577520
  0.0024424477259016  0.2476299613745255  0.9162222095371824
  0.5593020237708786  0.1360067459801296  0.8332150291703402
  0.2236945042442001  0.1366570795568601  0.8335039054477917
  0.8856506716726326  0.1405016158353574  0.8329870501229090
  0.5560406272391990  0.8073597611573173  0.8326142728001266
  0.2234536709635084  0.8058252251804193  0.8339786293123438
  0.8919894014896468  0.8036375067560553  0.8339192473668156
  0.5564242667932383  0.4750090910403619  0.8331245180893329
  0.2223596106985581  0.4705298604642402  0.8336257181312603
  0.8895040698223780  0.4711122650045608  0.8331304223654771
  0.7780183754199373  0.0302711713020823  0.7503982135850329
  0.4475207988535977  0.0267294806479582  0.7499917569000084
  0.1100564535753415  0.0288607423204154  0.7498166094245897
  0.7793670087921882  0.6916636586924328  0.7492279852000738
  0.4444628150229238  0.6963779294794920  0.7495614706445526
  0.1096303055166116  0.6937216398940645  0.7505509009070530
  0.7775634694493609  0.3600135794532188  0.7493287551704653
  0.1084379162941104  0.3625506609806267  0.7496510475993227
  0.1085835397064999  0.3622539793894075  0.5002309129583875
  0.6646930606356931  0.6660757835006810  0.4159866134900576
  0.3319245494908712  0.6694930585674704  0.4174439037744619
  0.6657674888201570  0.3339351634580623  0.1659196032846122
  0.3352712174619672  0.3344651561148504  0.1659704190557240
 -0.0017512984685054  0.3357375416257316  0.1660842348649711
  0.6688724803416594  0.0003585919592602  0.1663830412710651
  0.3300010594168411  0.0027121861348449  0.1669488199651114
 -0.0018481918302286  0.0000638604233283  0.1666728646351272
  0.5518676722017125  0.8918520684783710  0.0836216981627403
  0.2234189168326761  0.8907708961943234  0.0836826658988745
  0.8910902331943050  0.8885490335248351  0.0834209091264231
  0.5549625895860489  0.5534271770259407  0.0836574443152999
  0.2193391521349667  0.5565060249456483  0.0829016589721862
  0.8896817179623859  0.5571384136476469  0.0836041356449507
  0.5551600631313899  0.2207576220529689  0.0837947629366583
  0.2227587442366976  0.2251701050007332  0.0840967551365009
  0.8870067688013930  0.2240027135888092  0.0835429023396062
  0.7809448300934460  0.7763387525636143  0.0002307848120780
  0.4424639176854569  0.7787004967170216  0.0006294385211238
  0.1117418873889132  0.7798460096083962  0.0001974582034357
  0.7784540648247864  0.4450346187188175 -0.0005684328325974
  0.4460926033473181  0.4457645012520393  0.0003185476199177
  0.1109283969480669  0.4429788039932577 -0.0005939088574487
  0.7764189926518098  0.1122787715386352 -0.0002994361479400
  0.4437350938388427  0.1082832366603936 -0.0005644093600248
 -0.0011446544042688  0.6680651290443708  0.1669077299232675
  0.3367206711209018  0.6650398145908598  0.1671065216573800
  0.6658316404996516  0.6668254063000842  0.1667071656603499
  0.1103821182140582  0.1118983518416311  0.2503376040382326
  0.0035411780545908  0.6644932818871664  0.4158818233038920
  0.6680050765005929  0.3356372644019555  0.4171059807449485
  0.3363001051624822  0.3316995641359873  0.4166338464811635
  0.0015598456080151  0.3328200084396335  0.4164198203321473
  0.6683077646244922 -0.0028790239504360  0.4161677248999624
  0.3338809864228287 -0.0028479859818351  0.4172295410402299
 -0.0004764186071607  0.0019362767516916  0.4165398914008220
  0.5568129078114225  0.8895426365202406  0.3339512783106856
  0.2218177952405162  0.8865217489169432  0.3338910634865295
  0.8904542413554059  0.8863887415726127  0.3337611510958051
  0.5549831972679254  0.5579946614862010  0.3325543913389625
  0.3335587401987893  0.9176531816560217  0.9166842901740584
  0.2229645127995595  0.5547467792236414  0.3333670382868582
  0.5574518920469649  0.2213107513338749  0.3330440441610041
  0.2220063353748184  0.2246011335414564  0.3332916370693700
  0.8895390300108778  0.2221559741773721  0.3339087091814785
  0.7769773119070661  0.7749068544537792  0.2495747432210220
  0.4452894384463063  0.7754662708964513  0.2502480633955578
  0.1107931828769641  0.7764629914710353  0.2498950915010763
  0.7771016795165095  0.4432410658421158  0.2504984274312598
  0.4426841653499153  0.4469209629394478  0.2506241099274305
  0.1110256341161997  0.4440831031135898  0.2499776486284550
  0.7765579430176720  0.1129683669132327  0.2499484921888381
  0.4436434251537842  0.1122276767882563  0.2497927707349450
  0.8893689167081573  0.5548702987661404  0.3328604220358820
  0.6655960931087196  0.9162944713648704  0.9164531690488844
