Cu
 1.0000000000000000
     7.6685730419681093    0.0000000000000000    0.0000000000000000
     3.8342865209840546    6.6411790651208911    0.0000000000000000
     0.0000000000000000    0.0000000000000000   25.0450909090909093
 Cu 
 108
Direct
  0.1109195392712027  0.1102509586536712  0.0003954664296759
 -0.0008276777835767  0.7025976734877470  0.6663155787652706
  0.6673516881921581  0.3676249791339590  0.6664563306875055
  0.3367975657605954  0.3641609167930939  0.6673414946237363
 -0.0000307855966952  0.3690371047745205  0.6669210991582293
  0.6652038209273120  0.0338870873304597  0.6673724167691268
  0.3313746882189024  0.0361513164338974  0.6670678644483252
 -0.0001086848399243  0.0316468237653522  0.6673023159835693
  0.5551001605212783  0.9245126034219466  0.5833554047636266
  0.2214386134486572  0.9233769243887839  0.5839633367326090
  0.8891901642187235  0.9237940563719875  0.5827183372388948
  0.5542527631710831  0.5892867209900969  0.5833218798329612
  0.2236237281329379  0.5871418589788059  0.5841327883413695
  0.8872627452157702  0.5896619160151363  0.5828154468505661
  0.5564764727108076  0.2548868524991754  0.5830995771723110
  0.2202526487112008  0.2561992300883108  0.5834387222258833
  0.8866645703678346  0.2554138422853992  0.5841133819956459
  0.7747787150450360  0.8135738354927418  0.5004859382987846
  0.4432909204221023  0.8086320392036019  0.5002904589238348
  0.1110434210201171  0.8127193110801384  0.4998471484450436
  0.7801195680476573  0.4770493127687213  0.5004186950608519
  0.4474279571250121  0.4762335933284008  0.5000528040682332
  0.1125479302243924  0.4760461146118296  0.4995498976774466
  0.7775962281920314  0.1459664477013031  0.5005994944812358
  0.3349710872582826  0.7014519202886514  0.6660030031668877
  0.4404851637922511  0.1473331549898036  0.5005362318144572
  0.6689969596740774  0.6992015771470854  0.6672734664740589
  0.4438155485930376  0.1451861785479893  0.7503538613026194
 -0.0006747077344832  0.6972121898896328  0.9163279379020931
  0.6676424156161593  0.3690211409695388  0.9171781182758402
  0.3310144683019703  0.3696200914273652  0.9163853278991265
  0.0002176345892794  0.3651451013919404  0.9171260827986220
  0.6641492169285761  0.0349710538469165  0.9163113446596861
  0.3331673881961850  0.0338413688745444  0.9162245671634279
 -0.0016829440325085  0.0360530445659706  0.9163379848139338
  0.5555560482383016  0.9194836199713453  0.8339780637158776
  0.2235272165004207  0.9237516714948926  0.8339855359467628
  0.8894341514291566  0.9218035729665375  0.8340162805682758
  0.5568178414748979  0.5897727051896581  0.8327161008092430
  0.2222885235344630  0.5861359846202853  0.8337086271035684
  0.8910685605079032  0.5859908574530325  0.8330184803300063
  0.5548536114610449  0.2567709760820122  0.8339526374473099
  0.2229153440310283  0.2546101622054938  0.8337831335127962
  0.8914055669943706  0.2555934494755789  0.8336245988774403
  0.7781472923026278  0.8099777536007072  0.7496178734253316
  0.4458093511521586  0.8124854895718061  0.7500879283906943
  0.1123862222778186  0.8095973951988364  0.7497177450543167
  0.7784523831742188  0.4787982757436995  0.7506461600357575
  0.4437018360348961  0.4765133630113312  0.7502279853619419
  0.1107318640729205  0.4777133945995163  0.7499131921310622
  0.7765249933636417  0.1448490189700218  0.7495345678083389
  0.1093054084178602  0.1455864233166370  0.7507832131298428
  0.1097959023409511  0.1427906131148222  0.4992624739745952
  0.6656505212601037  0.6644910150351684  0.4174060253313382
  0.3307591096604992  0.6673579228467822  0.4174304454547381
  0.6647673689413457  0.3345924887492868  0.1671341214334611
  0.3315625797521870  0.3350240305078681  0.1667061533579249
 -0.0036170571986562  0.3353743869990012  0.1673957581197161
  0.6660630581672299  0.0027847127635226  0.1674382012033306
  0.3328023392836528 -0.0027288002267043  0.1663872305594242
  0.0019739702968653 -0.0026624479204136  0.1661977392084279
  0.5564810888519408  0.8884615463681356  0.0830966770850019
  0.2224233525459675  0.8859855632777119  0.0827639499756431
  0.8894925229529986  0.8867566503533295  0.0836687064740195
  0.5569426535329508  0.5566182655777295  0.0832747524159006
  0.2212345178934801  0.5559385464620340  0.0832823162426505
  0.8871091302475410  0.5570459667627530  0.0831950729510996
  0.5547444409958212  0.2228519982981635  0.0827505990683112
  0.2220616340235753  0.2247931238237164  0.0829300106186306
  0.8886149047828957  0.2200162019889959  0.0828737968365183
  0.7752763074599597  0.7783466023237886 -0.0007606135998294
  0.4462907306057526  0.7767701964002909 -0.0007636817503641
  0.1102955596013751  0.7756962236987973 -0.0003956760282742
  0.7768342626538181  0.4414499493743871  0.0005064626656114
  0.4422703497075685  0.4473942380519106 -0.0003464526286976
  0.1093120935234683  0.4470274282718227 -0.0002429007726030
  0.7772917014427062  0.1088202671676873  0.0005435792999441
  0.4443585054951195  0.1101301478718824  0.0000876731168258
  0.0003450076058243  0.6655408323314513  0.1665174460605640
  0.3351526078944339  0.6665447377438766  0.1665815459042799
  0.6672912441005908  0.6678090126363876  0.1674257565538621
  0.1110641897051999  0.1129549610210588  0.2505470732386824
  0.0026308505219771  0.6656291579656803  0.4168220049548573
  0.6679679277210957  0.3327602284654236  0.4167357322769351
  0.3341128627103972  0.3349744506589459  0.4161907617871456
 -0.0014832037499198  0.3338074403920256  0.4159583277932658
  0.6635249734349051  0.0029119313870519  0.4172779099008744
  0.3315331131146025 -0.0002515400914237  0.4163507943289928
  0.0022758089427796 -0.0028278985396464  0.4163422334274188
  0.5522477332290495  0.8904058535730619  0.3337548323503723
  0.2196115923392204  0.8896017029796255  0.3339118699026463
  0.8873704635981498  0.8898055018619855  0.3333627837127759
  0.5536796128141490  0.5543131423692880  0.3331399268128621
  0.3341665086579067  0.6973900505305392  0.9160369822455982
  0.2243948818552409  0.5548110984168888  0.3330341136829008
  0.5582123669295789  0.2198762436006530  0.3341220421050279
  0.2210947432031718  0.2195997997253095  0.3325609502631690
  0.8895204081159952  0.2209753019910422  0.3335760609860129
  0.7761606334838560  0.7782977045923669  0.2494027982018988
  0.4454093163804535  0.7754714232946518  0.2506298316499750
  0.1087074272253795  0.7780375530470781  0.2505672533797837
  0.7774618521395225  0.4437444591424594  0.2495425908118008
  0.4460529451760651  0.4424925280290032  0.2507395556772385
  0.1123874780040037  0.4446353269650584  0.2502482738581421
  0.7782488346664479  0.1083798874050509  0.2498857688571511
  0.4449887681267331  0.1119502309415739  0.2492669788372757
  0.8882830020772327  0.5535990203091068  0.3330935839428868
  0.6676123581617587  0.7004806068361118  0.9165065658095443
