Cu
 1.0000000000000000
     7.6685730419681093    0.0000000000000000    0.0000000000000000
     3.8342865209840546    6.6411790651208911    0.0000000000000000
     0.0000000000000000    0.0000000000000000   25.0450909090909093
 Cu 
 108
Direct
  0.1105167045805145  0.1116272983993022  0.0006355973047646
 -0.0005657270411023  0.8986165479874534  0.6659756054459018
  0.6694960903233340  0.5657675525024504  0.6670677537338244
  0.3327952473435207  0.5684541298201682  0.6667941678539072
  0.0008576358466081  0.5665956206020127  0.6667713489835381
  0.6686798977662601  0.2315626558008000  0.6671056921843058
  0.3350841612505384  0.2303949861790378  0.6667298997176955
 -0.0029002190449339  0.2350914372705032  0.6666398705252045
  0.5581153053244854  0.1221725546532301  0.5839289562679411
  0.2238833099904250  0.1192641738439443  0.5833972541126770
  0.8871853143011429  0.1225723415488572  0.5836252113358052
  0.5567568818857914  0.7868030554000526  0.5839115443526418
  0.2214583094188661  0.7867975935547376  0.5832514429544481
  0.8911655997945558  0.7875865724334327  0.5827690128466335
  0.5544197256020281  0.4547248569218710  0.5838442486287166
  0.2220623220828283  0.4551262027623821  0.5835545854655156
  0.8868203500457167  0.4556147724155060  0.5841283525244799
  0.7763164003928453  0.0119089157483606  0.4992835440255256
  0.4412310957743428  0.0124781124337391  0.5007423672059835
  0.1107758039939142  0.0138628009367012  0.4999204668482138
  0.7763325935665256  0.6759505443267948  0.4994726067590327
  0.4453910663776788  0.6760136435671030  0.4995533824061147
  0.1125644474443236  0.6766501056135743  0.4993508171633669
  0.7803359434358588  0.3425218618904986  0.4994520040294679
  0.3314423110809683  0.9005392597621893  0.6672615674483335
  0.4451397364970230  0.3429059883850921  0.4992337697172756
  0.6645544828235731  0.8998817747613301  0.6664080667606951
  0.4427502788372074  0.3434094436508131  0.7504134612890804
  0.0026923826095469  0.8990916114097867  0.9168463586642451
  0.6643713554013574  0.5685260615996829  0.9158911879061312
  0.3349597580026540  0.5681078811859799  0.9160260249548229
  0.0002419897031248  0.5682718153873605  0.9162069296497419
  0.6694372665637397  0.2325997245902371  0.9165732333891956
  0.3301819578750348  0.2362520821505441  0.9165747527013042
 -0.0008427448546640  0.2313653705380573  0.9166273875730226
  0.5559021193857523  0.1246481982685206  0.8334148399762570
  0.2222005963895253  0.1237888599135243  0.8327997215990383
  0.8908042387413173  0.1233929291285508  0.8333659008023371
  0.5536430587643794  0.7906394592196204  0.8330647869951350
  0.2234894025982757  0.7870804163833645  0.8330744103921057
  0.8903197906533621  0.7895057064223658  0.8337779834834884
  0.5545286867651457  0.4572063401944154  0.8340025819771802
  0.2197654991703597  0.4564928897035169  0.8326468332116521
  0.8871290370699176  0.4568607478824798  0.8339452998390811
  0.7774487685703104  0.0129573500818660  0.7505030821120569
  0.4471769454929748  0.0108325167209599  0.7497328385155169
  0.1087709449944280  0.0132674571468485  0.7506826736276310
  0.7772929880905717  0.6770494966725458  0.7499753466262512
  0.4444240641902611  0.6749652429186311  0.7504357707635320
  0.1114672537908274  0.6760413512567295  0.7493516373052308
  0.7770830211071681  0.3417823461415482  0.7500489885984744
  0.1117734509485036  0.3467050428513500  0.7504295149585948
  0.1105595451186804  0.3459805418789496  0.5006735497578174
  0.6680294409385239  0.6659381151218960  0.4160225578038336
  0.3323219776857042  0.6688139115060581  0.4163792260968368
  0.6673344384775501  0.3331563506011497  0.1669963175472090
  0.3315791144610954  0.3322336694552260  0.1669009327992682
 -0.0013201231305253  0.3309025462930725  0.1663632663134583
  0.6692022644705279 -0.0007978494400026  0.1661798630505307
  0.3314154711212798  0.0011977237421970  0.1662796933835434
  0.0012678543344610  0.0012944457753645  0.1662170534137534
  0.5529918219757076  0.8901691583428452  0.0840044763415077
  0.2238648311687493  0.8903669227250024  0.0830263204773991
  0.8919659308011252  0.8867316076880819  0.0833454665184902
  0.5567104442287484  0.5538484682333038  0.0836486781535627
  0.2221180421529799  0.5554405804451191  0.0840918432827944
  0.8902247916886326  0.5577571824983755  0.0836260649503445
  0.5528916687019506  0.2235073791180151  0.0830211461638414
  0.2215910187132184  0.2228866782163284  0.0832476625763090
  0.8882486945118692  0.2204156315218074  0.0829695991724011
  0.7798398146535249  0.7785060554559499 -0.0007881972728547
  0.4427335077051357  0.7790461542477169 -0.0002999209781097
  0.1114212192609167  0.7774000647943994  0.0007940266105310
  0.7760292600706525  0.4446434293102514  0.0007192677386676
  0.4435253599028897  0.4445984664969339  0.0001579829205800
  0.1106801063344243  0.4460005419861584 -0.0000558114420162
  0.7791244732690165  0.1119993769568116  0.0001347978113807
  0.4469794791535631  0.1111797358172845 -0.0004264893150665
 -0.0000884131305686  0.6693442809933990  0.1661032511071459
  0.3348905035900778  0.6663960408904905  0.1671165935563475
  0.6680501049597987  0.6646368110877741  0.1673699140577563
  0.1134793352301481  0.1090977957515832  0.2493209311896266
 -0.0026912457377755  0.6689855485192117  0.4173636913431436
  0.6703539426276400  0.3305014289011007  0.4163757735494568
  0.3298935718270414  0.3361766721601255  0.4167901781988310
 -0.0023380779816541  0.3349191102117238  0.4162070465976315
  0.6668128844061830  0.0004615409468406  0.4160803923772806
  0.3349688070080409 -0.0005784841365324  0.4159357687653948
 -0.0006074667258073  0.0008971358234872  0.4173572546694547
  0.5544964216342629  0.8872172114713499  0.3334727982571591
  0.2234576146294896  0.8869013780814403  0.3332632629022437
  0.8889889772259362  0.8910496729267675  0.3335076146178061
  0.5567515309751792  0.5533127910595563  0.3327792447947759
  0.3355286524053339  0.8988292849432949  0.9162652530870106
  0.2197894371764609  0.5583229660303648  0.3326899976208262
  0.5570739906485758  0.2232634729704575  0.3332477425503805
  0.2225326501203753  0.2214536391914829  0.3335658353694130
  0.8868553144391136  0.2240782933537099  0.3329001058746523
  0.7794053033065629  0.7748722977352357  0.2504021525345819
  0.4442192753796256  0.7752412968747203  0.2493296975372611
  0.1138420713787114  0.7750250727737460  0.2503740993054356
  0.7749922255626064  0.4454440863072477  0.2495596594653539
  0.4435923541162572  0.4464995385190667  0.2507996204398246
  0.1133345112008747  0.4415271252408187  0.2497012398690779
  0.7778441348932300  0.1095304424019471  0.2505822505594029
  0.4456050309778208  0.1100383279738179  0.2507202434176221
  0.8919417866051580  0.5527688654008828  0.3330967721208867
  0.6697646456777830  0.8970153230511413  0.9163226041095173
