Cu
 1.0000000000000000
     7.6685730419681093    0.0000000000000000    0.0000000000000000
     3.8342865209840546    6.6411790651208911    0.0000000000000000
     0.0000000000000000    0.0000000000000000   25.0450909090909093
 Cu 
 108
Direct
  0.1099477872276338  0.1104846864892996 -0.0000528899429742
  0.0019819493580511  0.9844258348287878  0.6668297730057378
  0.6650154286276025  0.6519196606323409  0.6663913494012550
  0.3349238810160243  0.6475120897799299  0.6672999197179729
 -0.0011857456825898  0.6503800175637829  0.6664663173965422
  0.6646599737752777  0.3189055652979051  0.6659331736939474
  0.3317773635294120  0.3190575546200434  0.6670543006340218
 -0.0020794411898010  0.3181887330281777  0.6660618713211680
  0.5544875443082049  0.2049102628736224  0.5840004841695220
  0.2249759074147666  0.2040982220795260  0.5839608988072541
  0.8911357879059610  0.2034300742697531  0.5839870162636200
  0.5564476827264337  0.8724908760690562  0.5827574948328089
  0.2223636639354044  0.8731952493359890  0.5832653421844856
  0.8867470449851989  0.8741812422275097  0.5836050029043952
  0.5569104760518681  0.5372901321689260  0.5831457220987496
  0.2206108228877954  0.5397431606344661  0.5834612977592969
  0.8870466601509007  0.5374662280152235  0.5825689180852124
  0.7787004811684430  0.0932982669756393  0.5002116327103467
  0.4453272058838990  0.0917177457277479  0.4998924447687313
  0.1135327926145913  0.0916138196270578  0.4994547150710855
  0.7758242606760913  0.7606860076765225  0.5004097825124403
  0.4454574663225294  0.7610065633578166  0.5003183586203030
  0.1131678943998256  0.7618155931038322  0.5002353425581733
  0.7753159194834671  0.4296877239253354  0.5001612536397109
  0.3326172901114705  0.9852035565557475  0.6667388243625794
  0.4416895594067601  0.4304523106494722  0.5004486305883609
  0.6637601130569097  0.9857440142762516  0.6668652130519218
  0.4412212639895317  0.4293952222543730  0.7505000296130303
 -0.0010973101034086  0.9810556051246256  0.9163353418631679
  0.6655512397993277  0.6484116899453362  0.9160184096495549
  0.3316278639539411  0.6514504236382348  0.9167184013632773
  0.0000840922469538  0.6530059716260502  0.9160343335577651
  0.6635098458358106  0.3178222944171442  0.9163435762660338
  0.3319939550676356  0.3154001839373182  0.9164254576532619
  0.0014754832393852  0.3162978749030553  0.9167074997597430
  0.5556908044526235  0.2064942606816724  0.8335602846170989
  0.2244902628453466  0.2029570762880454  0.8328732932809267
  0.8862389805263831  0.2071907213207349  0.8325939805344480
  0.5570062741826117  0.8702267791913147  0.8334118451796020
  0.2212949509629953  0.8718109450116305  0.8330125064703543
  0.8857415139202574  0.8743193865491132  0.8339174188181855
  0.5567141735011066  0.5403015467002793  0.8334625506978881
  0.2240853983623889  0.5386681611190056  0.8329084801613750
  0.8868318090382935  0.5406859995787361  0.8331986395344111
  0.7755940290118406  0.0943043246010014  0.7502921853081965
  0.4417091839719867  0.0950473556916686  0.7505433916026419
  0.1104106796512493  0.0917270614668657  0.7505646504462757
  0.7784737245039930  0.7596513380517170  0.7497120730117638
  0.4446430180839150  0.7637331267452958  0.7493750684492567
  0.1088861439895010  0.7606649521539534  0.7504902936487789
  0.7796821584828850  0.4274632618907917  0.7500304738236276
  0.1092300793918134  0.4286900252372822  0.7493906339775270
  0.1089911195154924  0.4305483994751485  0.4994682825835947
  0.6639623324093762  0.6695737451670514  0.4165182031862909
  0.3328243627896257  0.6654466932267222  0.4174371800019569
  0.6685118787296163  0.3329758380978652  0.1663111674557857
  0.3349110748532528  0.3304246423072731  0.1666473807692840
  0.0017568538917866  0.3327645785873229  0.1664446729570542
  0.6657833690009342 -0.0028144821967271  0.1659399682777691
  0.3344824177010239  0.0007529854849413  0.1666724817603550
  0.0004064921522550 -0.0010365461236733  0.1670773232473547
  0.5529946680577292  0.8907060382316969  0.0836634654177632
  0.2219799504407612  0.8916047600163741  0.0840978850871520
  0.8886993977750320  0.8882112023385323  0.0827515448599875
  0.5532028881786423  0.5557334412690633  0.0835399423986504
  0.2226953214310321  0.5567692876951889  0.0834431357722143
  0.8918857389874584  0.5541250463231389  0.0834429456950476
  0.5556840660522192  0.2239188613987256  0.0834605951612045
  0.2252177769355615  0.2197250276536655  0.0831917770796721
  0.8860836663523498  0.2252099219710867  0.0828958432714476
  0.7785874168598247  0.7791655196616792  0.0007433538923660
  0.4476698017001279  0.7761806889336418  0.0000243728209004
  0.1122047400488707  0.7801109656296923  0.0007636250307100
  0.7756783401079118  0.4445610820629142 -0.0006880345337933
  0.4445112660259274  0.4421074630859721  0.0006819449199851
  0.1106374656340809  0.4454946475069177 -0.0000558611222894
  0.7777746612173386  0.1087050118031262  0.0000099239432613
  0.4470257634057062  0.1093780754999146  0.0003271940568645
  0.0000092752916776  0.6679335459431888  0.1662295037857383
  0.3341161116414795  0.6693513443033997  0.1668538876953825
  0.6674883590661770  0.6657992048568275  0.1669640898392259
  0.1116905599150780  0.1083074630496599  0.2502914596455300
  0.0026100562447634  0.6646397392337615  0.4159019860976897
  0.6666947496578214  0.3342251856414470  0.4172876344967238
  0.3332172043314039  0.3330612090133456  0.4166853744129769
 -0.0032901643445774  0.3356320709568126  0.4171698591458749
  0.6675468805494473 -0.0002194725590023  0.4165469221392867
  0.3366233314307707 -0.0017490345360713  0.4163145737876592
 -0.0003684004846706 -0.0018053763078520  0.4160391466894580
  0.5572342925887972  0.8862965268568969  0.3335693491980831
  0.2192282243786385  0.8904920011596136  0.3328204372999631
  0.8860336681429274  0.8899224857271358  0.3327512323508122
  0.5572474781444516  0.5558806243309607  0.3328515249156849
  0.3341028415419061  0.9811012376542705  0.9160658094663950
  0.2203631626239571  0.5579415699378493  0.3338798764475913
  0.5557486999823004  0.2242267322360685  0.3340514409911839
  0.2200380006588107  0.2248344911521570  0.3327342431051466
  0.8869139188031199  0.2225586733964320  0.3333417580198013
  0.7754638290200423  0.7784547174758950  0.2499022851902950
  0.4446196969857207  0.7800513004403586  0.2500169928532174
  0.1078583269360703  0.7800575735576184  0.2502668310260914
  0.7799362862399093  0.4421937121682277  0.2492659106254400
  0.4465418513692002  0.4441813909700753  0.2493188614757177
  0.1086760465551803  0.4466245706166027  0.2499761971494455
  0.7806071166974237  0.1105347792709378  0.2508005020275727
  0.4439190041637560  0.1131798768161650  0.2498728732309775
  0.8874438025914078  0.5540062714362765  0.3337443938817128
  0.6689524604055691  0.9809915427936613  0.9159502807862303
