Cu
 1.0000000000000000
     7.6685730419681093    0.0000000000000000    0.0000000000000000
     3.8342865209840546    6.6411790651208911    0.0000000000000000
     0.0000000000000000    0.0000000000000000   25.0450909090909093
 Cu 
 108
Direct
  0.1079230009031689  0.1130142692225221  0.0002282738975673
 -0.0014234218070486  0.7828507634197908  0.6665787364156157
  0.6638334901636590  0.4518920433633173  0.6664285961746883
  0.3321310097471532  0.4526328431808077  0.6661740527676180
  0.0012157386808071  0.4483443733281322  0.6664988221445856
  0.6669871209898631  0.1178915832810476  0.6663994741097544
  0.3344453871374574  0.1143571361894019  0.6666944989545962
 -0.0028361826373929  0.1185230441326653  0.6672635672545544
  0.5559283459911291  0.0053437044499028  0.5827730256878656
  0.2211529974374269  0.0043025813170582  0.5835859988263845
  0.8866143135954512  0.0053202053550615  0.5839493571354311
  0.5559167417894778  0.6725468833524593  0.5834105966707355
  0.2201981085158496  0.6750653795605795  0.5838807925120960
  0.8871854156902357  0.6710587872533617  0.5827858054903783
  0.5565308152260243  0.3380702117828210  0.5836058520009958
  0.2219219868535439  0.3397743329136113  0.5834544599767055
  0.8905825657405906  0.3390993060304925  0.5836052463349741
  0.7762109496949565  0.8925963268668926  0.5006936806250980
  0.4459866328755321  0.8921382716927578  0.5005151056253215
  0.1128921739447960  0.8946806564826296  0.4997849607453632
  0.7763936426391764  0.5640853383225884  0.4992915171138100
  0.4453247346498347  0.5586269901537410  0.5002096497501540
  0.1089634451076530  0.5621587295645010  0.4994870681467334
  0.7780694007348958  0.2260419686625502  0.5002782566373504
  0.3308764774229512  0.7836125353000388  0.6673372090794556
  0.4424537043797428  0.2290457808940791  0.4998931889373000
  0.6656945902187235  0.7848184069559068  0.6661211321748769
  0.4449494514092003  0.2252203324465122  0.7504394367183690
 -0.0009620047093120  0.7832768704310932  0.9172390602146573
  0.6691720580354358  0.4471389739399410  0.9170647603920214
  0.3325020205020612  0.4526213242728482  0.9164672240739499
  0.0021768500819579  0.4472622459007673  0.9168361782518590
  0.6665301678677730  0.1188481444100526  0.9163105621977389
  0.3314742901307994  0.1184839350377170  0.9165786414330377
 -0.0016124466222420  0.1161378677238174  0.9159072244335362
  0.5555762808931674  0.0057434916518103  0.8329809782692655
  0.2207506959873069  0.0058107382413945  0.8341002174842937
  0.8923194232321139  0.0038596870901402  0.8333765297512269
  0.5553173157869657  0.6751595417885138  0.8335603456255041
  0.2234593493710013  0.6728498366839074  0.8334867199413782
  0.8878361775916693  0.6739669558425825  0.8326222758713108
  0.5546707932823098  0.3399812863980006  0.8340950648579912
  0.2249105825839509  0.3368631336333149  0.8328629347240031
  0.8883255400033891  0.3384984705832336  0.8326322544793944
  0.7761218208171379  0.8953325702348143  0.7497853300856798
  0.4430959648228254  0.8966054184661416  0.7503174933184734
  0.1135399306852248  0.8939024456949164  0.7507998621768454
  0.7787586979291984  0.5590960864602067  0.7504872345802690
  0.4449107323676895  0.5623346193668027  0.7494841650409932
  0.1141241534890446  0.5599166601418032  0.7500549132444991
  0.7786692897059239  0.2272810679942709  0.7497869361532056
  0.1094746668898904  0.2282457714220176  0.7506333946774846
  0.1126897296848171  0.2271560590801841  0.5001840103857251
  0.6665894377271904  0.6669871639912924  0.4173130090918885
  0.3334409292853143  0.6637805873843445  0.4165646871234753
  0.6687953219134875  0.3319929481000068  0.1663700412760664
  0.3324440070146206  0.3358857970146409  0.1668924131905467
  0.0010844297977207  0.3359679092172811  0.1670375793800744
  0.6636822119276079  0.0017734217503203  0.1670812031521819
  0.3364818660535743 -0.0028553519690466  0.1660538119040701
 -0.0021192025514078  0.0012901672552350  0.1668861885420900
  0.5556440661979618  0.8900363425253330  0.0828889055041235
  0.2237053247054089  0.8893840223820836  0.0828126049756433
  0.8915740633958983  0.8879156585979250  0.0831884928690741
  0.5564090160328722  0.5550820169884362  0.0829443858537425
  0.2231278163610183  0.5548651461893267  0.0826770323612066
  0.8882444950057508  0.5581322987183505  0.0837382378015904
  0.5569001289717899  0.2239422321432154  0.0841275424760355
  0.2210198947329150  0.2213574660336942  0.0828590298563305
  0.8880991458209653  0.2199876933140849  0.0832472431233751
  0.7779895968007802  0.7799611938196254  0.0003853599194799
  0.4444601457893677  0.7791173220654394 -0.0001371436280977
  0.1133542435135332  0.7767907401683051  0.0002144199900969
  0.7791946440358107  0.4450811300706671 -0.0004336267878147
  0.4458763793820955  0.4448038554101015  0.0007547869711716
  0.1077741681831446  0.4463503923847731 -0.0000241548199758
  0.7784337582680755  0.1092898596529892 -0.0002268063783891
  0.4425943776454340  0.1116460690915886  0.0006314006254612
  0.0012304609432077  0.6686981274729459  0.1671404232614256
  0.3335638985121756  0.6678599583496111  0.1665157782959535
  0.6680876648352186  0.6666398204063732  0.1673964978223303
  0.1121301349732884  0.1132358992166670  0.2499674438762398
 -0.0000594398592357  0.6676863439053740  0.4158753652228577
  0.6658382187314925  0.3341504807133325  0.4159813293799249
  0.3354116245331312  0.3343240371678265  0.4167989712685075
 -0.0002098915758354  0.3341868015478505  0.4172082383491622
  0.6678260192265676 -0.0021553135303157  0.4165974794667742
  0.3331143734265144 -0.0008641494975420  0.4173404246851019
  0.0004503305404724 -0.0012646110802916  0.4165159889250482
  0.5544631138130702  0.8889290843228720  0.3325593787625011
  0.2231548235376723  0.8904748956312607  0.3333230376741462
  0.8889045191584376  0.8882194968966222  0.3337098822581274
  0.5575974250703112  0.5547367733110254  0.3336389898607067
  0.3342955313895464  0.7806095211570974  0.9168756980328946
  0.2200363459551186  0.5553211572660788  0.3338500993798593
  0.5540730463106384  0.2226505891711426  0.3327536882253673
  0.2219495573219393  0.2233773721653715  0.3333209706901596
  0.8900896908533663  0.2205844620025976  0.3331035306833461
  0.7814983491498886  0.7753398259773912  0.2499411914874168
  0.4432650096651120  0.7803212397045943  0.2499323416338139
  0.1084615737432479  0.7795904209123597  0.2501666234341010
  0.7801606271933950  0.4431036839374873  0.2493528753372485
  0.4449622184064919  0.4468112093510343  0.2497934979100619
  0.1137440696553885  0.4425083684689870  0.2494820831898169
  0.7808438428008218  0.1081888872997946  0.2502713150851281
  0.4431958769509360  0.1098315357776945  0.2493909381945473
  0.8922650844085267  0.5535392826701918  0.3329096042671855
  0.6632654148824202  0.7860865407204100  0.9170303639127946
