Cu
 1.0000000000000000
     7.6685730419681093    0.0000000000000000    0.0000000000000000
     3.8342865209840546    6.6411790651208911    0.0000000000000000
     0.0000000000000000    0.0000000000000000   25.0450909090909093
 Cu 
 108
Direct
  0.1109099400189868  0.1117365533465220 -0.0000464094185694
 -0.0004753716932355  0.6678066474598217  0.6674179879898422
  0.6673995669706675  0.3338436617427055  0.6667785789657539
  0.3348104460058332  0.3343269122567276  0.6671417015363855
 -0.0021069784457615  0.3324571016682147  0.6661944449291517
  0.6692313796778799 -0.0020682251535776  0.6670784253087403
  0.3326475993827582 -0.0027528063686235  0.6668092785433364
  0.0000772381311064  0.0010698007676228  0.6673398349450589
  0.5521658358957767  0.8917851543621047  0.5838023953857938
  0.2215433113455489  0.8903504869922771  0.5831909001816150
  0.8882458900495497  0.8878338438124677  0.5835350809002726
  0.5568902942893098  0.5575033065563292  0.5832899866802781
  0.2214566721818056  0.5542036991043712  0.5837917188656639
  0.8880189497668836  0.5569590421940495  0.5825595716007241
  0.5587694454810523  0.2201296035972092  0.5828806225226424
  0.2231863264965318  0.2219676532208724  0.5828331262649424
  0.8910055286518366  0.2198056663920400  0.5828845336142632
  0.7802408701296748  0.7772400098834000  0.5003822046346642
  0.4448942825497361  0.7780433831871391  0.4997840252077614
  0.1082767549012290  0.7802175559858457  0.5001083260429420
  0.7778507979174358  0.4422919822897053  0.4996716528107094
  0.4463536161700806  0.4444482642201366  0.5003391603417365
  0.1103305185562614  0.4430491747116090  0.4997702945111133
  0.7775736813244875  0.1133432069537641  0.5003443576700036
  0.3333590343540686  0.6671482143316736  0.6659415345602410
  0.4456745335291113  0.1103589502378261  0.4998660776320428
  0.6650022763772824  0.6696335485771953  0.6662667201613528
  0.4427000949383481  0.1108936988912598  0.7492725205890678
 -0.0004341462567647  0.6693874059026380  0.9161961241544249
  0.6677061778674382  0.3317873187877027  0.9173248535813670
  0.3322093654118951  0.3308536382825507  0.9162497092709734
 -0.0010869264508188  0.3305222870343552  0.9173837547437769
  0.6702643761964765 -0.0022411332752513  0.9169801180933415
  0.3341547021499734  0.0017279761372356  0.9174773778361605
 -0.0010724466008170  0.0023445206431379  0.9159541175522922
  0.5565285525799402  0.8871422858723381  0.8334775693964329
  0.2210924986309838  0.8861124984755580  0.8328622043573107
  0.8870142632966334  0.8881606869778231  0.8338348460614520
  0.5579535524080640  0.5546764355336193  0.8337648543867874
  0.2209996638136942  0.5563273551791467  0.8339942086895302
  0.8886731414223008  0.5528604018732531  0.8338282028413400
  0.5545006064766077  0.2208397336656654  0.8331825931809046
  0.2233034929386052  0.2214518845673707  0.8326912567638713
  0.8888904429699499  0.2236977905031621  0.8326437104263826
  0.7752518914902696  0.7779586850279301  0.7504286632832703
  0.4439889374076925  0.7755323731192627  0.7505444008373946
  0.1109767708934513  0.7754822022351483  0.7502442884931757
  0.7761152765221934  0.4473411971444098  0.7494736902970727
  0.4416853040972236  0.4461117930524643  0.7501995933453195
  0.1124710708342511  0.4429236253005637  0.7500628462843341
  0.7776252128888432  0.1133231835177314  0.7507836626728924
  0.1098289830568248  0.1128900244029323  0.7492860238643211
  0.1081209871326924  0.1139281721894444  0.4993190377534329
  0.6668020610682802  0.6670149540308931  0.4171549568486497
  0.3352978538797518  0.6645480662160276  0.4168171725942499
  0.6653584818624722  0.3341007696228280  0.1665594695309509
  0.3329145790271628  0.3330529812121826  0.1663085930172381
  0.0026238689375298  0.3314641351975874  0.1674364706273929
  0.6648081614253206  0.0009527740827507  0.1666958088619956
  0.3360335784389338 -0.0019002258723926  0.1661640016020503
  0.0009811924083433 -0.0017574780537703  0.1663479714188805
  0.5553084244721761  0.8918305841428137  0.0839609992674530
  0.2228158103947543  0.8881640217584005  0.0835013224684290
  0.8905114784224955  0.8902396955126293  0.0839037220646318
  0.5558443799488738  0.5528680755958211  0.0834426187894417
  0.2218059822870828  0.5559090288467123  0.0825405975157623
  0.8875448179536145  0.5574107544896356  0.0825511687728006
  0.5550491637232778  0.2195680290184507  0.0830381449217735
  0.2207980907901139  0.2212778662577366  0.0838328363368889
  0.8866226243899349  0.2248876806516495  0.0836582270604325
  0.7758904124914018  0.7765191151676798 -0.0001896793100096
  0.4420397630274323  0.7789768978341288 -0.0000842617074947
  0.1107060953785060  0.7801798062419280  0.0007582544338617
  0.7775239031867186  0.4426611058967408  0.0001997432325663
  0.4413691522659185  0.4473595628422246  0.0002715057678382
  0.1120886872037669  0.4462837095382571 -0.0004018788954805
  0.7758743336203978  0.1126390419180000  0.0000825259958828
  0.4428099495420746  0.1112843274953589 -0.0004934519440008
 -0.0009997020948073  0.6642491057287653  0.1659767001462185
  0.3331868054943403  0.6691270251998563  0.1665134355760944
  0.6674599648923839  0.6651120366167825  0.1669865037092672
  0.1118116427088876  0.1137336768079831  0.2495135829837250
 -0.0002622773139521  0.6659002612752855  0.4172820412659510
  0.6659662338399888  0.3335156357709425  0.4169440042008662
  0.3304533187034986  0.3352177693549673  0.4173285386610954
 -0.0005262462004419  0.3340683814897725  0.4168118060051044
  0.6667630927571273  0.0015206281301959  0.4168057833419331
  0.3330785666069156  0.0005422275963250  0.4169588385335561
  0.0014530764528789 -0.0022749036920355  0.4171055841823564
  0.5577786950294525  0.8863533422198817  0.3326757747657572
  0.2209265214403223  0.8880510556627489  0.3336250573471113
  0.8898324244981750  0.8861734979820456  0.3332371769655131
  0.5548393096253924  0.5547295710752480  0.3332471713199761
  0.3329535809495878  0.6651083462928605  0.9171092950898247
  0.2186011385488701  0.5583028509827798  0.3328581274573875
  0.5535076584160763  0.2225083211342002  0.3328660080628394
  0.2207846663606045  0.2216799727526442  0.3332931460469609
  0.8904575981336982  0.2207237467395619  0.3339540246884044
  0.7804019384943587  0.7767852714839965  0.2494488950786528
  0.4433302139634747  0.7770751872551079  0.2504851122317541
  0.1119811741045912  0.7754164132430030  0.2501106127005353
  0.7780100021433703  0.4430927569808702  0.2499452641567592
  0.4457309217157168  0.4456927080305276  0.2497601792813813
  0.1110476717363824  0.4462391446232497  0.2494163072361409
  0.7770724771376105  0.1118338517850756  0.2500509839862670
  0.4463121344024335  0.1121651025311856  0.2503880580639735
  0.8901992416339622  0.5558354395369439  0.3335543076292359
  0.6634408349067924  0.6683789856853792  0.9173144272379373
