Cu
 1.0000000000000000
     7.6685730419681093    0.0000000000000000    0.0000000000000000
     3.8342865209840546    6.6411790651208911    0.0000000000000000
     0.0000000000000000    0.0000000000000000   25.0450909090909093
 Cu 
 108
Direct
  0.1088907232330696  0.1113267699926786  0.0006670796039504
  0.0034097352976811  0.8304185526072283  0.6660213464005589
  0.6651351828346589  0.4986685624445470  0.6672645797850133
  0.3368934943551113  0.4980735523900938  0.6668861666092835
  0.0007203755180215  0.4985380869409647  0.6674248890163867
  0.6667794447401935  0.1686398989767842  0.6670860628066713
  0.3325805301324532  0.1670448859053275  0.6667991445154727
  0.0015432797499866  0.1677827274023521  0.6673598674453058
  0.5546949505252081  0.0527018665882506  0.5835160858576459
  0.2206874654579380  0.0540627137712358  0.5838012764712712
  0.8890623877817748  0.0561349666411508  0.5837887575224197
  0.5537091892081091  0.7244370235878603  0.5833765307370221
  0.2192017536738155  0.7243635473595096  0.5839410046479406
  0.8909603021550729  0.7215335506377636  0.5831035725211386
  0.5542918602137837  0.3894330802936658  0.5826493064452636
  0.2227744796121757  0.3871325043155036  0.5833352425553410
  0.8869194088488499  0.3894587138401229  0.5834211949547090
  0.7776141743233022  0.9446804926078701  0.5005617958515971
  0.4461034739642668  0.9437502464581289  0.5007711133232207
  0.1101092363058353  0.9460247059465929  0.5008054097035195
  0.7789116461107924  0.6112307628159042  0.5003632340439096
  0.4457306907001473  0.6114821766704783  0.5001266115099285
  0.1077809250584724  0.6132418968215148  0.5001662452104466
  0.7784005325946891  0.2770421297622305  0.5001703355816068
  0.3344438371829621  0.8307601466296622  0.6667291972063691
  0.4435190313250542  0.2773749591471992  0.5003561709773616
  0.6646779391450437  0.8342663402278145  0.6665252129736401
  0.4465523458134651  0.2758141155253177  0.7499822717898497
 -0.0007366328642650  0.8304170719612781  0.9164013302825511
  0.6644745393701839  0.5029741154461381  0.9163082582436972
  0.3341495735258495  0.5021910507326529  0.9166050799216199
 -0.0017236800255045  0.5001206128545376  0.9169553918694933
  0.6661392983253218  0.1649788895969639  0.9159710777440826
  0.3351538688288258  0.1656889658499279  0.9174583050759285
 -0.0021208634636152  0.1683361852743059  0.9170196811683322
  0.5548619845491171  0.0551922995177434  0.8332808869067658
  0.2216733860349694  0.0578836962433711  0.8331642181453724
  0.8893920597821912  0.0567571095053077  0.8336468196073038
  0.5565856698012904  0.7224598804981428  0.8335546379541384
  0.2219851384884554  0.7227422649859112  0.8338267376782160
  0.8910648450265884  0.7224064314205767  0.8328825246691226
  0.5525548619211060  0.3903630705770177  0.8328416647416951
  0.2231479751324860  0.3901489572215940  0.8340703815820945
  0.8869322181172005  0.3915700695851876  0.8335465325407418
  0.7791405763695581  0.9465055305406193  0.7504437947878297
  0.4429572275555542  0.9427129795134357  0.7494730133857055
  0.1143760531305030  0.9424502508252545  0.7505215750291769
  0.7775532837856349  0.6135938602554166  0.7502973572635060
  0.4419353890012735  0.6136569391352296  0.7504086832191119
  0.1081984691898756  0.6137459199283857  0.7493588450864658
  0.7779691122362294  0.2776740410116813  0.7504789733257270
  0.1091941526571349  0.2780005548513261  0.7503815174156974
  0.1136207214440750  0.2769609091438471  0.4997269109505527
  0.6671657939992046  0.6638383770374130  0.4165352166660060
  0.3359623341397918  0.6651837173565304  0.4174678108582974
  0.6688344536409287  0.3320475031479140  0.1660287590762426
  0.3316736802092732  0.3329247400016268  0.1662029247575907
 -0.0008613836564885  0.3350681901319464  0.1674115294989746
  0.6670916220075678  0.0009175474897435  0.1667082966386300
  0.3298713831119602  0.0028074308156542  0.1671451988038362
  0.0011983372217306  0.0022697088487129  0.1664171729913595
  0.5523854910500798  0.8905036921171738  0.0839379012824205
  0.2216629579358288  0.8885427718144798  0.0837921693060173
  0.8890786856432832  0.8907177889132974  0.0835103296079503
  0.5547408744282059  0.5580716460016608  0.0838127256801063
  0.2233047711218866  0.5541909763425344  0.0840912313003023
  0.8885665718354384  0.5533467603369667  0.0829361109309393
  0.5545758879067153  0.2235120420016263  0.0827064655121200
  0.2230486679006251  0.2235168854273087  0.0831693805685173
  0.8881169544349832  0.2197475162485870  0.0832055015038359
  0.7771359227595616  0.7772239967392203 -0.0003785864221923
  0.4476579364770710  0.7754273068270666 -0.0007583907156811
  0.1100964971276578  0.7757866124837126  0.0007543780966252
  0.7789603958226123  0.4457079769127832 -0.0006871513511275
  0.4405669143537715  0.4474022236898996  0.0003084656253582
  0.1125966657705483  0.4430057870346238  0.0005965770145641
  0.7771098203651233  0.1115020954919476 -0.0006645503408742
  0.4459053409764676  0.1132120605703882  0.0003931227191083
 -0.0001802281867102  0.6670131743532904  0.1672291133541830
  0.3327898309718809  0.6687363409497854  0.1662325817420626
  0.6693723786764150  0.6662559473858045  0.1668293538950267
  0.1090923661886492  0.1115953252376508  0.2494821806652771
  0.0007249112389287  0.6676689862694798  0.4165687455152107
  0.6653776750367784  0.3351567802078808  0.4171119631778974
  0.3317574001496331  0.3359676425843768  0.4169878089981123
 -0.0014833207472717  0.3360753983149510  0.4172424723020457
  0.6677782102143250 -0.0001188579985470  0.4167304400781935
  0.3309784758667951  0.0014449895147867  0.4171269354329269
 -0.0018955861123721  0.0021743604037579  0.4164500854831144
  0.5567475856197758  0.8880786922839953  0.3337366757940110
  0.2233972629079986  0.8885880757230118  0.3327607615653700
  0.8926319907399732  0.8865240959716852  0.3337289343029435
  0.5566542506800953  0.5529429136641508  0.3333641926954919
  0.3294560858029922  0.8360459588684388  0.9165978553642677
  0.2210210542200954  0.5530549249324153  0.3333147044995470
  0.5560918030013853  0.2211895278442816  0.3334807708142304
  0.2235322230429731  0.2239062513235401  0.3333347275206932
  0.8893199817691021  0.2213347040988850  0.3334778075889890
  0.7805986609241811  0.7772642963074464  0.2507720603647353
  0.4434006418746574  0.7772335303307105  0.2495243677216001
  0.1110094083670791  0.7749381304291056  0.2502680807216974
  0.7783268176488255  0.4467247680257376  0.2505134050568213
  0.4479764816430171  0.4414774451815577  0.2506413341005015
  0.1073642151770502  0.4470978711629789  0.2498349632164580
  0.7789875140470088  0.1131628993025304  0.2494837085038794
  0.4445618723854393  0.1101814982398261  0.2505413681320633
  0.8896443968047213  0.5567334545112677  0.3335467578540798
  0.6689536494253138  0.8303773453529988  0.9171253411124060
