Cu
 1.0000000000000000
     7.6685730419681093    0.0000000000000000    0.0000000000000000
     3.8342865209840546    6.6411790651208911    0.0000000000000000
     0.0000000000000000    0.0000000000000000   25.0450909090909093
 Cu 
 108
Direct
  0.1096214607879347  0.1088835025238662 -0.0005773948052553
 -0.0011790880193058  0.7351002253864795  0.6666549697933782
  0.6671610697890334  0.3993198209465892  0.6664973874538405
  0.3331730674824016  0.4019550445063826  0.6658839799627840
  0.0008950697592518  0.4027070908147253  0.6672683226021302
  0.6676993085523785  0.0655578868673618  0.6659818891297797
  0.3353710351644111  0.0664348122110649  0.6669670098804951
 -0.0004278338041187  0.0681573879012036  0.6674069763336848
  0.5582845252180259  0.9529727566784888  0.5829440422486423
  0.2209093402795452  0.9545351111217983  0.5834008613884052
  0.8891899369384870  0.9553484963021213  0.5826926163566198
  0.5551016783216988  0.6214614785605099  0.5830794171225159
  0.2213654845260113  0.6250832022370557  0.5840471106801544
  0.8893154255355169  0.6196793030989470  0.5828292049808337
  0.5564647978188033  0.2893301654139911  0.5828560235515512
  0.2250237326959642  0.2872004919974245  0.5832085608208697
  0.8886094396816208  0.2914311652454848  0.5829729771300262
  0.7778854472506627  0.8445341286595802  0.5005891066539966
  0.4433432874894332  0.8433842051609505  0.4996742335905472
  0.1134061018347551  0.8440466770039751  0.5001474108765471
  0.7783186327854332  0.5141098114158025  0.5003318755799027
  0.4434422185838117  0.5139022540624858  0.4997215404780103
  0.1107562615415883  0.5105745639492447  0.4996271027950749
  0.7778613887776193  0.1777623843533124  0.5005460523948577
  0.3359788478861797  0.7314431985187848  0.6673240005610818
  0.4458586025027393  0.1777089302012304  0.4993733614785353
  0.6688046776256003  0.7321271178457783  0.6674130037201788
  0.4412503201136306  0.1799796984815714  0.7496727284178097
 -0.0014277019625219  0.7312354118256547  0.9169637045601132
  0.6638951418735347  0.4025501853848495  0.9163863142939424
  0.3317087246711035  0.3987775435168234  0.9171337073049328
  0.0004635017582659  0.4005758378547563  0.9172013730921094
  0.6650681146468383  0.0690781919646884  0.9164548385973439
  0.3321660074729408  0.0678525316943397  0.9159948860103114
 -0.0020576311519027  0.0679547229712996  0.9165043129924523
  0.5567275806641533  0.9561955394887293  0.8332492704026133
  0.2218835616426345  0.9531336657939582  0.8339281061440260
  0.8867451328415048  0.9581984185902521  0.8337783199634585
  0.5521773996953121  0.6249366935424949  0.8338593455932035
  0.2192576529281808  0.6244460557198771  0.8336077508494534
  0.8870184220575559  0.6245424733523326  0.8338058070118312
  0.5550835027742219  0.2860685374951433  0.8340713692417778
  0.2233102528061245  0.2918978356110872  0.8333897812098668
  0.8927600706724180  0.2862344561940671  0.8338223138226694
  0.7756495625710550  0.8435984265015308  0.7504859779453029
  0.4477534607134491  0.8415410373548107  0.7502301417173626
  0.1136852215200292  0.8436696650040120  0.7503521432282889
  0.7791706953765420  0.5110273064940748  0.7494183727457343
  0.4420802959301459  0.5109560873521969  0.7495305727226051
  0.1104429971754895  0.5131497028096681  0.7505649552263812
  0.7807931496448403  0.1756348211800073  0.7505532454035619
  0.1127390977207129  0.1750017400259831  0.7493659374707086
  0.1105518060124894  0.1779383575534399  0.4993544381327507
  0.6662686092479418  0.6656242104066370  0.4172440893141952
  0.3339429025269081  0.6654504880080245  0.4170547846517487
  0.6668496294592779  0.3335572503123930  0.1664192352710558
  0.3312632482123764  0.3331979356892434  0.1664734107468056
  0.0000768183739667  0.3361114123783326  0.1669255013603580
  0.6657559633229935 -0.0003556224626217  0.1667703944047218
  0.3356476695988657  0.0004281201865675  0.1658811036713857
  0.0003712076139329  0.0028467330765420  0.1664518572850034
  0.5543448934505669  0.8894458712443206  0.0838733763306486
  0.2224075685443213  0.8904793184203372  0.0831711056642696
  0.8901142795833785  0.8894077490273968  0.0834522256171917
  0.5553961394174083  0.5561488400613939  0.0832965381392527
  0.2200335277971582  0.5557308236979192  0.0830645915402536
  0.8853476042228017  0.5577599347408541  0.0837227347676616
  0.5566278784438841  0.2212371910314573  0.0831950169160081
  0.2190558872537687  0.2248477469086262  0.0838218660684793
  0.8894513664454010  0.2204961858646041  0.0838141147692732
  0.7744919717618395  0.7795074469655952  0.0002839155064316
  0.4447902545134664  0.7771138155350533 -0.0006588231331363
  0.1128877603379147  0.7794067878799418  0.0004055128655301
  0.7793627749780296  0.4461283380226059  0.0004102042879197
  0.4420731360434652  0.4443935310859290 -0.0002799925956558
  0.1123793911715166  0.4452982099349494 -0.0004556443493149
  0.7756421842172807  0.1114753637044860 -0.0003605503783183
  0.4434585169936021  0.1118379326810444  0.0005383773916247
 -0.0032163138426734  0.6679636180741785  0.1667289137414024
  0.3342661722879178  0.6693354829393949  0.1672332290555834
  0.6663178164559762  0.6649379786986809  0.1661967707227703
  0.1098773860884000  0.1138641724567010  0.2499429079190245
  0.0018340007517222  0.6678709127694832  0.4171964671782864
  0.6639234820646913  0.3348250361418155  0.4159674915722684
  0.3306630627012873  0.3353605294465107  0.4162799701949031
  0.0009470226423052  0.3309392221958525  0.4160685820844037
  0.6656227359467082 -0.0000939208232047  0.4165493480029029
  0.3355249458959205 -0.0005261561792725  0.4169918264201840
  0.0004750357474453 -0.0005252237387465  0.4160220249162558
  0.5544349281389679  0.8895872725130355  0.3335119449688156
  0.2242026299798854  0.8875190743999538  0.3337336183465149
  0.8865793852382785  0.8915215037061485  0.3330470430316068
  0.5552428592548871  0.5563102322271036  0.3326132462333143
  0.3361688239686765  0.7316372108535504  0.9166184709070504
  0.2228403776138181  0.5536522820737915  0.3339801983405352
  0.5573603713313935  0.2220071799145918  0.3335204122734633
  0.2201648587043007  0.2239194044703995  0.3326682766507736
  0.8890281387525006  0.2226931871757342  0.3337282213944419
  0.7753339220754242  0.7783320575365044  0.2494895004310279
  0.4422502754654432  0.7798420856479069  0.2495197374671557
  0.1120560471353995  0.7753349706313807  0.2507641312961938
  0.7763546779987527  0.4467398827835729  0.2500718453529106
  0.4476652311533074  0.4422140977353129  0.2507738237462416
  0.1116912827346345  0.4472250671146430  0.2492508856857981
  0.7766393951198854  0.1103803777322554  0.2492960559265961
  0.4423973950049563  0.1114727687617225  0.2500519971179159
  0.8913240111204256  0.5557675838005098  0.3330105361644541
  0.6698386573381759  0.7307128134176843  0.9159193602609109
