Cu
 1.0000000000000000
     7.6685730419681093    0.0000000000000000    0.0000000000000000
     3.8342865209840546    6.6411790651208911    0.0000000000000000
     0.0000000000000000    0.0000000000000000   25.0450909090909093
 Cu 
 108
Direct
  0.1101786535999490  0.1120990462394798  0.0002007684857903
  0.2671039867975171  0.8647114714578844  0.6662006482522951
  0.9329924815133395  0.5349140947051485  0.6659798521600778
  0.5990104452135899  0.5336416986280390  0.6666816262810999
  0.2677851932505779  0.5339853293184321  0.6662916800934322
  0.9322788815738557  0.1997030695645711  0.6661173002087487
  0.6013759947343651  0.1991136997590918  0.6672049930658031
  0.2648102183549314  0.1997963126000175  0.6665241319711326
  0.8231512253311606  0.0896198085860825  0.5835874902087508
  0.4887713496715766  0.0884667171652761  0.5826503390469056
  0.1566647946977678  0.0883361812340469  0.5835605780769825
  0.8215199611372156  0.7528088626971323  0.5829736886595801
  0.4887426622231790  0.7585279698962980  0.5838650684828546
  0.1546025271461485  0.7585383269661823  0.5836768185167776
  0.8244783119391791  0.4219469389214004  0.5827751385539733
  0.4892346743738011  0.4209672870938843  0.5832346314015143
  0.1586248971276944  0.4199391345333393  0.5839172618305569
  0.0464455628602521  0.9788950527518002  0.5003761567405157
  0.7085034894191086  0.9797361144130797  0.5004330839919880
  0.3797221586758878  0.9785808455509613  0.5004379377581468
  0.0458478085022372  0.6447985120125626  0.5006937131661721
  0.7095371039072544  0.6425438553994579  0.4996669657138452
  0.3760858250237050  0.6443115627401286  0.4992187246123491
  0.0415512362860960  0.3134811970690058  0.5006607270012279
  0.5988042564324122  0.8678069629030782  0.6659064088952380
  0.7108964481217114  0.3131222744073029  0.4994048838023941
  0.9361016330397233  0.8636657783971573  0.6668069903952308
  0.7130387794576775  0.3117629852993781  0.7504781266898400
  0.2650718386691021  0.8695479074869810  0.9174620479050679
  0.9339217129932174  0.5305384075059133  0.9164839865284208
  0.5996461878562215  0.5338017169123341  0.9161130636128011
  0.2701088427118389  0.5313919232277512  0.9170388669335375
  0.9320533718714747  0.1984811966924447  0.9165975672588154
  0.5978952740389015  0.2011979591008116  0.9172900553754930
  0.2646181487050351  0.2003000395232463  0.9173313466375804
  0.8218325932972311  0.0904817151239321  0.8332486220190893
  0.4888776867883314  0.0871089568909500  0.8337901715796516
  0.1556116671861184  0.0889018738806146  0.8336600110258567
  0.8187858569653108  0.7573261855962327  0.8340576571464570
  0.4894591921181825  0.7564730384420328  0.8326944244904203
  0.1546596839841268  0.7553108539888697  0.8338394511779518
  0.8221353306373729  0.4227091250838906  0.8328353231037947
  0.4877157534629804  0.4241701177424812  0.8340837021562207
  0.1537345410987518  0.4243952561140109  0.8325715579803389
  0.0434443982730190  0.9750008781661780  0.7501362906797887
  0.7132791728998307  0.9768903755422532  0.7498922692153389
  0.3812190181152611  0.9758980546430682  0.7497436901828545
  0.0461989038467025  0.6456711210516352  0.7507616249955115
  0.7135525329661534  0.6426464465319909  0.7500805454246400
  0.3800238612125494  0.6445753782616825  0.7502024630048975
  0.0469550165000380  0.3106984789274023  0.7501559318832648
  0.3782140134657383  0.3097649002738031  0.7502705164219563
  0.3801554954180280  0.3083316127768361  0.5003840888146324
  0.6651829925297960  0.6652355065793332  0.4167727302917115
  0.3315663591241416  0.6653713122257752  0.4158763901166264
  0.6690225239796206  0.3318525779570962  0.1665564320912042
  0.3335408898521601  0.3324764597730852  0.1666680744916179
 -0.0007936219924071  0.3346468954980781  0.1667962178383424
  0.6670346815932685  0.0020326556764537  0.1669810994182375
  0.3366222420996325 -0.0021868825723152  0.1664045374551977
  0.0016493103396093  0.0014573713467369  0.1663695548980235
  0.5533214332465127  0.8913073278274883  0.0828615844324082
  0.2211531343573201  0.8898065980714387  0.0831668837199354
  0.8917641819134933  0.8870569697298191  0.0826728696986825
  0.5567078074039291  0.5559381752528441  0.0834342910388567
  0.2218284724736205  0.5531303720448215  0.0830749170129854
  0.8908830045949554  0.5538948388442073  0.0838933775754735
  0.5565542524651982  0.2224242893784449  0.0833261091331982
  0.2234035135963133  0.2228175896225897  0.0834128366769679
  0.8896352484015793  0.2225276464313700  0.0835286666186390
  0.7773254431392953  0.7806207384568303 -0.0005159682269375
  0.4424780072839465  0.7804716376931450 -0.0005330356726868
  0.1103181025928388  0.7775472406952932  0.0001032429277385
  0.7797820432881100  0.4449222163510153  0.0003011998255287
  0.4425933169648927  0.4465793908187413  0.0006140660544419
  0.1103141105097208  0.4447178339076210  0.0003153827259019
  0.7757112454125874  0.1121471354489915 -0.0002386996816347
  0.4455358731203687  0.1084313995006684 -0.0006102191503701
 -0.0008348677090631  0.6694048660834513  0.1662723292986332
  0.3362101617000428  0.6645892308650867  0.1659931812676470
  0.6643447197076471  0.6666847558334716  0.1665827369789612
  0.1126088236081528  0.1122137976277217  0.2496019169092682
 -0.0004693601247016  0.6643614725947926  0.4169004392023742
  0.6666681587829398  0.3345883895749483  0.4160089039822864
  0.3323888818714724  0.3324732418464124  0.4166034145003720
  0.0008020554946192  0.3355930701325689  0.4166590864486289
  0.6679807262947337 -0.0002561965760086  0.4170972035319114
  0.3332645441874200  0.0028172931534160  0.4170756091087349
 -0.0019246242173082 -0.0004480509310170  0.4171746832013399
  0.5586549570973064  0.8870365692860612  0.3328189786080815
  0.2242888060366549  0.8866571046217776  0.3331297413372001
  0.8886295560288526  0.8867617596904317  0.3333672054208626
  0.5561156893058211  0.5533011720792026  0.3336427780686936
  0.6023392114084390  0.8666971226746115  0.9160636933205453
  0.2197727497228096  0.5577707117199573  0.3328379728242623
  0.5581055845024179  0.2202165233366221  0.3328782338266968
  0.2233425335037601  0.2199460988347538  0.3330488060824838
  0.8910667085001847  0.2193687553431981  0.3331172815054417
  0.7789676412457134  0.7796674841749305  0.2493310939107590
  0.4438576177392900  0.7764466197903879  0.2506667103526199
  0.1100989898879442  0.7790685300446205  0.2495651304730424
  0.7784405704607886  0.4472590490430225  0.2500441334105980
  0.4445749635418171  0.4470716048346384  0.2492900079346317
  0.1089550611503179  0.4441408500520200  0.2493877014833562
  0.7782574443969351  0.1087519936492114  0.2499097945120745
  0.4450462257156999  0.1087487844328900  0.2502461752790061
  0.8890219957778306  0.5578347981538142  0.3326686004580560
  0.9333661652493102  0.8654408476822618  0.9170234712303676
