Cu
 1.0000000000000000
     7.6685730419681093    0.0000000000000000    0.0000000000000000
     3.8342865209840546    6.6411790651208911    0.0000000000000000
     0.0000000000000000    0.0000000000000000   25.0450909090909093
 Cu 
 108
Direct
  0.1130946862998545  0.1088001384804388  0.0007492712310988
  0.0657802886637709  0.9340513758642112  0.6661011497133130
  0.7330395379225945  0.6019564815530297  0.6672173295420265
  0.3990538124647350  0.6017109725979093  0.6661671110402905
  0.0658157430272025  0.6016341050878070  0.6674694729126548
  0.7331410106135108  0.2642466492633808  0.6668662817276260
  0.4001634871637444  0.2650384259271798  0.6670083169780676
  0.0677310149260650  0.2674339985027422  0.6660325925797324
  0.6234529629526178  0.1577342796386670  0.5837830028241662
  0.2858234023691574  0.1570303816696764  0.5838500455001205
  0.9556385058726943  0.1583658115152042  0.5833686109480593
  0.6207852716799849  0.8213282208987037  0.5825710705646201
  0.2850395866071743  0.8251735776607353  0.5832951756428734
  0.9554570264009671  0.8232599105901925  0.5831850370841817
  0.6221525575601972  0.4908049017235300  0.5840833143319947
  0.2889995703467462  0.4887378174933078  0.5828458664764002
  0.9524367265423898  0.4901229018497344  0.5840023318981180
  0.8422690151668049  0.0467264974680634  0.5008046655590224
  0.5138239930019417  0.0437387389051898  0.5000895276503687
  0.1764898850910020  0.0471412544020518  0.4997606801674394
  0.8454368191024796  0.7123862060285727  0.5002001446266680
  0.5121450660965449  0.7128438220172603  0.5004063888836390
  0.1761283293114023  0.7093161003615850  0.4996442795096328
  0.8456124443506980  0.3769916772216662  0.4993283937407911
  0.3976289737240062  0.9342902689447364  0.6669850768013454
  0.5094179412745297  0.3792018855634202  0.5001964206441755
  0.7339547656895650  0.9352368280044731  0.6666950784130452
  0.5125316196581312  0.3771479931545699  0.7503894048991966
  0.0660197704314030  0.9350176494589610  0.9167244704014077
  0.7299735139648565  0.6015742360100595  0.9164845213066434
  0.3992514408144482  0.6003666471911153  0.9167398367128288
  0.0657737560097654  0.6026843845940257  0.9165514269448549
  0.7310557391573314  0.2670284570220342  0.9174041132825692
  0.4001814110421021  0.2677373061732223  0.9170236823183265
  0.0641129761102496  0.2688463729674138  0.9163601287476015
  0.6208985086241523  0.1560346107163143  0.8334093935396280
  0.2877276656585639  0.1530552502046215  0.8333383309029081
  0.9577785952239187  0.1547829813781119  0.8329974046720126
  0.6192124360028251  0.8249188763191327  0.8335145292524136
  0.2872341042676650  0.8238048282873829  0.8328763078588974
  0.9555274081112030  0.8193841420067426  0.8339303282597545
  0.6248335488686352  0.4862583550524977  0.8333926666649003
  0.2913861581749856  0.4878335272104815  0.8331792692488491
  0.9564850703933533  0.4861724229605914  0.8334546112172641
  0.8438769472759547  0.0462186262493982  0.7494629059906852
  0.5102414435656476  0.0435632612684518  0.7505447067229721
  0.1765609204102720  0.0455140288988610  0.7497212151839994
  0.8451914098772115  0.7092016876630474  0.7493953567714199
  0.5085791735620233  0.7130788049020401  0.7493564812059249
  0.1793392426741592  0.7091578528146285  0.7494238770393687
  0.8462151035252475  0.3767615209699671  0.7507501031336942
  0.1813062256627866  0.3758944090728508  0.7506130032231128
  0.1797517033831654  0.3772950076417407  0.5002477124852553
  0.6672209848937922  0.6654477833180016  0.4166068382302856
  0.3311525214414759  0.6694260353272952  0.4163517502028359
  0.6673398566838935  0.3305609866401870  0.1661692493807098
  0.3311186208836976  0.3325944463758986  0.1662103479201769
  0.0041024206557052  0.3303427377803161  0.1666963779758942
  0.6662304566807697 -0.0029825919501444  0.1673782996159212
  0.3347694995446613  0.0002932348724249  0.1669841594646971
 -0.0001187147431211 -0.0014714865300919  0.1668030795939749
  0.5551825619974630  0.8885800873734302  0.0840358125708723
  0.2229997946068001  0.8901237020082976  0.0841116092342724
  0.8883441054401098  0.8916808594417177  0.0837430785061727
  0.5551859893854759  0.5564152626188198  0.0834837691893871
  0.2236277823633213  0.5530160461965202  0.0829280224315578
  0.8913333721649573  0.5549913831382119  0.0826583067375491
  0.5542014282501991  0.2249044021100515  0.0833401332116389
  0.2221873057672062  0.2234954018587845  0.0840346731567753
  0.8922379020092197  0.2203595373757256  0.0833104740643402
  0.7752813758117099  0.7800968016613548  0.0001658396520818
  0.4436440431172054  0.7777114339369852  0.0003086851379680
  0.1117017877175486  0.7797073823524228  0.0007818643902583
  0.7781828534185482  0.4441496164639352  0.0006463982207580
  0.4454777349977788  0.4422801350359301 -0.0005967729686236
  0.1109742217371970  0.4424146924674373 -0.0003454855126464
  0.7767776409563605  0.1111101241242436  0.0002062493832022
  0.4475298163062935  0.1099760796453296 -0.0003253784853968
  0.0032065012920139  0.6653392569512160  0.1663039495804775
  0.3316091226811674  0.6675691591629167  0.1661333836507102
  0.6667053552252021  0.6680673324468194  0.1668982509751852
  0.1124064030808542  0.1134655857514540  0.2504232668661704
 -0.0000617393013293  0.6677312132428626  0.4166003663952770
  0.6660132161155159  0.3347700174709572  0.4165842712588892
  0.3322725927694085  0.3314738796201602  0.4169229477388240
 -0.0005374416828099  0.3308047141270433  0.4161090178354521
  0.6663626529006921 -0.0026090944992043  0.4162208452672888
  0.3346459339733382  0.0004357657630248  0.4174307729526053
 -0.0001546812636008 -0.0022285387991828  0.4171677111412672
  0.5549091867789450  0.8911803003994354  0.3332039163482043
  0.2203152340252363  0.8912801551282847  0.3335014853812626
  0.8899145788425702  0.8906182545331175  0.3341325615307913
  0.5547635869588184  0.5575209099834533  0.3337607568784164
  0.4029179561911213  0.9326408983318695  0.9174556699678630
  0.2220012325831369  0.5535477582664367  0.3341253555361602
  0.5563684189870062  0.2232576471974858  0.3328871323308673
  0.2238153880849459  0.2227508858274384  0.3335821221314547
  0.8888869201898250  0.2193745866422644  0.3337552063614359
  0.7777815897472425  0.7778336457371079  0.2505740027376722
  0.4438366497659199  0.7787910552402147  0.2502559663310801
  0.1097887226382148  0.7774579748769397  0.2499067125785900
  0.7789446176119379  0.4424044008750494  0.2495691884438749
  0.4456525246439276  0.4426633517907206  0.2507801332659502
  0.1097126410172587  0.4450656496836297  0.2507797515934155
  0.7782120363116399  0.1098635212927040  0.2492910036840990
  0.4432034659499638  0.1111229768279084  0.2505243716207978
  0.8877666787107198  0.5539251430075736  0.3331534475246534
  0.7308039823457956  0.9361074454034530  0.9170177237378928
