Cu
 1.0000000000000000
     7.6685730419681093    0.0000000000000000    0.0000000000000000
     3.8342865209840546    6.6411790651208911    0.0000000000000000
     0.0000000000000000    0.0000000000000000   25.0450909090909093
 Cu 
 108
Direct
  0.1101649244545565  0.1109993074455075 -0.0002701686298833
  0.1325803626767763  0.8642771626824436  0.6668059149582330
  0.8006510401118533  0.5360026281713611  0.6671656341074087
  0.4640229439720811  0.5351583778117596  0.6659429297678310
  0.1316734157621543  0.5320981984362665  0.6667861699829296
  0.8012521447861126  0.1991648062092463  0.6664986182950481
  0.4627345547989812  0.2029732089037624  0.6674085436549830
  0.1338117946463591  0.1997448359717490  0.6662177849795803
  0.6881263826964575  0.0884474846672155  0.5830051799379138
  0.3536161597960000  0.0883430631402248  0.5833542620168424
  0.0199989985629872  0.0904203493644377  0.5827177809234815
  0.6881610208026303  0.7557170708158339  0.5830881928132500
  0.3549776744140961  0.7566717492737592  0.5838359661228216
  0.0254822080435769  0.7539703106501446  0.5839006241513244
  0.6871785880083836  0.4219151076977298  0.5832766556620270
  0.3593222246149482  0.4195596519219107  0.5834283134571139
  0.0193237368813443  0.4238460522347442  0.5837646612732965
  0.9093191166897271  0.9772301278466482  0.4998019878964243
  0.5776406654351275  0.9777620403787198  0.5002028741981853
  0.2447031884788979  0.9807227294032937  0.5002311160665707
  0.9124459251230715  0.6449722698512944  0.4997564481873192
  0.5788514547741553  0.6462070836529071  0.4994303849212927
  0.2437533783011877  0.6435350284323851  0.5000305320497404
  0.9109512518913853  0.3083241401402541  0.4996985124563175
  0.4682525098292514  0.8650540485087365  0.6661551746162759
  0.5753898414642313  0.3118526007649897  0.5006900540577969
  0.8032424260775708  0.8652240990286829  0.6662191493572859
  0.5787965519149069  0.3117656488191707  0.7505091356422298
  0.1337838834642596  0.8690574208305026  0.9168447349790827
  0.8002881402247066  0.5360566533301260  0.9168587055659295
  0.4681888064160813  0.5345056728236979  0.9170707177805367
  0.1356135978732718  0.5321730519862427  0.9167001818062454
  0.8012873393346491  0.2000479207747100  0.9161171097395197
  0.4664944470399999  0.2003484475003908  0.9166909413980906
  0.1311965812659670  0.2023523876318746  0.9160681688654606
  0.6879762885357035  0.0896508591855073  0.8333086696130575
  0.3541320865266553  0.0876928271895422  0.8336020650607641
  0.0247600999768971  0.0877772060481731  0.8339531026534600
  0.6874208097998459  0.7575166576431954  0.8329837018912317
  0.3556665861570980  0.7571347596194264  0.8332657480459265
  0.0217213301878417  0.7567278918804673  0.8336467738225991
  0.6868954719188503  0.4245437882091403  0.8328166864634127
  0.3564381127437700  0.4219261835777664  0.8337011507147128
  0.0203748835365717  0.4237517690006654  0.8326821620524599
  0.9109721579684046  0.9775086806641283  0.7504260545961056
  0.5771632928349174  0.9765194429648490  0.7507846415750620
  0.2437591085213059  0.9793229170552784  0.7498129197837293
  0.9124038399031716  0.6435605123371131  0.7506674533531001
  0.5796803572642442  0.6437356478853382  0.7503482054540603
  0.2480268356444857  0.6422616641109765  0.7506773807298335
  0.9142496764759240  0.3094678094082538  0.7493731917746762
  0.2438220174066263  0.3137692605707728  0.7497307386565164
  0.2456029517587520  0.3103707466979733  0.4999254913516458
  0.6667359998233686  0.6642796041892084  0.4160700450328492
  0.3373137889272121  0.6636582813217451  0.4163435204805317
  0.6642887105631428  0.3336666245153387  0.1670638564142402
  0.3363001301470753  0.3323792214067153  0.1664384320456257
 -0.0010818575325181  0.3354232578667148  0.1672923837843136
  0.6667097276497923  0.0018690629050040  0.1659147693282624
  0.3315184469544883 -0.0005015808052863  0.1666142806880651
  0.0033664811389569 -0.0017942876038834  0.1670537547179984
  0.5523289769906238  0.8915541204845443  0.0826322231726619
  0.2211068651426914  0.8882974407818793  0.0834020604767258
  0.8895366532397250  0.8917136284754262  0.0826648693576388
  0.5561055066880078  0.5584274549363200  0.0830421000480274
  0.2258552614314978  0.5525774164135061  0.0828973169448833
  0.8861647893439647  0.5578963205382466  0.0831731698740015
  0.5542733269090491  0.2209970469120480  0.0837783167962604
  0.2200913261621550  0.2231196373813527  0.0840787331274002
  0.8873319698007549  0.2228465605868103  0.0830053114546951
  0.7788633671642615  0.7772912875092580  0.0005433597410949
  0.4417693847943333  0.7796127989880175  0.0007689503437120
  0.1125832091138558  0.7769692502256899  0.0007883480345398
  0.7781006289333375  0.4420706119834181  0.0002337827803761
  0.4456152002072062  0.4471434278641476 -0.0001094835146483
  0.1087395816945415  0.4466686308239297 -0.0000589234774283
  0.7774634100473246  0.1120632218477198 -0.0007349050959516
  0.4430196781889157  0.1108587563065615  0.0002074749860939
  0.0010565019487988  0.6686952626908669  0.1659986619409053
  0.3314519617717832  0.6682779055079319  0.1666127918919953
  0.6642812775580675  0.6674584119058951  0.1669577519252117
  0.1111816487406511  0.1095401618144420  0.2497610295571343
  0.0013310234849659  0.6651375374795785  0.4162681143541373
  0.6693389675229686  0.3324356934669244  0.4167833523281407
  0.3326999357986863  0.3332919030395634  0.4170369237564466
 -0.0003959437114796  0.3337345940697682  0.4166309918622345
  0.6654161613214792  0.0002120007510037  0.4167107461484636
  0.3318969071699128  0.0006048109523540  0.4160226288903764
 -0.0002757644760421 -0.0007954023802678  0.4171682087256053
  0.5529464041257488  0.8895493877262052  0.3334040721302671
  0.2229489733771544  0.8902446466510324  0.3334188758197070
  0.8909050419478713  0.8879042908216980  0.3337813177621861
  0.5533191715969823  0.5570479843208893  0.3326326438639591
  0.4668475440980794  0.8657358473769029  0.9164049377938687
  0.2235625016305278  0.5534911799660827  0.3335962535007425
  0.5548539769185984  0.2245587652171304  0.3330470747632213
  0.2251140110047411  0.2214920824116511  0.3328695769222254
  0.8876844859819462  0.2209225980888662  0.3338698810899897
  0.7785647069394331  0.7759646691288367  0.2505235920097442
  0.4466738586153438  0.7748905352311916  0.2492747042775160
  0.1148673516262652  0.7753446267053522  0.2499893279206146
  0.7781945915854104  0.4434627080466498  0.2504412414542753
  0.4452768327765796  0.4438488883196843  0.2505325240204869
  0.1095272386148905  0.4453036785066840  0.2502773761437582
  0.7758007856455887  0.1123168551383159  0.2502338442733815
  0.4454072711693555  0.1127497981121355  0.2494495793278546
  0.8871776069179251  0.5552816767477062  0.3332813545108833
  0.7983451612815782  0.8662546674632819  0.9171522826216348
