Cu
 1.0000000000000000
    17.8933370979255884    0.0000000000000000    0.0000000000000000
     8.9466685489627942   15.4960844852820792    0.0000000000000000
     0.0000000000000000    0.0000000000000000   14.6101666666666663
 Cu 
 292
Direct
  0.0000000000000000  0.0000000000000000  0.0000000000000000
  0.8571428571428572  0.1428571428571427  0.7142701622570462
  0.8571428571428572 -0.0000000000000002  0.7142701622570462
  0.8571428571428571  0.8571428571428572  0.7142701622570462
  0.8571428571428572  0.7142857142857141  0.7142701622570462
  0.8571428571428571  0.5714285714285714  0.7142701622570462
  0.0476190476190478  0.3333333333333336  0.5714161298056369
  0.7142857142857144  0.7142857142857141  0.7142701622570462
  0.0476190476190478  0.1904761904761905  0.5714161298056369
  0.0476190476190479  0.9047619047619049  0.5714161298056369
  0.0476190476190479  0.7619047619047619  0.5714161298056369
  0.1904761904761906  0.1904761904761905  0.5714161298056369
  0.1904761904761905  0.0476190476190480  0.5714161298056369
  0.1904761904761906  0.9047619047619049  0.5714161298056369
  0.1904761904761907  0.7619047619047619  0.5714161298056369
  0.0476190476190479  0.0476190476190475  0.5714161298056369
  0.3333333333333335  0.0476190476190475  0.5714161298056369
  0.7142857142857143  0.8571428571428571  0.7142701622570462
  0.7142857142857144  0.1428571428571427  0.7142701622570462
  0.1428571428571428  0.8571428571428573  0.7142701622570462
  0.1428571428571430  0.7142857142857143  0.7142701622570462
  0.2857142857142857  0.0000000000000003  0.7142701622570462
  0.2857142857142857  0.8571428571428573  0.7142701622570462
  0.2857142857142858  0.7142857142857143  0.7142701622570462
  0.2857142857142858  0.1428571428571428  0.7142701622570462
  0.7142857142857144 -0.0000000000000002  0.7142701622570462
  0.4285714285714287  0.8571428571428573  0.7142701622570462
  0.4285714285714287  0.1428571428571427  0.7142701622570462
  0.4285714285714287 -0.0000000000000002  0.7142701622570462
  0.5714285714285716  0.7142857142857143  0.7142701622570462
  0.5714285714285716  0.1428571428571427  0.7142701622570462
  0.5714285714285715 -0.0000000000000002  0.7142701622570462
  0.5714285714285714  0.8571428571428571  0.7142701622570462
  0.4285714285714288  0.7142857142857143  0.7142701622570462
  0.3333333333333335  0.9047619047619049  0.5714161298056369
  0.3333333333333335  0.7619047619047619  0.5714161298056369
  0.3333333333333335  0.1904761904761903  0.5714161298056369
  0.0952380952380954  0.9523809523809526  0.4285620973542277
  0.0952380952380954  0.8095238095238095  0.4285620973542277
  0.2380952380952382  0.0952380952380954  0.4285620973542277
  0.2380952380952381  0.9523809523809527  0.4285620973542277
  0.2380952380952383  0.8095238095238095  0.4285620973542277
  0.2380952380952382  0.2380952380952380  0.4285620973542277
  0.0952380952380953  0.0952380952380954  0.4285620973542277
  0.3809523809523810  0.9523809523809527  0.4285620973542277
  0.3809523809523811  0.2380952380952380  0.4285620973542277
  0.3809523809523811  0.0952380952380951  0.4285620973542277
  0.5238095238095239  0.8095238095238096  0.4285620973542277
  0.5238095238095238  0.2380952380952380  0.4285620973542277
  0.5238095238095238  0.0952380952380951  0.4285620973542277
  0.5238095238095238  0.9523809523809523  0.4285620973542277
  0.3809523809523810  0.8095238095238095  0.4285620973542277
  0.0952380952380953  0.2380952380952384  0.4285620973542277
  0.9047619047619050  0.6190476190476188  0.5714161298056369
  0.9047619047619050  0.7619047619047616  0.5714161298056369
  0.4761904761904763  0.9047619047619050  0.5714161298056369
  0.4761904761904763  0.7619047619047619  0.5714161298056369
  0.4761904761904763  0.1904761904761904  0.5714161298056369
  0.4761904761904763  0.0476190476190476  0.5714161298056369
  0.6190476190476191  0.7619047619047618  0.5714161298056369
  0.6190476190476191  0.1904761904761904  0.5714161298056369
  0.6190476190476191  0.0476190476190475  0.5714161298056369
  0.6190476190476191  0.9047619047619048  0.5714161298056369
  0.7619047619047620  0.1904761904761904  0.5714161298056369
  0.7619047619047620  0.0476190476190474  0.5714161298056369
  0.7619047619047619  0.9047619047619048  0.5714161298056369
  0.7619047619047620  0.7619047619047618  0.5714161298056369
  0.9047619047619049  0.1904761904761903  0.5714161298056369
  0.9047619047619049  0.0476190476190476  0.5714161298056369
  0.9047619047619047  0.9047619047619048  0.5714161298056369
  0.1428571428571430  0.0000000000000003  0.7142701622570462
  0.6666666666666667  0.2380952380952381  0.4285620973542277
  0.1428571428571430  0.1428571428571431  0.7142701622570462
  0.0000000000000000  0.8571428571428573  0.7142701622570462
  0.1904733211244024  0.4761962149913093  0.5714182816996817
  0.2698360093125619  0.3174665345224697  0.6190380858483039
  0.3174564916291164  0.3650827127465037  0.4761829774336629
  0.9999942612748112  0.4285829061676918  0.7142744660613449
  0.0476147435913656  0.4761990843917258  0.5714193576467040
  0.0952352259079201  0.5238152626157596  0.4285642492320632
  0.1111106329362429  0.6349258954601488  0.5237984775510596
  0.1745979140960795  0.3650855821469201  0.4761840533806854
  0.6560859313329062  0.4497343338391999  0.7936325572197863
  0.8783100664707293  0.4338531880424621  0.4126870361244858
  0.7354486195210657  0.2910046533703603  0.8412523613684083
  0.6455080654589976  0.6613676908093425  0.3015766704017985
  0.5026466185093343  0.5185191561372408  0.7301419956457210
  0.7248707536471571  0.5026380103405030  0.3491964745504206
  0.9047561660583283  0.4762019537921424  0.5714204335937264
  0.5820093066974937  0.3597894756684013  0.7777617997943431
  0.4126945868455988  0.3174636651220533  0.6190370099012814
  0.2539692104692798  0.6349230260597323  0.5237974016040371
  0.7619076312565501  0.4761847373896431  0.5714139779115922
  0.8412703194447098  0.3174550569208036  0.6190337820602143
  0.5396863655353537  0.6349172872588993  0.5237952497099925
  0.6190490537235134  0.4761876067900595  0.5714150538586146
  0.6984117419116727  0.3174579263212202  0.6190348580072367
  0.7460322242282272  0.3650741045452540  0.4761797495925960
  0.3333318986574393  0.4761933455908927  0.5714172057526593
  0.3492073056857625  0.5873039784352817  0.6666514340716556
  0.3968277880023168  0.6349201566593158  0.5237963256570148
  0.4761904761904763  0.4761904761904763  0.5714161298056369
  0.5555531643786358  0.3174607957216367  0.6190359339542592
  0.5238109585070309  0.5238066544145100  0.4285610213909961
  0.6031736466951901  0.3650769739456707  0.4761808255396183
  0.2063487281527254  0.5873068478356984  0.6666525100186781
  0.4285699938739220  0.4285742979664422  0.7142712382202777
  0.5396892349519802  0.7777686913314175  0.0952310004130926
  0.4920687526354257  0.7301525131073835  0.2380861088277332
  0.4444482703188713  0.6825363348833495  0.3809412172423740
  0.1111135023528694  0.7777772995326669  0.0952342282541596
  0.0634930200363149  0.7301611213086331  0.2380893366688004
  0.2380966728575833  0.6666637972878615  0.9999989239881408
  0.1904761905410288  0.6190476190638277  0.1428540324027817
  0.1428557082244744  0.5714314408397935  0.2857091408174225
  0.3174593610457427  0.5079341168190220  0.0476187281367630
  0.1534335740983829  0.3597980838696508  0.7777650276354103
  0.2698388787291883  0.4603179385949882  0.1904738365514038
  0.9894163954009023  0.6402162631378348  0.2222185792433573
  0.1640200482221707  0.5767189391170632  0.9841281665626977
  0.1163995659056163  0.5291027608930290  0.1269832749773385
 -0.0000000000000000  0.2857142857142861  0.7142701622570462
  0.0000000000000001  0.1428571428571431  0.7142701622570462
  0.0000000000000001  0.0000000000000003  0.7142701622570462
  0.0370368777174568  0.6878324413618686  0.0793634708287164
  0.2962950210480462  0.5026466185417527  0.3491997023914878
  0.3439155033646008  0.5502627967657865  0.2063445939768469
  0.3915359856811552  0.5978789749898206  0.0634894855622060
  0.6190519231401396  0.6190390108625781  0.1428508045617145
  0.5714314408235850  0.5714228326385443  0.2857059129763553
  0.3809495115573672  0.3809581197424085  0.8571263466349188
  0.6984146113282990  0.4603093303937385  0.1904706087103368
  0.5079326820620812  0.2698446174976029  0.7618910423689000
  0.4656126103165678  0.6878238331606189  0.0793602429876491
  0.4179921280000132  0.6402076549365852  0.2222153514022900
  0.3703716456834587  0.5925914767125513  0.3650704598169309
  0.2275101987337954  0.4497429420404493  0.7936357850608534
  0.5449752985047268  0.5290941526917797  0.1269800471362713
  0.4497343338716182  0.4338617962437117  0.4126902639655531
  0.3068728869219547  0.2910132615716099  0.8412555892094755
  0.2645528151764413  0.7089924772346261  0.1587247898282248
  0.2169323328598866  0.6613762990105924  0.3015798982428656
  0.0740708859102233  0.5185277643384905  0.7301452234867882
  0.0000000000000000  0.7142857142857146  0.7142701622570462
  0.6666666666666667  0.0952380952380951  0.4285620973542277
  0.6666666666666666  0.9523809523809524  0.4285620973542277
  0.6666666666666670  0.8095238095238093  0.4285620973542277
  0.3333333333333333  0.3333333333333335  0.1428540324514092
  0.1904761904761904  0.3333333333333335  0.1428540324514092
  0.0476190476190475  0.3333333333333335  0.1428540324514092
  0.9047619047619047  0.1904761904761905  0.1428540324514092
  0.7619047619047619  0.1904761904761905  0.1428540324514092
  0.6190476190476191  0.1904761904761905  0.1428540324514092
  0.4761904761904763  0.3333333333333335  0.1428540324514092
  0.4761904761904763  0.1904761904761905  0.1428540324514092
  0.1904761904761905  0.1904761904761905  0.1428540324514092
  0.0476190476190476  0.1904761904761905  0.1428540324514092
  0.9047619047619047  0.0476190476190476  0.1428540324514092
  0.7619047619047619  0.0476190476190476  0.1428540324514092
  0.6190476190476191  0.0476190476190476  0.1428540324514092
  0.4761904761904763  0.0476190476190476  0.1428540324514092
  0.3333333333333334  0.1904761904761905  0.1428540324514092
  0.3333333333333334  0.0476190476190476  0.1428540324514092
  0.6190476190476191  0.3333333333333335  0.1428540324514092
  0.9047619047619044  0.3333333333333335  0.1428540324514092
  0.8095238095238095  0.0952380952380952  0.2857080649028185
  0.6666666666666667  0.0952380952380952  0.2857080649028185
  0.5238095238095237  0.0952380952380952  0.2857080649028185
  0.3809523809523809  0.0952380952380952  0.2857080649028185
  0.2380952380952381  0.0952380952380952  0.2857080649028185
  0.0952380952380952  0.0952380952380952  0.2857080649028185
  0.7619047619047618  0.3333333333333335  0.1428540324514092
  0.9523809523809526  0.0952380952380952  0.2857080649028185
  0.7619047619047616  0.9047619047619049  0.1428540324514092
  0.6190476190476188  0.9047619047619049  0.1428540324514092
  0.4761904761904762  0.9047619047619049  0.1428540324514092
  0.3333333333333333  0.9047619047619049  0.1428540324514092
  0.1904761904761904  0.9047619047619049  0.1428540324514092
  0.0476190476190475  0.9047619047619049  0.1428540324514092
  0.9047619047619047  0.9047619047619049  0.1428540324514092
  0.1904761904761905  0.0476190476190476  0.1428540324514092
  0.0476190476190476  0.0476190476190476  0.1428540324514092
  0.8571428571428571  0.8571428571428573  0.0000000000000000
 -0.0000000000000000  0.2857142857142858  0.0000000000000000
  0.8571428571428571  0.1428571428571429  0.0000000000000000
  0.7142857142857143  0.1428571428571429  0.0000000000000000
  0.5714285714285714  0.1428571428571429  0.0000000000000000
  0.4285714285714285  0.1428571428571429  0.0000000000000000
  0.2857142857142857  0.1428571428571429  0.0000000000000000
  0.1428571428571428  0.2857142857142858  0.0000000000000000
  0.1428571428571428  0.1428571428571429  0.0000000000000000
  0.8571428571428571  0.0000000000000000  0.0000000000000000
  0.7142857142857143  0.0000000000000000  0.0000000000000000
  0.5714285714285714  0.0000000000000000  0.0000000000000000
  0.4285714285714285  0.0000000000000000  0.0000000000000000
  0.2857142857142857  0.0000000000000000  0.0000000000000000
  0.1428571428571428  0.0000000000000000  0.0000000000000000
 -0.0000000000000000  0.1428571428571429  0.0000000000000000
  0.2857142857142856  0.2857142857142858  0.0000000000000000
  0.4285714285714285  0.2857142857142858  0.0000000000000000
  0.5714285714285714  0.2857142857142858  0.0000000000000000
  0.7142857142857142  0.8571428571428573  0.0000000000000000
  0.5714285714285713  0.8571428571428573  0.0000000000000000
  0.4285714285714285  0.8571428571428573  0.0000000000000000
  0.2857142857142856  0.8571428571428573  0.0000000000000000
  0.1428571428571428  0.8571428571428573  0.0000000000000000
 -0.0000000000000001  0.8571428571428573  0.0000000000000000
  0.8571428571428571  0.4285714285714287  0.0000000000000000
  0.7142857142857143  0.4285714285714287  0.0000000000000000
  0.5714285714285714  0.4285714285714287  0.0000000000000000
  0.4285714285714285  0.4285714285714287  0.0000000000000000
  0.2857142857142856  0.4285714285714287  0.0000000000000000
  0.1428571428571428  0.4285714285714287  0.0000000000000000
 -0.0000000000000000  0.4285714285714287  0.0000000000000000
  0.8571428571428571  0.2857142857142858  0.0000000000000000
  0.7142857142857143  0.2857142857142858  0.0000000000000000
  0.9523809523809526  0.2380952380952381  0.2857080649028185
  0.0952380952380952  0.2380952380952381  0.2857080649028185
  0.2380952380952381  0.2380952380952381  0.2857080649028185
  0.3809523809523809  0.2380952380952381  0.2857080649028185
  0.7142857142857143  0.7142857142857143  0.8571241947084554
  0.5714285714285714  0.7142857142857143  0.8571241947084554
  0.4285714285714285  0.7142857142857143  0.8571241947084554
  0.2857142857142857  0.7142857142857143  0.8571241947084554
  0.1428571428571428  0.7142857142857143  0.8571241947084554
  0.0000000000000000  0.7142857142857143  0.8571241947084554
  0.8571428571428571  0.7142857142857143  0.8571241947084554
  0.8571428571428571  0.5714285714285716  0.8571241947084554
  0.5714285714285713  0.5714285714285716  0.8571241947084554
  0.4285714285714285  0.5714285714285716  0.8571241947084554
  0.2857142857142856  0.5714285714285716  0.8571241947084554
  0.1428571428571428  0.5714285714285716  0.8571241947084554
 -0.0000000000000001  0.5714285714285716  0.8571241947084554
  0.8571428571428571  0.1428571428571429  0.8571241947084554
  0.7142857142857142  0.5714285714285716  0.8571241947084554
 -0.0000000000000001  0.8571428571428573  0.8571241947084554
  0.1428571428571428  0.8571428571428573  0.8571241947084554
  0.2857142857142856  0.8571428571428573  0.8571241947084554
  0.8095238095238095  0.2380952380952380  0.4285620973542277
  0.8095238095238095  0.0952380952380951  0.4285620973542277
  0.8095238095238094  0.9523809523809524  0.4285620973542277
  0.8095238095238096  0.8095238095238093  0.4285620973542277
  0.8095238095238096  0.6666666666666665  0.4285620973542277
  0.9523809523809526  0.2380952380952380  0.4285620973542277
  0.9523809523809526  0.0952380952380951  0.4285620973542277
  0.9523809523809526  0.9523809523809523  0.4285620973542277
  0.9523809523809526  0.8095238095238093  0.4285620973542277
  0.9523809523809526  0.6666666666666665  0.4285620973542277
  0.9523809523809521  0.5238095238095237  0.4285620973542277
  0.8571428571428571  0.8571428571428573  0.8571241947084554
  0.7142857142857142  0.8571428571428573  0.8571241947084554
  0.5714285714285713  0.8571428571428573  0.8571241947084554
  0.4285714285714285  0.8571428571428573  0.8571241947084554
  0.7142857142857143  0.1428571428571429  0.8571241947084554
  0.6825449430683906  0.6349144178584826  0.5237941737629700
  0.5714285714285714  0.1428571428571429  0.8571241947084554
  0.2857142857142857  0.1428571428571429  0.8571241947084554
  0.3809523809523809  0.8095238095238096  0.2857080649028185
  0.2380952380952380  0.8095238095238096  0.2857080649028185
  0.0952380952380952  0.8095238095238096  0.2857080649028185
  0.9523809523809523  0.8095238095238096  0.2857080649028185
  0.8095238095238095  0.3809523809523809  0.2857080649028185
  0.6666666666666667  0.3809523809523809  0.2857080649028185
  0.5238095238095237  0.8095238095238096  0.2857080649028185
  0.5238095238095237  0.3809523809523809  0.2857080649028185
  0.2380952380952381  0.3809523809523809  0.2857080649028185
  0.0952380952380952  0.3809523809523809  0.2857080649028185
  0.9523809523809526  0.3809523809523809  0.2857080649028185
  0.8095238095238094  0.2380952380952381  0.2857080649028185
  0.6666666666666666  0.2380952380952381  0.2857080649028185
  0.5238095238095237  0.2380952380952381  0.2857080649028185
  0.3809523809523810  0.3809523809523809  0.2857080649028185
  0.6666666666666666  0.8095238095238096  0.2857080649028185
  0.8095238095238094  0.8095238095238096  0.2857080649028185
  0.9523809523809526  0.9523809523809527  0.2857080649028185
  0.1428571428571428  0.1428571428571429  0.8571241947084554
 -0.0000000000000000  0.1428571428571429  0.8571241947084554
  0.8571428571428571  0.0000000000000000  0.8571241947084554
  0.7142857142857143  0.0000000000000000  0.8571241947084554
  0.5714285714285714  0.0000000000000000  0.8571241947084554
  0.4285714285714285  0.0000000000000000  0.8571241947084554
  0.2857142857142857  0.0000000000000000  0.8571241947084554
  0.1428571428571428  0.0000000000000000  0.8571241947084554
  0.0000000000000000  0.0000000000000000  0.8571241947084554
  0.8095238095238093  0.9523809523809527  0.2857080649028185
  0.6666666666666665  0.9523809523809527  0.2857080649028185
  0.5238095238095236  0.9523809523809527  0.2857080649028185
  0.3809523809523808  0.9523809523809527  0.2857080649028185
  0.2380952380952380  0.9523809523809527  0.2857080649028185
  0.0952380952380952  0.9523809523809527  0.2857080649028185
  0.4285714285714285  0.1428571428571429  0.8571241947084554
  0.6349244607518362  0.5872982396344488  0.6666492821776109
