Cu
 1.0000000000000000
    13.8195248199999980    0.0000000000000000    0.0000000000000000
     0.0000000000000000   13.4274972359015532    0.0000000000000000
     0.0000000000000000    0.0000000000000000   15.8450159999999975
 Cu 
 251
Direct
  0.2409802401585034  0.0249635961238216  0.0464851534387849
  0.7034310178256911  0.6116105238132548  0.0796943341679174
  0.6021974357581420  0.5145559516093156  0.1983814973743163
  0.5066239614742412  0.6114094438984675  0.3245410418014095
  0.5247816046109174  0.5537292979715562  0.4758946283171944
  0.6175119999531214  0.6462632957949097  0.5948153034367402
  0.6987514068519179  0.6735207953549478  0.8545499733165306
  0.6753917035187901  0.7946528255035875  0.0805463370942635
  0.5871643573631934  0.7049413938915052  0.2025089782175036
  0.6720044669379595  0.8061367228592099  0.3159831457412223
  0.4214054018392797  0.7157177878432471  0.4447365657440802
  0.5070248435647732  0.8089890786874870  0.5644839992588205
  0.5246788514396981  0.7385440818737162  0.7113061924330023
  0.5536038691379549  0.7661292672208152  0.9678032511926778
  0.6764879785497573  0.9697264046449473  0.0723039976734639
  0.5822213509364355  0.8818991663084633  0.1858602099234233
  0.6757629174401670  0.9868107499976050  0.3160651904674631
  0.5905856037964696  0.9079948708052867  0.4481698219806154
  0.5799231532477540  0.9182424990551808  0.6835750749636352
  0.4523493022678329  0.8443493540730230  0.8346320382383965
  0.9819789454960435  0.0229900339972069  0.0623260967360336
  0.7839620067341795  0.0060322945168226  0.2885170958489406
  0.8908831939128858  0.1028485497847174  0.4020543747005370
  0.8811795317575906  0.1013814111471962  0.6333069023092182
  0.7990348838926287  0.0158554207243881  0.7585639547476634
  0.8930178548642745  0.1044348468902607  0.8653798771803074
  0.7952938001235847  0.0019064325615598  0.9746318968690220
  0.8846384061127218  0.1101693481638207  0.1780848943289172
  0.6267055143217289  0.5673357055388212  0.9731487806639012
  0.7977468511829773  0.5836827578705927  0.7503342375924392
  0.7086120932195700  0.4954384648960318  0.6310601390367799
  0.6048820432597189  0.4576354409160445  0.3616694359917339
  0.4989862169515608  0.9822752808085163  0.3174599508135556
  0.4093992003120118  0.8989686168526183  0.4362859589412846
  0.4056096344128857  0.9149879833973297  0.6951686258947294
  0.2741897756510560  0.8360976301624979  0.8319308734052401
  0.4869452819579653  0.9984138058212495  0.5613536773960974
  0.7899173489816128  0.0202344944241976  0.0555226955908408
  0.6043574231953945  0.0182907219145884  0.2902274128344207
  0.7036973077342032  0.1001674842542220  0.4110161832591396
  0.6074515961540854  0.0058684516232922  0.5149920959372967
  0.7076185713598219  0.0906124645997060  0.6255568312458630
  0.6193224818854517  0.0191024889779884  0.7485986760758087
  0.7056640902650080  0.1160527975224082  0.8619781766077106
  0.6194476670870077  0.0039470213264370  0.9732750033196559
  0.9729627165284834  0.2029342155189669  0.2879364716324677
  0.7013397737072120  0.1142803153105805  0.1791830314339852
  0.6154033891014785  0.2158256722780998  0.5215178072398287
  0.7066930692049656  0.2899943712175587  0.6331680573878881
  0.6227444519326100  0.2045726444542696  0.7436002589079118
  0.7146057870027400  0.3022825882323300  0.8625083117618816
  0.6219260446322640  0.1983093774788620  0.9755470111232455
  0.5131473406189084  0.1734424946835157  0.0286183365166686
  0.6123403315397064  0.2672499986338548  0.1396690290498916
  0.6977463071700608  0.3058573422729908  0.4070780363995848
  0.7903008643389809  0.4002829807761938  0.5210697168118985
  0.6192884720330059  0.3871308648682628  0.7488321879889550
  0.7147707709677966  0.4839545675404093  0.8580968299432455
  0.6904862890936940  0.4219921641689566  0.0782743292906739
  0.5163522265015187  0.3690709095586747  0.2411015552145863
  0.7892878049044235  0.2014968664984511  0.2940014702414940
  0.3991636819535738  0.8916627132820183  0.1915780962291236
  0.7948668679333072  0.1935802757792381  0.5228179005941050
  0.7995775943039987  0.2036342715185963  0.7457649774541092
  0.6421228316879277  0.9318489066224461  0.9740070947230348
  0.9664501915920435  0.0186035128931460  0.2863649995683186
  0.9758716443334264  0.0015861941787506  0.7460426672967704
  0.9838458693111563  0.0069706674524960  0.9755659445216088
  0.9798298122670183  0.1943920428426381  0.5192331771706636
  0.9811612618095793  0.1941090414810856  0.7461752010853130
  0.8839871536190779  0.1765927466818481  0.0378389015195694
  0.9777458042873575  0.2783093939471489  0.1418148141977265
  0.9818197504420416  0.3913088586532851  0.7368031688955066
  0.8768306123278123  0.3722286089612584  0.2584319258497437
  0.9700610248623585  0.4660435603158489  0.3670149654629568
  0.9758282275005170  0.5200521359468314  0.2100507818988633
  0.8782778400914656  0.6245913494234039  0.3222437894666690
  0.8864908576501982  0.5589052439262630  0.4774219224518296
  0.9864291708692774  0.6516105320473981  0.5927452518823585
  0.9606612805374303  0.7083299628258819  0.2012025737304398
  0.7935426545295644  0.7170136361829867  0.4473746192493592
  0.8709476314685616  0.8222231160421832  0.5637455967226541
  0.8791389406108394  0.7414411221275021  0.7089963178326864
  0.9471079925308170  0.8880954066456090  0.2011268401369870
  0.9556611086140080  0.8999293320010460  0.4426034028618211
  0.9445174548338776  0.9064234685082465  0.6953074708160600
  0.8124579214005131  0.8408714162876301  0.8400659235686476
  0.8226825855507237  0.9302179250913944  0.9744046960886632
  0.9643806558900192  0.7176317707358509  0.4465541719869515
  0.0551577872559586  0.0240401179966509  0.0501329881901036
  0.0559445002682805  0.1999924908396731  0.2763113650374351
  0.6355205786301413  0.8410054695641551  0.8325872312151658
  0.7572678906335941  0.9169466507154417  0.6932752860584048
  0.7712336385528485  0.8991920389801595  0.4335279939130389
  0.8614538173389958  0.9889556024220011  0.3077849842499370
  0.8988284743353426  0.2867324081554557  0.8562981570987371
  0.6993621369681797  0.1828709084657584  0.0349862694995070
  0.7928841658971021  0.2675776844209152  0.1397636960417078
  0.8800941109348506  0.3036454632103319  0.4037899362171676
  0.9714648357931023  0.3884862924420133  0.5161785889013933
  0.7992953848900862  0.3938409760987533  0.7356166759314099
  0.8947400559030220  0.4701843170796141  0.8605518605976796
  0.8130440486447926  0.3800260412124497  0.9719812210981675
  0.8792619549707499  0.4119754054508550  0.0856646657851275
  0.6973092443854376  0.3653472074329867  0.2507954551765679
  0.7816174977570610  0.4713237699300747  0.3712686689618997
  0.8898411899230556  0.4819065313712807  0.6329408566075287
  0.9788167528324611  0.5788568399157006  0.7429628344963490
  0.8818524926676893  0.2967268246608030  0.6271661701067390
  0.8132756050869772  0.5822379614458255  0.9694378345847048
  0.7960246501442299  0.5153900608854697  0.2067500594508711
  0.6956709825569820  0.6243604798916113  0.3222248560683056
  0.7031560445505969  0.5579817657990921  0.4820858495819759
  0.7964009293627796  0.6423534085629371  0.5914956475903845
  0.8963754232759502  0.6670415536562503  0.8536348590623072
  0.8650284699152195  0.7901173563144990  0.0794545111219831
  0.7755391411497171  0.7132824866530472  0.2004452377959100
  0.8685162888256240  0.8105381387717735  0.3230957923930151
  0.6021308632810141  0.7220108444356608  0.4385264110809357
  0.6862603840238264  0.8157289795349827  0.5729282949288281
  0.7048673913811170  0.7451648242531901  0.7117605939937205
  0.8525099497596185  0.9678496587736000  0.0770121027331245
  0.7552490079032977  0.8926159810261943  0.2010574176763217
  0.8809696837318608  0.6064271304542965  0.0860622671507559
  0.0661619282796728  0.3879798689529199  0.5027863651257912
  0.4950606116426512  0.9618991827767505  0.0690411420221981
  0.3384597134071358  0.7478384423794342  0.7088259172474173
  0.0395711442414124  0.8896668089426493  0.1937365036425334
  0.1193602841982521  0.9830274686379055  0.3191387121350968
  0.0317322350595843  0.8921989263881172  0.4365131597216439
  0.0312008853861589  0.9036902711479912  0.6911989233712357
  0.1051188393900217  0.9900503708469538  0.5664593838213859
  0.4306560817045516  0.0164810026815039  0.0485047159308643
  0.2382949090430447  0.0226772430186490  0.2781731492098208
  0.3346303487445091  0.1098416623767601  0.3967214674948891
  0.2522179637432714  0.0115657158755952  0.5159072101915201
  0.3430423601207440  0.0987524774464604  0.6327010335615944
  0.2450006388859323  0.0085793067707933  0.7487690766610776
  0.3408454683755182  0.1031389985505212  0.8562792237003737
  0.2538294518580994  0.0182311426805773  0.9716593533259924
  0.3346064694864088  0.1083000496967251  0.1675642359717401
  0.4232354213464193  0.2093166409623965  0.2848755722304099
  0.2370126652444479  0.2020181847960476  0.5193909554903573
  0.3465388623977304  0.2930552543648745  0.6247553173818189
  0.2511274776233586  0.1931483263326582  0.7418962530552196
  0.3609575926070083  0.2949990268744837  0.8562539791692227
  0.2485246384904282  0.2044609333904990  0.9751620320231930
  0.1514113138660002  0.1755873471079122  0.0266177074229522
  0.2422646547987458  0.2708173052702641  0.1325248267341603
  0.3422029680178250  0.3054998668689245  0.3953330182815846
  0.4364833442949017  0.3922397841847071  0.5115588397007614
  0.2544864932627979  0.3824613424026497  0.7430196346914389
  0.3428614566502873  0.4836492239661030  0.8560330895216514
  0.2485065481433825  0.3814708376372168  0.9673488496319601
  0.1191663556779226  0.9777547064279309  0.0685741181959044
  0.0135708291307225  0.7603724237345011  0.9653040426087295
  0.1387451764785064  0.7949805112906478  0.3268572275345130
  0.0544012489425088  0.7129920378872433  0.2043644512571019
  0.0567008214975657  0.0157958414903772  0.2782741273344250
  0.1567631621359901  0.1093203440791636  0.4039982035991635
  0.0613364367473236  0.0087878340898318  0.5071221133509745
  0.1484712706641384  0.1067807792294443  0.6269579027247432
  0.0595708188756666  0.0087654918770778  0.7375857493611873
  0.1519923758131069  0.1029677082527394  0.8625777342225468
  0.1561198693950462  0.1008973298708568  0.1623954182185742
  0.2402891889013590  0.2064791799426221  0.2846609937156265
  0.0542886546224966  0.1975571896494731  0.5178005500278448
  0.1562957075683301  0.3005920274672674  0.6263267894459684
  0.0742487475774148  0.1928876671838598  0.7443575948424416
  0.1489749059258898  0.2873579901125715  0.8613723078600868
  0.0639177845479638  0.2630049782105701  0.1343234995786687
  0.3313292222156159  0.4225060350623015  0.0877915175345990
  0.1463655542680229  0.2943659975131166  0.3888577960413544
  0.0639057725575255  0.3898491674200152  0.7339884036721706
  0.1508280810772478  0.4861738940073196  0.8522211653178516
  0.0646460295586342  0.3749320167045082  0.9725429119162770
  0.1411302078330070  0.4213814770203436  0.0791894435448978
  0.0545919212003701  0.4606665344463549  0.3542727883644928
  0.1549374843121414  0.4957661506830924  0.6223444646568992
  0.2398412719085083  0.5832805980410182  0.7313440390341039
  0.0624263439761309  0.5699869814523111  0.9620222535591002
  0.1477389734157299  0.6021672152225093  0.0706378586174986
  0.0629979265813858  0.5200297937340773  0.2035818707914211
  0.0593598130677259  0.6596090442133766  0.5962605528451346
  0.1468677423020106  0.6709142038669660  0.8485417749025941
  0.1298208464739382  0.7806293632982452  0.0708461259994940
  0.2455795299913937  0.3921355205251881  0.5036951682472267
  0.3767294807753021  0.7628970937757179  0.9639660824577267
  0.1504604852252799  0.3618171378178339  0.2415244011113651
  0.3278558755828479  0.4902699663455767  0.6156799084330365
  0.5210369027724644  0.2960193212569223  0.6293876888480266
  0.4259033857287142  0.2031204006252514  0.7406529598960331
  0.5397944218171750  0.2991919154680087  0.8646414746441405
  0.4368921861381338  0.1957474704163886  0.9741711841755163
  0.3338322026328543  0.1816942185940410  0.0244340554783914
  0.4264547795066660  0.2711747806743302  0.1349483017246559
  0.5219949675520029  0.3023198252535867  0.4025529541907691
  0.6159801093652943  0.4035077068170400  0.5205774484544543
  0.4363878272625005  0.3847328006993196  0.7384882413498353
  0.5296341593024469  0.4829044835409652  0.8577686510382825
  0.5099106157254979  0.4152075788959526  0.0834242136454769
  0.3318082546053852  0.3658238413050747  0.2478355338991138
  0.4146692802133554  0.4635635747001404  0.3564059512467518
  0.5189152668709487  0.4884527997082408  0.6285672415856191
  0.6140133268344895  0.5741500804288306  0.7446731514818288
  0.4335288288154034  0.5716403051961169  0.9714763304751475
  0.5087137583649566  0.6023087159032854  0.0832475019274199
  0.4209415653410288  0.5119046756958257  0.1928087671227346
  0.3235916189772435  0.6212623597230387  0.3236511720783370
  0.3409699299631924  0.5561422569490021  0.4713443015772278
  0.4319897020887582  0.6466580082202326  0.5905994667345241
  0.5111161564526211  0.6647477531468263  0.8518235639522234
  0.4923166678027646  0.7848445941045245  0.0681323389007622
  0.4075040555555078  0.7014187716806042  0.1957118882050989
  0.5031600218219370  0.8022566252442430  0.3190124894793417
  0.2512049043087141  0.7143921498865026  0.4316914542718041
  0.3280186887062589  0.8183877028527246  0.5588607799449364
  0.4226644899936581  0.2030310317742348  0.5131113783665475
  0.6085413586601164  0.2040140891354164  0.2927771104806710
  0.5155649345980913  0.1149058972676963  0.1772960027304485
  0.5249834928839471  0.0949245116612530  0.8570618041660545
  0.4256638695338296  0.5747905571944489  0.7387091309974066
  0.2512309544084598  0.5707838537072084  0.9678916070517066
  0.3217268660037762  0.6093763025378417  0.0781481066349193
  0.2343447008621530  0.5137814215671723  0.2006724385762688
  0.1416562751250950  0.6155650954707357  0.3233229931733740
  0.1456723321692329  0.5575498163525124  0.4732628859447034
  0.2447155350164926  0.6653733351039418  0.5812463679430806
  0.3244462069716808  0.6677192674431255  0.8440166926937784
  0.3149589053670515  0.7923217879729065  0.0730171556784794
  0.2331131100352841  0.6931298107488223  0.1956677102755845
  0.3213447978741717  0.8101583211549533  0.3144242959426486
  0.0525729661086856  0.7072128521881753  0.4458851919114504
  0.1463489111487409  0.8159672964710267  0.5706941539219650
  0.2404491075692427  0.4672574872088230  0.3638657102018706
  0.1567892122357358  0.7444275312323038  0.7067747990913991
  0.3082466629992274  0.9675815522205505  0.0634557895050404
  0.2207747697362578  0.8814448746491297  0.1999719028368288
  0.3037935431704663  0.9880246768905794  0.3096909463518371
  0.2298640837058824  0.8922361634093743  0.4429378928995718
  0.2050513636980464  0.9198883753947352  0.7041619901172710
  0.0931148087043994  0.8433439544990872  0.8401101014981620
  0.1930437149430149  0.9940272847171886  0.8562539791692227
  0.6166277437895291  0.0244050408049683  0.0590695522175553
  0.4279128614785468  0.0227219274441574  0.2893943433064380
  0.5215977035308801  0.1125599649285126  0.4101704914655815
  0.4303782139739302  0.0052950014959362  0.5155474756226186
  0.5218922143807836  0.1008228558283432  0.6246290947260642
  0.4388372602524838  0.0077005130691308  0.7489836551758611
  0.2028190148726112  0.7738671202379956  0.9675192502172292
  0.0668558739923446  0.5793185789792858  0.7388227313875858
