Cu
 1.0000000000000000
    13.7663459599999989    0.0000000000000000    0.0000000000000000
     0.0000000000000000   13.4350387827040088    0.0000000000000000
     0.0000000000000000    0.0000000000000000   15.4757640000000016
 Cu 
 243
Direct
  0.9541655438681130  0.4917343000049271  0.5328255199549438
  0.4025740015617040  0.9060911239812534  0.1620780725268233
  0.4007725068097880  0.9964667469800595  0.5653796478157718
  0.2957845888684903  0.9913383658034678  0.8395244331717646
  0.7819775132253031  0.0411140898277953  0.1633574923990831
  0.7794641374827107  0.0480660608277034  0.4041468970449538
  0.8665533333727140  0.0632948966583373  0.6707767060805530
  0.7546354719099335  0.0797890805296400  0.9513379759474231
  0.6824376640902030  0.1228332435836752  0.0356998207002901
  0.7878614275359966  0.2287205449163238  0.1522368782568669
  0.6881399761073563  0.1242400128759478  0.2873772176934208
  0.7735729590802763  0.2349058638680623  0.3913591600388839
  0.6898325094831483  0.1455946218681713  0.5268936641835583
  0.3135525572684358  0.9738765628422423  0.0235647170634033
  0.7764785957769145  0.2345858052460109  0.6568517069658082
  0.8655218323454080  0.2636813669576179  0.9124836744731958
  0.6948084123261421  0.3159849003798393  0.0253093805255755
  0.7763042575751166  0.4083850802437155  0.1463761013672733
  0.6877622433367931  0.3117943653980959  0.2687868592464969
  0.7759265248045534  0.4183366704223847  0.3762258199336720
  0.6784206213570998  0.3370864397639289  0.5129945119349197
  0.6941691722528816  0.4037628382833910  0.6608708946453307
  0.7720620279980236  0.3319133992447255  0.7908870928763196
  0.7799798879963646  0.4208078207135727  0.9344405872304591
  0.6851616984933014  0.5017454359737457  0.0133939752505918
  0.7773430226941642  0.5943093667605317  0.1312492229785877
  0.6788346745863707  0.5127837368226364  0.2556631129810460
  0.7684372462189673  0.1493087905287216  0.7987445401726208
  0.3979395110305652  0.9216028023150954  0.9773011529511563
  0.3909587188668907  0.8383131283440327  0.8172638197377524
  0.4846872946087140  0.9231956522015839  0.6983359270663471
  0.6841084051907700  0.2470829779535545  0.9099636050278358
  0.5189883358125339  0.3076782626540390  0.0229250071272733
  0.5962637437596404  0.4065093878540185  0.1506860662904916
  0.5017288538344999  0.3189324169922201  0.2776135640217830
  0.5931038638520457  0.4232715277809920  0.3879215268467522
  0.5036756304212481  0.3265840510263804  0.5154887345141735
  0.4978062442940376  0.4040159078915246  0.6613490616682961
  0.5845322355969613  0.3187463363980043  0.7830684158791774
  0.5994018313920101  0.4118238496248263  0.9402302852382605
  0.5081430468423302  0.4836658454397232  0.0141435343676733
  0.5948036613195795  0.5960436378986246  0.1147524606862707
  0.5066030593931117  0.5082582567713043  0.2541639947468830
  0.5059565552281092  0.5769219960369927  0.3998950875704746
  0.4023342865342316  0.5050427841032523  0.5250391515404345
  0.5845177074134782  0.5722699811815938  0.6834869024883038
  0.5122399945845906  0.4859881312555385  0.8147114417097600
  0.5730041220030475  0.5848639157981298  0.9433642177536438
  0.5100970875208196  0.7540558352830472  0.1438624936384401
  0.4003148690300677  0.6617226444330891  0.2754101186862246
  0.5827525331202704  0.7384399518164438  0.4226791000431385
  0.4966149332484159  0.6605093989588010  0.5565658664735391
  0.5706868767374782  0.7434939007553494  0.6815548492468614
  0.4846291818747813  0.6775246084939082  0.8124433792089361
  0.4745902070878947  0.7622657110998554  0.9555316299731631
  0.4939635397627333  0.8278405125015590  0.2966627043420925
  0.5941426289710939  0.9237613372080008  0.3982021178405152
  0.5025932807517504  0.8438360003803627  0.5422273175010939
  0.6810574866592992  0.5818047508292193  0.4094584280297892
  0.5806241542399826  0.1485942410469324  0.7935299349356838
  0.5897405893756867  0.4991775237735656  0.5390610764030777
  0.6851181139428519  0.4926200436333952  0.8082755720493023
  0.8681078490054157  0.3405400955925773  0.5137828413511606
  0.8670618197946262  0.4058097248197666  0.6657688757724660
  0.9672554371864703  0.3359104104084842  0.7878500861088344
  0.9764735696065571  0.4208673665037219  0.9366698794321237
  0.8636186403091095  0.4868738748840063  0.0157912720819471
  0.9580009843076764  0.5882952419554720  0.1206649313080762
  0.8632772279972545  0.5055563665432885  0.2577114771199667
  0.8717544230596975  0.5853923846857032  0.4045216766034945
  0.7751420028964606  0.5026014067071392  0.5236563442037498
  0.9556328903999157  0.5765870509674039  0.6801461950440700
  0.8697931182894663  0.4908113402576160  0.8083208040649884
  0.9453324083103313  0.5969740408697044  0.9454384287586707
  0.9566498632437390  0.4251546633944574  0.3858020838260392
  0.8669455943267608  0.7459650510465374  0.1391648257236285
  0.9548047839413731  0.7502895640561160  0.4269696798167769
  0.8563618126592539  0.6647148203880816  0.5533414699267838
  0.9418020597239157  0.7631142386094798  0.6624023214621261
  0.8527079745132313  0.6752469820207049  0.8031061988280515
  0.8442089871755628  0.7570107951191969  0.9605911540134624
  0.8683257717576636  0.8270887469009264  0.2940457091488346
  0.9619381220316215  0.9292693227967930  0.3967999253542507
  0.8591584879797687  0.8474906232507637  0.5455938718114338
  0.8499548837431656  0.9252425387379598  0.6917966699414646
  0.7526669030479605  0.8379335239318323  0.8253086568133245
  0.7605629707710762  0.9247066266266180  0.9760152713623701
  0.6863820659058899  0.9850265120476625  0.0222659120415640
  0.7720910843649899  0.6663299999458758  0.2746153275534571
  0.8722411172063852  0.3208378822769916  0.2685800843176468
  0.9566934477941890  0.4048495489536121  0.1389580507947784
  0.8833333852958032  0.3139156841721579  0.0273965149636556
  0.7603741043857946  0.5953216451930665  0.9494253078555606
  0.6822851181636290  0.7480268240304504  0.1374524708440892
  0.5931474484024951  0.6653772673034902  0.2686511631994391
  0.7727593808052173  0.7453695931450461  0.4212639841238209
  0.6765392215960263  0.6664490915261743  0.5599841145160910
  0.7523981316535208  0.7569363628815101  0.6781430629208354
  0.6706335150101081  0.6734978244350750  0.8113513491159468
  0.6615170798744041  0.7530956594168927  0.9580387759854699
  0.6813698426041880  0.8112570099450328  0.3012505230759531
  0.7766093494282634  0.9285622165387727  0.4127409800252837
  0.6822705899801459  0.8371073260935135  0.5352357402193522
  0.6589601195813622  0.9178811904307764  0.6925009970428601
  0.5737305311772071  0.8337504321738577  0.8340965912894509
  0.5729460092691149  0.9144945236160462  0.9866060247494080
  0.4969127610098215  0.9673562988209156  0.0273835915306025
  0.4874549135622623  0.9958638458547999  0.8478406623414523
  0.9617201992793736  0.0341695620516558  0.1600426318209556
  0.9611463360317880  0.0412108517367876  0.4018917579771830
  0.8573569932278527  0.0015310258261767  0.8297090857679145
  0.9495891660709069  0.1021113086117861  0.9507951917591921
  0.8748634543251009  0.1272173023834033  0.0256906218006426
  0.9589961648762753  0.2194983906669810  0.1529476670747887
  0.8759240117193742  0.1300680570867917  0.2801271717506162
  0.9700157920482769  0.2299635632856864  0.4019692985755016
  0.8664080515378824  0.1469939479366752  0.5247096039975798
  0.9557418517760392  0.2419620400007314  0.6416795965614366
  0.9540493184002478  0.1645376263593555  0.7965863268527484
  0.7788176333177088  0.5761925601076663  0.6739494088950955
  0.5889052188254027  0.9084208530208373  0.1600426318209556
  0.5915420841276027  0.2338861422117589  0.6434436451731882
  0.5950869608975019  0.2399449263594304  0.3975494844713322
  0.1336064766456005  0.1340873979218563  0.2771224735657639
  0.2247272434521906  0.2266885448274855  0.3948678721128083
  0.1278242596192896  0.1479764534741355  0.5174207877556160
  0.2181822967930120  0.2403245307716308  0.6321550264012813
  0.2264778895619153  0.1619176115927949  0.7909387866085320
  0.3268676374307830  0.2524197693956682  0.9189260058501797
  0.1401877437634873  0.3106555521614943  0.0239136497558378
  0.2204051088659406  0.4101565675006512  0.1344477726592369
  0.1375290861860629  0.3285565053250695  0.2637919523714630
  0.2232235764616803  0.4120173734428110  0.3794308313308475
  0.1323134683155967  0.3239640362598198  0.5024877608627273
  0.1371368252320166  0.4091219593968106  0.6621180059349575
  0.2385943945868988  0.2230041490620097  0.1418076677829931
  0.2197586047009382  0.3402572530893689  0.7851297034511512
  0.2191920055450939  0.5958501140806399  0.1226228314156253
  0.1352481613792017  0.5078339930164918  0.2484259904712945
  0.1304102762792982  0.5764009703731879  0.4127991354740224
  0.0389263048856285  0.4998027545701311  0.5346154154328021
  0.2349187641656506  0.5651021566923951  0.6766310212536198
  0.1502339826421157  0.5009266813591955  0.8110411867226716
  0.2056880589974653  0.5884143335357701  0.9454642756247769
  0.1344781676545922  0.7523513370400290  0.1285999192026968
  0.0381199907023114  0.6617598605519319  0.2721857221394692
  0.2332117026063755  0.7422211094909124  0.4299614545685757
  0.1329890288475649  0.6578521680733972  0.5526177576758085
  0.2083975652170810  0.7548671466738287  0.6651033189702299
  0.2452410385304596  0.4167512637596648  0.9454578139082506
  0.1336936457465000  0.1201239101318908  0.0365269204156902
  0.2090585975655666  0.0890931102404379  0.9494705398712462
  0.1359091937276868  0.0017096631966238  0.8286105939583984
  0.9545287484551925  0.6676921098955368  0.2722826478873677
  0.9327364732304024  0.8312420657638264  0.8195189588055232
  0.9372837946606423  0.9152983917830589  0.9740638329713478
  0.8706357529314916  0.9851009442853492  0.0145183139262140
  0.9550590271523292  0.9005608087211550  0.1598875506243185
  0.8422186260383653  0.9968835675111034  0.8470135626260518
  0.0388100794177627  0.0353307049595633  0.1535873770109186
  0.0521614800388180  0.0317505143268481  0.4001729413811169
  0.1251583379501238  0.0803101061934445  0.6743629587527959
  0.0344734166480295  0.0916089198742376  0.9463301456393367
  0.0456310615631225  0.2215824933221996  0.1491029457414833
  0.0313062726486935  0.2283855998467350  0.3971876283458446
  0.0300205284104310  0.2425500546784538  0.6496339696056361
  0.0484495291588616  0.1545116039429998  0.7973358859698300
  0.1384225694702796  0.2627807368816126  0.9223054835935727
  0.0420643925179982  0.4099556004588980  0.1329680395746538
  0.0391660199131009  0.4091368458443478  0.3870556568321928
  0.0453332338017169  0.3354712602061345  0.7904993898847258
  0.0569194601295639  0.4270973447980722  0.9330965501929338
  0.0525827973598306  0.5952546561791490  0.1221252792430799
  0.0427036325912588  0.5745327212072598  0.6787440025578060
  0.0349601107947167  0.7426677029170307  0.4210572091949709
  0.0235264303934432  0.7595042750816904  0.6726247570071500
  0.0433574008480026  0.9260761798000474  0.4011034285609422
  0.2263398718188250  0.0328000088782261  0.1623946966366249
  0.2342359395419406  0.0437638774894304  0.3933364452960129
  0.3204752366981777  0.0765959375328939  0.6694132838934477
  0.1218894966664051  0.6867318762957138  0.8020981710499075
  0.5020412097793887  0.1401610685170653  0.5108169134654675
  0.1176472670893127  0.7520238351942091  0.9529663285121175
  0.2166059888850853  0.9158491903419385  0.4137877781025869
  0.3355700193372157  0.4996836629898329  0.8122753745792454
  0.3952808534531408  0.5943391396556061  0.9301952394725068
  0.3136469904610766  0.7463372122349695  0.1431840134031509
  0.2244584720577514  0.6682429084544159  0.2692197942537763
  0.4108841225140910  0.7397797320947989  0.4221686244375401
  0.3163201762219842  0.6545399334963532  0.5562815509463701
  0.3971331968472481  0.7525895202006254  0.6689157317209024
  0.3016176545369926  0.6756638025517487  0.7938142504628528
  0.2982689082441163  0.7542419158772630  0.9501037880908498
  0.3172281876896840  0.8200846733346379  0.2940715560149408
  0.4011647677638344  0.9252350955141909  0.4212898309899271
  0.3227053128628476  0.8359536264093743  0.5434421202080878
  0.4093731914318387  0.5712800324203647  0.6777488982127152
  0.3011164322068223  0.9137576444629509  0.6876870182305700
  0.2029204400439169  0.9212753004692755  0.9690818495293676
  0.1390254890848320  0.9870957282553444  0.0230994734734908
  0.2207610493612788  0.9031361641451042  0.1489543262613724
  0.2191920055450939  0.9976427763355044  0.5598742653351394
  0.0993926045426800  0.9978214137059518  0.8275444107315154
  0.6020532248776932  0.0355614448963911  0.1576065646904410
  0.6044649033359029  0.0394095915847771  0.3976399485027039
  0.6783625086231672  0.0743704136260712  0.6722887477477685
  0.5811326406618942  0.0811735201506066  0.9500456326421106
  0.5087387023651408  0.1264506503352335  0.0339939275372771
  0.5993073981993693  0.2264205887718146  0.1589118314288071
  0.5156395895196576  0.1270684379080303  0.2805277981752631
  0.2082813397492157  0.8355740219971738  0.8202362093399717
  0.2246182820760667  0.4918608348089940  0.5308030026821292
  0.3148673578736647  0.5878486485293536  0.4027640897082692
  0.3138431209380996  0.4990882050883418  0.2607355604543984
  0.1275845445918171  0.8383503444628760  0.5419688488400315
  0.1222091167030352  0.9181714761577534  0.6800428075796453
  0.0273400785577816  0.8430321322133495  0.8229759771472347
  0.0380182934179287  0.9097680765229605  0.1569022375890456
  0.0282262977502564  0.9984689741738236  0.5556612261598201
  0.4178649146777654  0.0265253712412640  0.1605337222769747
  0.4170513364027064  0.0497705590707215  0.3927225822259891
  0.4994842494863464  0.0706636881892892  0.6726958358889422
  0.3933340768663933  0.0889814618839083  0.9498259342802076
  0.3241145466607177  0.1270907675793362  0.0364170712347386
  0.4274753080518980  0.2165062147119885  0.1557003583151048
  0.3230031406242532  0.1221559102207291  0.2739368473181679
  0.4081600881109920  0.2362307576988798  0.3871073505644052
  0.3118382316174189  0.1506039114644648  0.5089042453736050
  0.4132740086970761  0.2432646041602430  0.6485290160795938
  0.4023342865342316  0.1553750179001620  0.7988220807709397
  0.5024407348251764  0.2495317985734367  0.9257754253683373
  0.3298095945861292  0.3134095449558906  0.0233514804180265
  0.4147849397793283  0.3989024131624702  0.1419692106961570
  0.3186011010288455  0.3192971349568833  0.2642636576779022
  0.4143563583665744  0.4183813297649967  0.3878439862484336
  0.3255310445503292  0.3367887108131836  0.5088202430587597
  0.3193275102030050  0.4050430727715967  0.6595850130565445
  0.4084797081476226  0.3304173112672290  0.7920243549849945
  0.4216858269338452  0.4034874390039512  0.9423238813928668
  0.3245576562569549  0.4891366149096724  0.0156168057357300
  0.4099179983124585  0.5851020989587261  0.1283349888251076
  0.1260300289591155  0.8304233111492765  0.2909376234995571
  0.7719240102549338  0.9018038270905177  0.1480949179633394
