Cu
 1.0000000000000000
    13.8195248199999980    0.0000000000000000    0.0000000000000000
     0.0000000000000000   13.4274972359015532    0.0000000000000000
     0.0000000000000000    0.0000000000000000   15.8450159999999975
 Cu 
 245
Direct
  0.0387250948907806  0.1246806153476278  0.6159670649748792
  0.5900248030380538  0.8195681164265672  0.1262610274423200
  0.5095734116565667  0.7338112564719664  0.2579049462619667
  0.6804982466828406  0.8083672204324971  0.3875924139174110
  0.6011322761240930  0.7138075286527691  0.5203029141781872
  0.6092295154617332  0.7899274475060889  0.6653201233750725
  0.5115054607210437  0.7130776830361341  0.7966421744225440
  0.5085965329161006  0.7915509816328890  0.9422778746326291
  0.5949019606015654  0.8932527340896870  0.2740298905346641
  0.5926153407349933  0.9586930752465324  0.4145914399833990
  0.5179528604081194  0.8843158489880348  0.5428021025665104
  0.5210644000999739  0.9626923313295220  0.6874343326633434
  0.4212201566855319  0.8690114332514565  0.8149760151709536
  0.6059226000217857  0.6317743708238565  0.9230920309578735
  0.4173343501401228  0.9639881796692611  0.9637988374388516
  0.5041824882369581  0.9825992428934514  0.1428088176117967
  0.8495778663104565  0.1308023816422594  0.1058066460772270
  0.7727662527545575  0.0176167318298387  0.2242034971753892
  0.8595492656020277  0.1053173642940487  0.3448660449443535
  0.8646145627748143  0.0363171639050450  0.5042410812333671
  0.9479387012671541  0.1326344430880980  0.6208771262837474
  0.7671220644763094  0.0552112284907874  0.7676425192628397
  0.8625016102398808  0.1473579612930692  0.8804792623749956
  0.7848723129975173  0.0606105965730353  0.9971405519565268
  0.8508224821871986  0.3035970550826979  0.1174380638050475
  0.7659136292936588  0.1989908149678628  0.2383278123543707
  0.8536011594934126  0.3015713611263234  0.3569771087640427
  0.4146786871938187  0.9501360077617008  0.0019190892580987
  0.6073191748137111  0.5481474684851494  0.7839189307224431
  0.6944712307409134  0.6273580601027900  0.6498894037090277
  0.4975252405241524  0.5515956166535366  0.5057494419696389
  0.3146897210030117  0.9783393276616639  0.1464440300975399
  0.5752196630158805  0.0318710635669732  0.0050367888552463
  0.6751579762349600  0.1166597609688952  0.1186939792298095
  0.6851076671100762  0.1068440821655810  0.3474094314578163
  0.6888704592955748  0.0402940777752800  0.4974692357521128
  0.7644881099464603  0.1263637287084387  0.6159986206388182
  0.5906326386987883  0.0564996294262755  0.7682673214088269
  0.6865187141796383  0.1530254359283668  0.8824546469375606
  0.5756031783732485  0.2158815278099849  0.0005558845759450
  0.6729871345894800  0.2954049104061834  0.1221903467942221
  0.5791271779777446  0.1982460745427253  0.2360873602147200
  0.6793621728883726  0.2870936072616473  0.3646072683044311
  0.5857771895517312  0.2054626092623090  0.4869485773949361
  0.6938416866637239  0.3050120618904593  0.6122056298333809
  0.6140415477758808  0.2391248764785311  0.7471565822338078
  0.7880562140775543  0.3121094381420213  0.9001510632744075
  0.5769997531651740  0.4034518512851544  0.0044372312404101
  0.6773432901580766  0.4845093991571367  0.1166870390033056
  0.5774990467436345  0.3869484034641041  0.2409595547268617
  0.6814317085903971  0.4724967360996663  0.3501484630876990
  0.6071816881761636  0.3884900161441389  0.4833449205731318
  0.5920219773518953  0.4638354049553154  0.6402459928093480
  0.7006291848752580  0.4043678820080737  0.7589394671485343
  0.7028868601865571  0.4714466521002222  0.9059888611030750
  0.6790003659474596  0.6589797385541351  0.1171729962279623
  0.5897281213465048  0.5680096956235706  0.2371918084525759
  0.6016749865354630  0.6387153515861393  0.3737710331122416
  0.7692567254276980  0.2071084856018634  0.4798422418759312
  0.8696798599476010  0.2942058783217120  0.6020510171778937
  0.7951114494253645  0.2408824638818559  0.7430291013906204
  0.9728816717737185  0.3206441634140987  0.8777717864090513
  0.9528882202188481  0.0211319066364884  0.2245001204164134
  0.9595744124869263  0.0514949737693505  0.7687722120318465
  0.9648423215466244  0.0698379304404910  0.9994441154240553
  0.9432424471740990  0.2011282199880079  0.2298519610204242
  0.9571068891498977  0.2050157650072264  0.4701357196483742
  0.9752044723343821  0.2418506264345349  0.7410726502264184
  0.9516653127585611  0.3978588506923707  0.2289999580940781
  0.9591981332683768  0.3946639142685302  0.4665005071626310
  0.9622662561273219  0.4619437642754657  0.6153233294305290
  0.9587060758287342  0.5725079277914019  0.2286780903219030
  0.9586626589958247  0.6448743549020279  0.3731777866301933
  0.8631239181782518  0.5658648431991742  0.5029409878790908
  0.9601098867594783  0.5629305659241317  0.7759605922770921
  0.9705733434906915  0.6368683953317980  0.9230857198250860
  0.9629102724821473  0.8186222960866428  0.1293471713755288
  0.8705771411610660  0.7334612284721518  0.2509122111331410
  0.9624761041530513  0.7217092245634795  0.5179930395778711
  0.9690465182000375  0.7981344869911058  0.6680843995361067
  0.8706856832433399  0.7220890421802996  0.7940609211123549
  0.8768942903494131  0.7896295513360335  0.9540607595473558
  0.9662533686161864  0.8932154970684300  0.2736322891690357
  0.9643864448010738  0.9685385436668524  0.4192553671135453
  0.8733341100508255  0.8817092575000532  0.5455158896652422
  0.8745063645393850  0.9579706770341492  0.6944270677921690
  0.7788084286678096  0.8821561017551359  0.8260772977446033
  0.7885120908231054  0.9481624456350861  0.9680020518754923
  0.8748681714802981  0.9824577422126753  0.1370783090405209
  0.6862582131821807  0.9760455271522399  0.1410101447672883
  0.2214303639131923  0.9550587419718606  0.0030109152303791
  0.6028617133016585  0.9413182811280708  0.0028720703090485
  0.5919930327966223  0.8761088095030179  0.8205045674930210
  0.7632724386249918  0.3940234375029117  0.0011365087924179
  0.8625812077668819  0.4848743219654541  0.1077189193119150
  0.7713913863790864  0.3804095825313954  0.2408964433989844
  0.8732834570790980  0.4854328772843073  0.3590534714512123
  0.7897639428386654  0.3917147421849851  0.4842284791634163
  0.7834685020667738  0.4750660905663913  0.6304889815194886
  0.8809031112547326  0.4025730575834919  0.7483620085962678
  0.8796223146838992  0.4732265817163013  0.9101794532741401
  0.7735694641633850  0.5858834658268742  0.0018749113285843
  0.8628778894584304  0.6588754748946157  0.1131843603061051
  0.7772960756547921  0.5622975365627646  0.2332978395225349
  0.7772092419889731  0.6353640196730200  0.3817987940182579
  0.6888559870179383  0.5437013681470776  0.5024739640527977
  0.8745425452334761  0.6313126317602711  0.6470620162201162
  0.7842210605038732  0.5561534280553790  0.7793622928496885
  0.7934543736359814  0.6328914814615629  0.9377023033615116
  0.7819633851925741  0.8204990419579895  0.1304642418789606
  0.6915984836300614  0.7296183678784415  0.2441088099879483
  0.8698173465851480  0.8014262396702140  0.3965479113432261
  0.7731352958342890  0.7226922819246615  0.5165793458334152
  0.7881213393269187  0.7812661163617378  0.6751591793911726
  0.6886533751310268  0.7206963775852925  0.7913786896775620
  0.6966565446640299  0.7911935062288226  0.9467272232479915
  0.7867609452290848  0.8915770681331272  0.2739983348707252
  0.7844887976401492  0.9600485028202829  0.4115747185108555
  0.6928430995068033  0.8869745723057767  0.5383590650839355
  0.7016205358933606  0.9522510705690921  0.6906214547211563
  0.6037011054045776  0.9585217849487507  0.9568881470362668
  0.9607756115307587  0.8725489502708603  0.8203972782356294
  0.2343323994261616  0.9553864277589215  0.9672257825425991
  0.3310940477040221  0.9541948430787013  0.7011926021406354
  0.1390613957448647  0.8051871788171591  0.4036668691278065
  0.0446008396112127  0.7172556768211567  0.5273840051660411
  0.0481899644650733  0.7960045293752117  0.6753485133748051
  0.0446732009993957  0.8977584136617697  0.2741498020576312
  0.0535519433294084  0.9701471829851497  0.4137962372521428
  0.2132390547709146  0.0213404339555267  0.0040017630780553
  0.3078081529868401  0.1028746156995973  0.1211174542203051
  0.3107026085141472  0.1079760876117900  0.3588262706708534
  0.3108907481234217  0.0278718074839841  0.5028273874889112
  0.3990196827910899  0.1180673203724053  0.6179992497325345
  0.2231380926743034  0.0516588166628806  0.7796904717546516
  0.3242920772148514  0.1462036136341059  0.8781883211730427
  0.0393546389679696  0.8175275276616901  0.1378230227094753
  0.2395207109588587  0.0710593047377165  0.9966735281302336
  0.3169401601754928  0.3071792565276099  0.1165229495508241
  0.2143534201489277  0.2022602254342172  0.2368257627508864
  0.3044505845751645  0.2851647295605408  0.3602588978136724
  0.2230874397025754  0.1961682487565911  0.4808015340596690
  0.3164336304582143  0.2913386276849321  0.6024423074107340
  0.2376248425884732  0.2264642892511909  0.7505835273375555
  0.4183184650194068  0.3161608260547699  0.8895168045270515
  0.3086403089509411  0.4852541395822745  0.1196658936791227
  0.2140495023185607  0.3812734814245551  0.2392176820774432
  0.3174756344480443  0.4711785455471728  0.3632566858878529
  0.2262206878108849  0.3829342525726120  0.4776585899313704
  0.2298459933588365  0.4622416604455209  0.6289616873848535
  0.2149106028379342  0.2136845435558289  0.0063747490062490
  0.0614320985025011  0.6371513966933504  0.9423283636949310
  0.0570687067950860  0.5495028960588999  0.7756387245049170
  0.1430050914008197  0.6294060962719187  0.6502491382779292
  0.0539716393808679  0.3196611060529170  0.8924388590077789
  0.0247955276656173  0.0174007571065487  0.0063053265455837
  0.1235326418408643  0.1094953580790710  0.1114235542583231
  0.0249619588584373  0.0181157079146808  0.2226572696423910
  0.1340974045155336  0.1023086129764927  0.3511329998025877
  0.1322956059497850  0.0400483134349847  0.5041464142415509
  0.2246938625202309  0.1330514977261749  0.6187313411359129
  0.0598184395460276  0.0561421540222094  0.7585355546501185
  0.1409427918376137  0.1591769918400038  0.8848781219280563
  0.0280445539950189  0.2143324677256984  0.0086720013409895
  0.1187061372490807  0.2998063263187470  0.1279019219671344
  0.0338841180213600  0.2026996222850484  0.2370655857968208
  0.1139664663231162  0.3018096780623675  0.3537521199095033
  0.0320171942062475  0.1991844474783987  0.4738908436570846
  0.1230188759847673  0.2907279405363191  0.6095928208592533
  0.0453533980483128  0.2301433069513711  0.7421707873314863
  0.2328634632460536  0.3186408116704784  0.8857175025888269
  0.1235471141185008  0.4776205502246133  0.1221083020679813
  0.0254033633263519  0.3864717695920161  0.2434019631157203
  0.1378167798681226  0.4777173664798813  0.3593627169578119
  0.0391520270810581  0.3889443078034728  0.4789713055512217
  0.0482985065473473  0.4636790094660366  0.6339853490839013
  0.1442786518328348  0.3784434678090320  0.7549192755627387
  0.1436346354780088  0.4683410845273984  0.9048402349357046
  0.1329830391375205  0.6583541565970192  0.1147432101046791
  0.0441087821715707  0.5737888813226388  0.2457497045127627
  0.0448179237757607  0.6467138637521178  0.3818619053461352
  0.3255873460633215  0.3895698897605886  0.7562067466514391
  0.3250663440684059  0.4636119828277742  0.9060204167670138
  0.3225915845925589  0.6602681394896230  0.1243613764732079
  0.2259384783969724  0.5715546600472258  0.2398487953562179
  0.4998408049459980  0.2978551064048864  0.6138970134204976
  0.4237383329942884  0.2323551860140298  0.7423790547134822
  0.6060600866593326  0.3198621859677042  0.8895168045270515
  0.4817938747332411  0.4711487559301671  0.1251755126028271
  0.4018273046525775  0.3789573387023769  0.2410794662498289
  0.5124606310450547  0.4701880407817396  0.3561251058376971
  0.4196426784231498  0.3830906480618910  0.4802524655071351
  0.4184270071016808  0.4658462041031872  0.6224044204183825
  0.5105792349523057  0.3938149101838732  0.7581695089484290
  0.5165997024491034  0.4729510277590003  0.9154113823551837
  0.4998552772236345  0.6546081122585768  0.1160496145917430
  0.4061328072494461  0.5667957687305961  0.2363461166590178
  0.4147799931372748  0.6363768666512072  0.3837110672529455
  0.3216436504073659  0.5515360374195257  0.5042410812333671
  0.5193421990612264  0.6309253667391996  0.6539411509587622
  0.4186368551274108  0.5537330216736818  0.7902616191741302
  0.4137379891474442  0.6404580441809616  0.9213186026445160
  0.4149391881912767  0.8245429824664868  0.1372423984930025
  0.3194728087618858  0.7208527730745713  0.2659705739647089
  0.5017366733163841  0.7977099849487770  0.4027012658112812
  0.4169074179498448  0.7075517090816129  0.5298579692188381
  0.4225950230610024  0.7852281354234704  0.6671566630163077
  0.3318321338634850  0.7173524930764246  0.8012240568264496
  0.3188794453787883  0.8030348789885112  0.9499900788992578
  0.4126308599082497  0.8837126092436735  0.2766111438448532
  0.4165021941760223  0.9589016025655709  0.4273020614179245
  0.3359639691287157  0.8750140410780658  0.5543830312320291
  0.4054815547558021  0.2052689767517732  0.4728242622159551
  0.2305406626853900  0.8764439426943299  0.8158658848940261
  0.4874670075667622  0.2864978149215373  0.3615085021056463
  0.4993270390899009  0.2858349959431647  0.1197668718037269
  0.2287967532301880  0.6401973850321635  0.3797413647294517
  0.1395679254621432  0.5569056158847682  0.5067024230205891
  0.3261807094464190  0.6233364618070468  0.6525274572143063
  0.2328345186907806  0.5461366693372777  0.7742502752916125
  0.2387898609382142  0.6287507246977977  0.9209967348723409
  0.2355553068864486  0.8201936983836831  0.1380123566931078
  0.1409717363928867  0.7351890262584714  0.2626067401888394
  0.3197622543146168  0.7938894665678210  0.4122752542502955
  0.2322990444182290  0.7106125922289286  0.5218996307734876
  0.2333265761304226  0.7918861148242009  0.6775447875849419
  0.1370063323204766  0.7154534049923235  0.8001259197213813
  0.1378963773951236  0.8030050893715058  0.9465883783266614
  0.1400455106241487  0.7861143765293840  0.0020453119138533
  0.2362572123518206  0.8946528460889457  0.2837742795589480
  0.2260759650345194  0.9594825000971785  0.4274030395425287
  0.1454870870154853  0.8703966504422125  0.5535436505712585
  0.1477954152985123  0.9587377596720410  0.6915239467098048
  0.0430523059041037  0.8774418948640147  0.8200186102683644
  0.0426181375750077  0.9533756286110496  0.9654712876276049
  0.1232359601493153  0.9777286405130509  0.1368700416585255
  0.4849488312580051  0.1094730158663169  0.1219757682794387
  0.4972575033878769  0.1000148124670685  0.3575955997772424
  0.4933716968424678  0.0383354104571681  0.5035279232283516
  0.5858784954951872  0.1262222280276626  0.6267275463779903
  0.4064729057739045  0.0605584647432757  0.7684629665252469
  0.5056876051111571  0.1473877509100749  0.8794757922617435
  0.4175586704434888  0.0678569209096247  0.9973235748073718
  0.3903073716538972  0.2022974624554740  0.2343644209636644
  0.9743071911209170  0.9564514065668682  0.9652567091128216
