Generated generic
1.0
    7.66857304    0.00000000    0.00000000
    3.83428652    6.64117907    0.00000000
    0.00000000    0.00000000   25.04545468
 Cu
 108
Selective dynamics
Direct
    0.11451734    0.10866405    0.00065389 F F F
    0.44177264    0.11194157    0.99998955 F F F
    0.78116083    0.10947664    0.00003015 F F F
    0.11306140    0.44166072    0.99999325 F F F
    0.44399353    0.44464403    0.99952847 F F F
    0.77470795    0.44685770    0.99925275 F F F
    0.11066538    0.77832861    0.99967610 F F F
    0.44468172    0.77994875    0.00002155 F F F
    0.77820410    0.78019020    0.99927646 F F F
    0.89006490    0.22439386    0.08265187 F F F
    0.21977208    0.22280618    0.08359696 F F F
    0.55747192    0.21998728    0.08314590 F F F
    0.89185355    0.55268739    0.08290225 F F F
    0.21962828    0.55760880    0.08328641 F F F
    0.55654819    0.55406014    0.08362178 F F F
    0.88880016    0.88663939    0.08412845 F F F
    0.22307076    0.88801956    0.08331931 F F F
    0.55573831    0.88992694    0.08364206 F F F
    0.99988406    0.00041387    0.16630138 F F F
    0.33123909    0.00120735    0.16588005 F F F
    0.66640050    0.00005614    0.16651609 F F F
    0.00176452    0.33104373    0.16737205 F F F
    0.33402248    0.33146785    0.16721540 F F F
    0.66929273    0.33197686    0.16721832 F F F
    0.99953243    0.66920338    0.16737765 F F F
    0.33075531    0.66830884    0.16640348 F F F
    0.66663390    0.66923903    0.16719799 F F F
    0.11016793    0.11043769    0.25062963 F F F
    0.44351538    0.11092626    0.24937887 F F F
    0.77497820    0.11399215    0.25074464 F F F
    0.11045083    0.44384082    0.24935069 F F F
    0.44646804    0.44542886    0.24929620 F F F
    0.77650220    0.44503336    0.24942929 F F F
    0.11173835    0.77639056    0.24936121 F F F
    0.44598771    0.77861721    0.24977360 F F F
    0.77836361    0.77768645    0.24924416 F F F
    0.88968394    0.22466987    0.33370562 F F F
    0.22472214    0.22193622    0.33404212 F F F
    0.55549725    0.22269936    0.33268944 F F F
    0.88716833    0.55702494    0.33279826 F F F
    0.22134494    0.55321678    0.33350548 F F F
    0.55320706    0.55620601    0.33412509 F F F
    0.89025316    0.88773832    0.33353248 F F F
    0.22366087    0.88865772    0.33255104 F F F
    0.55248281    0.89047396    0.33291163 F F F
    0.00215910    0.99698962    0.41709374 F F F
    0.33232614    0.99757552    0.41624393 F F F
    0.66732264    0.00004125    0.41693954 F F F
    0.99896163    0.33242380    0.41683758 F F F
    0.33219933    0.33125245    0.41701523 F F F
    0.66627621    0.33340707    0.41669325 F F F
    0.00190427    0.66784405    0.41593203 F F F
    0.33192914    0.66933555    0.41628532 F F F
    0.66764772    0.66426439    0.41717787 F F F
    0.32522204    0.11208428    0.50027747 F F T
    0.66103398    0.11220387    0.50017805 F F T
    0.99482801    0.10847967    0.49997966 F F T
    0.32863494    0.44360816    0.50051067 F F T
    0.66344246    0.44295593    0.50066658 F F T
    0.99258849    0.44418239    0.50004176 F F T
    0.32816030    0.77601561    0.49965721 F F T
    0.66365979    0.77478515    0.49920603 F F T
    0.99797351    0.77516176    0.49937535 F F T
    0.10763364    0.22299759    0.58398813 F F T
    0.44107649    0.22296131    0.58263595 F F T
    0.77365573    0.22451141    0.58390708 F F T
    0.10781322    0.55273787    0.58360244 F F T
    0.44010822    0.55756048    0.58348136 F F T
    0.77445249    0.55329399    0.58388168 F F T
    0.10530658    0.89117066    0.58340747 F F T
    0.43995303    0.89055332    0.58261380 F F T
    0.76976108    0.89093507    0.58315080 F F T
    0.21972607    0.99767041    0.66592932 F F T
    0.54995939    0.99967109    0.66700423 F F T
    0.88478322    0.00090399    0.66626070 F F T
    0.21783521    0.33057726    0.66689984 F F T
    0.55341263    0.33129292    0.66629556 F F T
    0.88326475    0.33165818    0.66668929 F F T
    0.21902709    0.66431702    0.66664862 F F T
    0.54913893    0.66695442    0.66687525 F F T
    0.87963198    0.66917120    0.66660787 F F T
    0.32870034    0.11373397    0.74953084 F F T
    0.66293314    0.10815687    0.75035147 F F T
    0.99682396    0.11125274    0.75048980 F F T
    0.32675478    0.44288283    0.74946229 F F T
    0.65776230    0.44647223    0.75010321 F F T
    0.99287864    0.44505313    0.74972031 F F T
    0.32591890    0.77702201    0.74965781 F F T
    0.65890958    0.77967652    0.75078072 F F T
    0.99373049    0.77518241    0.74944685 F F T
    0.10818593    0.22053459    0.83298960 F F T
    0.43894936    0.21988488    0.83375432 F F T
    0.77264647    0.22209552    0.83314705 F F T
    0.10261215    0.55634235    0.83254898 F F T
    0.43884671    0.55717181    0.83398025 F F T
    0.77439300    0.55571716    0.83304317 F F T
    0.10408471    0.88979449    0.83376260 F F T
    0.43666376    0.88940353    0.83308195 F F T
    0.77144396    0.88922869    0.83312726 F F T
    0.22069438    0.99709229    0.91679720 F F T
    0.54763098    0.00106060    0.91632299 F F T
    0.87967994    0.00291342    0.91733232 F F T
    0.21675504    0.33479994    0.91641041 F F T
    0.55276161    0.33058793    0.91666231 F F T
    0.88176018    0.33230742    0.91719589 F F T
    0.21757668    0.66522255    0.91607234 F F T
    0.54737166    0.66801294    0.91686321 F F T
    0.88224348    0.66547694    0.91593859 F F T
