Generated generic
1.0
    7.66857304    0.00000000    0.00000000
    3.83428652    6.64117907    0.00000000
    0.00000000    0.00000000   25.04545468
 Cu
 108
Selective dynamics
Direct
    0.10916021    0.11203091    0.00020659 F F F
    0.44560282    0.10918242    0.00058895 F F F
    0.77758720    0.11360921    0.00012471 F F F
    0.10900548    0.44699720    0.00062737 F F F
    0.44499491    0.44424792    0.00023161 F F F
    0.77907467    0.44613819    0.99968417 F F F
    0.11217905    0.77838304    0.99987252 F F F
    0.44296083    0.77982746    0.99992690 F F F
    0.77706682    0.78045141    0.99965219 F F F
    0.88634952    0.22416294    0.08328694 F F F
    0.22188398    0.22267182    0.08316713 F F F
    0.55339189    0.22231387    0.08351235 F F F
    0.89220316    0.55323387    0.08382191 F F F
    0.22152745    0.55782969    0.08346198 F F F
    0.55320723    0.55781174    0.08333373 F F F
    0.88949897    0.88883067    0.08321442 F F F
    0.22107324    0.88979104    0.08254038 F F F
    0.55668074    0.88925977    0.08349182 F F F
    0.00155929    0.99726105    0.16709310 F F F
    0.33370873    0.00093052    0.16663570 F F F
    0.66844776    0.99957139    0.16687147 F F F
    0.99762375    0.33570102    0.16645349 F F F
    0.33296493    0.33069183    0.16594383 F F F
    0.66756007    0.33263066    0.16732749 F F F
    0.99686003    0.66802478    0.16705152 F F F
    0.32954261    0.66948437    0.16739767 F F F
    0.66811589    0.66571681    0.16681859 F F F
    0.11078697    0.11222177    0.25012861 F F F
    0.44531581    0.11312461    0.24924891 F F F
    0.77778090    0.11255759    0.24939002 F F F
    0.11354167    0.44283982    0.24931360 F F F
    0.44477507    0.44297254    0.25029669 F F F
    0.77524596    0.44528122    0.25031500 F F F
    0.11497061    0.77519988    0.25073003 F F F
    0.44675493    0.77800120    0.24989877 F F F
    0.77568976    0.77715267    0.25068523 F F F
    0.88815616    0.22180359    0.33404007 F F F
    0.22379909    0.21965833    0.33397013 F F F
    0.55533950    0.22075914    0.33389651 F F F
    0.88927393    0.55265567    0.33285424 F F F
    0.22186396    0.55553039    0.33365815 F F F
    0.55420115    0.55762640    0.33397415 F F F
    0.88979189    0.88908421    0.33332404 F F F
    0.22376616    0.88684411    0.33362980 F F F
    0.55418167    0.88823402    0.33298138 F F F
    0.00001322    0.00220901    0.41654530 F F F
    0.33447446    0.00057104    0.41610148 F F F
    0.66866617    0.99744138    0.41606839 F F F
    0.99842216    0.33463404    0.41732940 F F F
    0.33435103    0.33212570    0.41737281 F F F
    0.66658889    0.33247772    0.41667142 F F F
    0.99722308    0.66808414    0.41609086 F F F
    0.33318395    0.66840697    0.41715812 F F F
    0.66638721    0.66392473    0.41587809 F F F
    0.42667135    0.10962479    0.50042586 F F T
    0.76142188    0.10946507    0.50000219 F F T
    0.09386677    0.11285363    0.50067593 F F T
    0.42841668    0.44564220    0.50018150 F F T
    0.76258516    0.44407200    0.49958800 F F T
    0.09454420    0.44567480    0.50003154 F F T
    0.42524888    0.77901652    0.50066622 F F T
    0.76140620    0.77600163    0.50000286 F F T
    0.09581031    0.77805598    0.50034472 F F T
    0.20580211    0.21923439    0.58334932 F F T
    0.53637695    0.22462299    0.58394047 F F T
    0.87357107    0.22366668    0.58395814 F F T
    0.20399030    0.55504562    0.58322465 F F T
    0.54169033    0.55508127    0.58368131 F F T
    0.86919417    0.55810861    0.58294601 F F T
    0.20747054    0.88590678    0.58352117 F F T
    0.53770502    0.88793961    0.58339087 F F T
    0.87055660    0.88873035    0.58314889 F F T
    0.31867243    0.99993329    0.66653321 F F T
    0.65122573    0.99957136    0.66590069 F F T
    0.98173079    0.99889639    0.66677797 F F T
    0.31568504    0.33130271    0.66667794 F F T
    0.65186677    0.33414199    0.66739067 F F T
    0.98581511    0.33174117    0.66730149 F F T
    0.31532936    0.66655541    0.66744831 F F T
    0.64792326    0.66793539    0.66600446 F F T
    0.98388992    0.66564928    0.66686836 F F T
    0.43042486    0.11087687    0.75074548 F F T
    0.76269954    0.11015267    0.75071813 F F T
    0.09422144    0.10874572    0.75046328 F F T
    0.42827300    0.44366045    0.75023828 F F T
    0.76210885    0.44458938    0.75055355 F F T
    0.09260836    0.44616950    0.75046252 F F T
    0.42834004    0.77748833    0.74999849 F F T
    0.76403613    0.77607571    0.74943366 F F T
    0.09635187    0.77717282    0.74954293 F F T
    0.20839178    0.22048024    0.83389210 F F T
    0.53958602    0.21929726    0.83330550 F F T
    0.87034122    0.22157582    0.83325968 F F T
    0.20678875    0.55368264    0.83405368 F F T
    0.53835651    0.55318809    0.83321143 F F T
    0.87539071    0.55289442    0.83354194 F F T
    0.20816464    0.88781096    0.83390239 F F T
    0.53942714    0.89099262    0.83309939 F F T
    0.87204632    0.89123098    0.83387060 F F T
    0.31418102    0.00158117    0.91612861 F F T
    0.64934415    0.99817953    0.91697034 F F T
    0.98502156    0.99836364    0.91614346 F F T
    0.32026231    0.33126869    0.91692057 F F T
    0.64853505    0.33457578    0.91671977 F F T
    0.98603409    0.33182838    0.91674150 F F T
    0.31923824    0.66593342    0.91624497 F F T
    0.64866450    0.66648644    0.91586827 F F T
    0.98519795    0.66426922    0.91720767 F F T
