Generated generic
1.0
    7.66857304    0.00000000    0.00000000
    3.83428652    6.64117907    0.00000000
    0.00000000    0.00000000   25.04545468
 Cu
 108
Selective dynamics
Direct
    0.11090994    0.11173655    0.99995359 F F F
    0.44280995    0.11128433    0.99950656 F F F
    0.77587433    0.11263904    0.00008252 F F F
    0.11208869    0.44628371    0.99959813 F F F
    0.44136915    0.44735956    0.00027150 F F F
    0.77752390    0.44266111    0.00019974 F F F
    0.11070610    0.78017981    0.00075824 F F F
    0.44203976    0.77897690    0.99991574 F F F
    0.77589041    0.77651912    0.99981032 F F F
    0.88662262    0.22488768    0.08365701 F F F
    0.22079809    0.22127787    0.08383162 F F F
    0.55504916    0.21956803    0.08303694 F F F
    0.88754482    0.55741075    0.08254997 F F F
    0.22180598    0.55590903    0.08253940 F F F
    0.55584438    0.55286808    0.08344141 F F F
    0.89051148    0.89023970    0.08390250 F F F
    0.22281581    0.88816402    0.08350011 F F F
    0.55530842    0.89183058    0.08395978 F F F
    0.00098119    0.99824252    0.16634556 F F F
    0.33603358    0.99809977    0.16616159 F F F
    0.66480816    0.00095277    0.16669339 F F F
    0.00262387    0.33146414    0.16743404 F F F
    0.33291458    0.33305298    0.16630618 F F F
    0.66535848    0.33410077    0.16655705 F F F
    0.99900030    0.66424911    0.16597429 F F F
    0.33318681    0.66912703    0.16651102 F F F
    0.66745996    0.66511204    0.16698408 F F F
    0.11181164    0.11373368    0.24950996 F F F
    0.44631213    0.11216510    0.25038442 F F F
    0.77707248    0.11183385    0.25004735 F F F
    0.11104767    0.44623914    0.24941268 F F F
    0.44573092    0.44569271    0.24975655 F F F
    0.77801000    0.44309276    0.24994163 F F F
    0.11198117    0.77541641    0.25010698 F F F
    0.44333021    0.77707519    0.25048147 F F F
    0.78040194    0.77678527    0.24944527 F F F
    0.89045760    0.22072375    0.33394917 F F F
    0.22078467    0.22167997    0.33328831 F F F
    0.55350766    0.22250832    0.33286117 F F F
    0.89019924    0.55583544    0.33354946 F F F
    0.21860114    0.55830285    0.33285329 F F F
    0.55483931    0.55472957    0.33324233 F F F
    0.88983242    0.88617350    0.33323234 F F F
    0.22092652    0.88805106    0.33362021 F F F
    0.55777870    0.88635334    0.33267094 F F F
    0.00145308    0.99772510    0.41709953 F F F
    0.33307857    0.00054223    0.41695278 F F F
    0.66676309    0.00152063    0.41679973 F F F
    0.99947375    0.33406838    0.41680575 F F F
    0.33045332    0.33521777    0.41732248 F F F
    0.66596623    0.33351564    0.41693795 F F F
    0.99973772    0.66590026    0.41727598 F F F
    0.33529785    0.66454807    0.41681112 F F F
    0.66680206    0.66701495    0.41714890 F F F
    0.27478765    0.11392817    0.49931179 F F T
    0.61234120    0.11035895    0.49985882 F F T
    0.94424035    0.11334321    0.50033709 F F T
    0.27699719    0.44304917    0.49976304 F F T
    0.61302028    0.44444826    0.50033189 F F T
    0.94451746    0.44229198    0.49966440 F F T
    0.27494342    0.78021756    0.50010106 F F T
    0.61156095    0.77804338    0.49977677 F F T
    0.94690754    0.77724001    0.50037494 F F T
    0.05767220    0.21980567    0.58287607 F F T
    0.38985299    0.22196765    0.58282466 F F T
    0.72543611    0.22012960    0.58287216 F F T
    0.05468562    0.55695904    0.58255111 F F T
    0.38812334    0.55420370    0.58378324 F F T
    0.72355696    0.55750331    0.58328151 F F T
    0.05491256    0.88783384    0.58352661 F F T
    0.38820998    0.89035049    0.58318243 F F T
    0.71883250    0.89178515    0.58379392 F F T
    0.16674390    0.00106980    0.66733014 F F T
    0.49931427    0.99724719    0.66679959 F F T
    0.83589805    0.99793177    0.66706874 F F T
    0.16455969    0.33245710    0.66618477 F F T
    0.50147711    0.33432691    0.66713201 F F T
    0.83406623    0.33384366    0.66676889 F F T
    0.16619129    0.66780665    0.66740829 F F T
    0.50002570    0.66714821    0.66593186 F F T
    0.83166894    0.66963355    0.66625704 F F T
    0.27649565    0.11289002    0.74927514 F F T
    0.60936676    0.11089370    0.74926164 F F T
    0.94429188    0.11332318    0.75077276 F F T
    0.27913774    0.44292363    0.75005195 F F T
    0.60835197    0.44611179    0.75018870 F F T
    0.94278194    0.44734120    0.74946280 F F T
    0.27764344    0.77548220    0.75023339 F F T
    0.61065560    0.77553237    0.75053350 F F T
    0.94191856    0.77795869    0.75041776 F F T
    0.05555711    0.22369779    0.83263162 F F T
    0.38997016    0.22145188    0.83267916 F F T
    0.72116727    0.22083973    0.83317049 F F T
    0.05533981    0.55286040    0.83381609 F F T
    0.38766633    0.55632736    0.83398210 F F T
    0.72462022    0.55467644    0.83375274 F F T
    0.05368093    0.88816069    0.83382274 F F T
    0.38775917    0.88611250    0.83285011 F F T
    0.72319522    0.88714229    0.83346546 F F T
    0.16559422    0.00234452    0.91594081 F F T
    0.50082137    0.00172798    0.91746405 F F T
    0.83693104    0.99775887    0.91696680 F F T
    0.16557974    0.33052229    0.91737043 F F T
    0.49887603    0.33085364    0.91623640 F F T
    0.83437284    0.33178732    0.91731153 F F T
    0.16623252    0.66938741    0.91618282 F F T
    0.49962025    0.66510835    0.91709597 F F T
    0.83010750    0.66837899    0.91730110 F F T
