Generated generic
1.0
    7.66857304    0.00000000    0.00000000
    3.83428652    6.64117907    0.00000000
    0.00000000    0.00000000   25.04545468
 Cu
 108
Selective dynamics
Direct
    0.11217308    0.10980818    0.99932234 F F F
    0.44676243    0.10863426    0.99989478 F F F
    0.77759242    0.11137197    0.00032385 F F F
    0.10946250    0.44669951    0.00039816 F F F
    0.44082174    0.44677204    0.00018526 F F F
    0.77829440    0.44583394    0.00059064 F F F
    0.11033059    0.77662177    0.99976475 F F F
    0.44768142    0.77583264    0.00017696 F F F
    0.77761794    0.78047642    0.00067560 F F F
    0.88955941    0.22371723    0.08362491 F F F
    0.22265512    0.22446032    0.08327616 F F F
    0.55413335    0.22277050    0.08377544 F F F
    0.89127143    0.55555447    0.08405772 F F F
    0.22348893    0.55745771    0.08345249 F F F
    0.55489143    0.55539969    0.08350265 F F F
    0.88779383    0.88804631    0.08306382 F F F
    0.22398088    0.89034858    0.08285598 F F F
    0.55600620    0.89108501    0.08408859 F F F
    0.00073889    0.00219175    0.16602765 F F F
    0.33531817    0.99749979    0.16593654 F F F
    0.66739525    0.99999880    0.16668274 F F F
    0.00035107    0.33085851    0.16697769 F F F
    0.33199044    0.33168477    0.16603983 F F F
    0.66959229    0.33179666    0.16614215 F F F
    0.99908098    0.66736321    0.16601874 F F F
    0.33440483    0.66941823    0.16631433 F F F
    0.66782280    0.66548170    0.16693615 F F F
    0.11297519    0.10884154    0.24941362 F F F
    0.44519493    0.10967693    0.24947931 F F F
    0.77671327    0.11163990    0.24939208 F F F
    0.11166834    0.44448118    0.24961464 F F F
    0.44277018    0.44568279    0.25040585 F F F
    0.78065552    0.44349520    0.24961217 F F F
    0.11102624    0.77756873    0.25078541 F F F
    0.44277018    0.77858646    0.25007686 F F F
    0.77787963    0.77565297    0.25059810 F F F
    0.89123002    0.21977799    0.33381051 F F F
    0.22019643    0.22281874    0.33286888 F F F
    0.55637083    0.22150824    0.33260286 F F F
    0.89188250    0.55381951    0.33305620 F F F
    0.22522703    0.55438233    0.33392526 F F F
    0.55784837    0.55597124    0.33322631 F F F
    0.88966714    0.89129173    0.33278783 F F F
    0.22222472    0.89042804    0.33349776 F F F
    0.55845136    0.88659515    0.33409658 F F F
    0.99871565    0.99736437    0.41670381 F F F
    0.33161439    0.99990227    0.41667711 F F F
    0.66945005    0.99931636    0.41614954 F F F
    0.00104848    0.33260918    0.41711577 F F F
    0.33134518    0.33318478    0.41625407 F F F
    0.66554287    0.33444180    0.41613594 F F F
    0.00280104    0.66568249    0.41664002 F F F
    0.33270598    0.66758625    0.41673292 F F F
    0.66810280    0.66612925    0.41692232 F F F
    0.11018910    0.44493683    0.50077397 F F T
    0.44512184    0.44658643    0.49946363 F F T
    0.77954355    0.44425318    0.49967217 F F T
    0.10960604    0.78016661    0.49949546 F F T
    0.44150593    0.77892393    0.50063466 F F T
    0.77583365    0.78045099    0.50020582 F F T
    0.11068529    0.11283546    0.49978410 F F T
    0.44485084    0.11000120    0.49953409 F F T
    0.78036435    0.10915305    0.49999048 F F T
    0.89239170    0.55289072    0.58257844 F F T
    0.22101886    0.55298646    0.58380687 F F T
    0.55604925    0.55504461    0.58264944 F F T
    0.89120582    0.88828416    0.58396813 F F T
    0.21956130    0.89119177    0.58277422 F F T
    0.55908722    0.88636358    0.58366629 F F T
    0.88805575    0.21940161    0.58401085 F F T
    0.21850885    0.22505383    0.58258685 F F T
    0.55735133    0.22328436    0.58402093 F F T
    0.99754957    0.33323868    0.66718189 F F T
    0.33389321    0.33543022    0.66710358 F F T
    0.66784605    0.33351002    0.66734084 F F T
    0.00119472    0.66831565    0.66602043 F F T
    0.33428084    0.66460206    0.66732745 F F T
    0.66391698    0.66749927    0.66726775 F F T
    0.99701425    0.00173162    0.66627744 F F T
    0.33399771    0.00183399    0.66680602 F F T
    0.66681812    0.99857687    0.66735753 F F T
    0.11437258    0.44288250    0.75058635 F F T
    0.44551637    0.44654292    0.74998610 F F T
    0.77395022    0.44738865    0.74932961 F F T
    0.10999640    0.77996591    0.75066480 F F T
    0.44055275    0.78046217    0.75013026 F F T
    0.78103198    0.77615550    0.75044642 F F T
    0.10988240    0.11140266    0.75000599 F F T
    0.44351836    0.11041015    0.74941019 F F T
    0.77783355    0.10980289    0.75047951 F F T
    0.88787912    0.55684203    0.83373193 F F T
    0.22377693    0.55724265    0.83380353 F F T
    0.55366435    0.55584615    0.83287230 F F T
    0.89125394    0.88745731    0.83321130 F F T
    0.22091304    0.88970591    0.83376162 F F T
    0.55235214    0.89015513    0.83293027 F F T
    0.89015846    0.22219736    0.83373890 F F T
    0.22215777    0.21992490    0.83328618 F F T
    0.55365603    0.22505192    0.83343050 F F T
    0.99880824    0.33250350    0.91614794 F F T
    0.33165472    0.33231434    0.91717851 F F T
    0.66669012    0.33204517    0.91741199 F F T
    0.00287662    0.66402307    0.91684095 F F T
    0.33381904    0.66774537    0.91658199 F F T
    0.66939637    0.66411445    0.91632858 F F T
    0.00157298    0.99893496    0.91602238 F F T
    0.33404787    0.00130302    0.91663091 F F T
    0.66807374    0.99869298    0.91591058 F F T
