Generated generic
1.0
    7.66857304    0.00000000    0.00000000
    3.83428652    6.64117907    0.00000000
    0.00000000    0.00000000   25.04545468
 Cu
 108
Selective dynamics
Direct
    0.11021511    0.10964574    0.99999150 F F F
    0.44452391    0.11262959    0.00035631 F F F
    0.77665174    0.11169860    0.00075156 F F F
    0.11304145    0.44274014    0.99942616 F F F
    0.44443236    0.44663015    0.99982356 F F F
    0.77566117    0.44465876    0.00004475 F F F
    0.11400785    0.77542505    0.00075082 F F F
    0.44679678    0.77527815    0.00053904 F F F
    0.77700816    0.77908136    0.00001059 F F F
    0.88578150    0.22462968    0.08278881 F F F
    0.22140602    0.22233557    0.08313309 F F F
    0.55459950    0.22481933    0.08276792 F F F
    0.89032204    0.55365759    0.08366035 F F F
    0.22351536    0.55440128    0.08302519 F F F
    0.55439056    0.55610804    0.08283590 F F F
    0.89154057    0.88860142    0.08261098 F F F
    0.22219618    0.89159240    0.08402940 F F F
    0.55512100    0.88720646    0.08358838 F F F
    0.00378739    0.99726249    0.16743941 F F F
    0.32946379    0.00284503    0.16642676 F F F
    0.66568099    0.00097228    0.16667693 F F F
    0.00125744    0.33128337    0.16641152 F F F
    0.33279323    0.33529133    0.16610163 F F F
    0.66663715    0.33230370    0.16641501 F F F
    0.99726184    0.66730441    0.16642862 F F F
    0.33213370    0.66456761    0.16636890 F F F
    0.66562047    0.66840424    0.16701881 F F F
    0.11025065    0.10810207    0.25062525 F F F
    0.44192697    0.11270216    0.25010982 F F F
    0.78005713    0.10929577    0.25004349 F F F
    0.11132866    0.44585240    0.25052650 F F F
    0.44515920    0.44703322    0.24940959 F F F
    0.77717747    0.44314172    0.24993876 F F F
    0.11152423    0.78067321    0.24973330 F F F
    0.44493716    0.78014102    0.24998669 F F F
    0.77509068    0.77878958    0.25014772 F F F
    0.88689949    0.22457324    0.33338369 F F F
    0.21850536    0.22488728    0.33393126 F F F
    0.55363249    0.22167474    0.33292886 F F F
    0.88830543    0.55489138    0.33274384 F F F
    0.22358009    0.55661914    0.33295079 F F F
    0.55563563    0.55384314    0.33295502 F F F
    0.88917711    0.88701786    0.33295980 F F F
    0.22248625    0.88735915    0.33328442 F F F
    0.55845549    0.88730768    0.33403505 F F F
    0.99916125    0.99871830    0.41660055 F F F
    0.33391616    0.00207376    0.41705989 F F F
    0.66567484    0.99825941    0.41620665 F F F
    0.00087978    0.33034071    0.41646853 F F F
    0.33417037    0.33134440    0.41657255 F F F
    0.66742338    0.33435921    0.41679930 F F F
    0.00339893    0.66392453    0.41686787 F F F
    0.33188798    0.66943960    0.41658422 F F F
    0.66838567    0.66611189    0.41634612 F F F
    0.11280789    0.15868393    0.50001892 F F T
    0.44510627    0.16398442    0.49949201 F F T
    0.77558585    0.16105977    0.50024268 F F T
    0.11283506    0.49453597    0.49988922 F F T
    0.44392874    0.49180646    0.50056844 F F T
    0.77835320    0.49617241    0.49981564 F F T
    0.11269512    0.82674976    0.50049352 F F T
    0.44213340    0.82872419    0.49974732 F F T
    0.77776755    0.82545950    0.50006745 F F T
    0.88915094    0.26966131    0.58329902 F F T
    0.22004883    0.27239182    0.58324946 F F T
    0.55785969    0.26965377    0.58358369 F F T
    0.89066950    0.60453193    0.58334864 F F T
    0.22438035    0.60292201    0.58381272 F F T
    0.55754079    0.60506516    0.58280533 F F T
    0.88794287    0.94136515    0.58359699 F F T
    0.22169139    0.94075426    0.58310765 F F T
    0.55867412    0.93780510    0.58274483 F F T
    0.00083321    0.05095771    0.66667590 F F T
    0.33216709    0.04760802    0.66732888 F F T
    0.66650313    0.04989209    0.66638237 F F T
    0.99866992    0.38451670    0.66587538 F F T
    0.33417695    0.38280037    0.66589230 F F T
    0.66689403    0.38479613    0.66625248 F F T
    0.99959179    0.71416061    0.66678026 F F T
    0.33272044    0.71833149    0.66623814 F F T
    0.66537688    0.71415708    0.66735178 F F T
    0.11078408    0.16000144    0.75069759 F F T
    0.44669512    0.16166882    0.74985069 F F T
    0.77539211    0.16123912    0.74972629 F F T
    0.11168082    0.49157428    0.75000712 F F T
    0.44479646    0.49280057    0.74996185 F F T
    0.77805749    0.49237039    0.75077728 F F T
    0.10968821    0.82903499    0.75036958 F F T
    0.44593415    0.82506989    0.74936039 F F T
    0.77605015    0.82853980    0.75065247 F F T
    0.89243167    0.27029296    0.83348752 F F T
    0.22117654    0.27494425    0.83304448 F F T
    0.55676051    0.27288388    0.83332827 F F T
    0.88761376    0.60460381    0.83372991 F F T
    0.22115658    0.60385502    0.83337775 F F T
    0.55361153    0.60457123    0.83289386 F F T
    0.89085251    0.93751431    0.83340621 F F T
    0.22146393    0.94153621    0.83386712 F F T
    0.55244353    0.94099173    0.83295509 F F T
    0.00312916    0.04871708    0.91692664 F F T
    0.33180157    0.04857242    0.91725535 F F T
    0.66371939    0.05129778    0.91607858 F F T
    0.99961211    0.38120950    0.91642516 F F T
    0.33507865    0.38316961    0.91698464 F F T
    0.66871097    0.38139217    0.91739387 F F T
    0.00290338    0.71553731    0.91661223 F F T
    0.33171251    0.71937621    0.91738894 F F T
    0.66822276    0.71623718    0.91608556 F F T
