Generated generic
1.0
    7.66857304    0.00000000    0.00000000
    3.83428652    6.64117907    0.00000000
    0.00000000    0.00000000   25.04545468
 Cu
 108
Selective dynamics
Direct
    0.10855700    0.11268867    0.99966000 F F F
    0.44547647    0.10924333    0.00055151 F F F
    0.77788757    0.11092217    0.00030782 F F F
    0.11062527    0.44152710    0.00026989 F F F
    0.44558767    0.44177726    0.99940382 F F F
    0.77916505    0.44388714    0.00064929 F F F
    0.11250833    0.77871948    0.99994604 F F F
    0.44636654    0.77542609    0.99944771 F F F
    0.77645527    0.77684424    0.99983777 F F F
    0.88934435    0.22016646    0.08412342 F F F
    0.22355928    0.21946861    0.08359668 F F F
    0.55366062    0.22225607    0.08386712 F F F
    0.88962704    0.55846247    0.08339200 F F F
    0.21905325    0.55742304    0.08293462 F F F
    0.55375680    0.55492602    0.08313081 F F F
    0.88713686    0.88835576    0.08320915 F F F
    0.22200546    0.89093634    0.08371726 F F F
    0.55901751    0.88667754    0.08411111 F F F
    0.00012299    0.99926307    0.16628883 F F F
    0.33365873    0.00074911    0.16743016 F F F
    0.66445551    0.99921817    0.16695002 F F F
    0.00289419    0.33267955    0.16628359 F F F
    0.33404309    0.33070040    0.16706025 F F F
    0.66834793    0.33496727    0.16617883 F F F
    0.99873385    0.66752465    0.16740190 F F F
    0.33177274    0.66812567    0.16731446 F F F
    0.66517986    0.66523637    0.16733454 F F F
    0.10783820    0.11313786    0.25030997 F F F
    0.44392904    0.10840989    0.25033317 F F F
    0.77714863    0.11147215    0.25000056 F F F
    0.11147486    0.44252737    0.24950082 F F F
    0.44670384    0.44347064    0.25056075 F F F
    0.77561768    0.44523060    0.24941167 F F F
    0.10980275    0.77745400    0.25061046 F F F
    0.44086031    0.78037620    0.25049252 F F F
    0.77863102    0.77485497    0.25036721 F F F
    0.88889215    0.22394332    0.33280050 F F F
    0.22175761    0.22200047    0.33375933 F F F
    0.55720422    0.21935567    0.33300078 F F F
    0.89019484    0.55421373    0.33386069 F F F
    0.21965041    0.55701309    0.33338937 F F F
    0.55485643    0.55317938    0.33321020 F F F
    0.89024321    0.88831042    0.33306977 F F F
    0.22483250    0.88738752    0.33330704 F F F
    0.55588809    0.88811154    0.33316749 F F F
    0.99777417    0.99945325    0.41626265 F F F
    0.33257057    0.00103484    0.41738976 F F F
    0.66797177    0.99963043    0.41605820 F F F
    0.99854032    0.33391066    0.41593825 F F F
    0.33502387    0.33466216    0.41676079 F F F
    0.66878962    0.33312072    0.41736199 F F F
    0.00055485    0.66840106    0.41607374 F F F
    0.33327398    0.66813319    0.41627813 F F F
    0.66473149    0.66734887    0.41596815 F F F
    0.31356192    0.44261968    0.50003192 F F T
    0.64233367    0.44633805    0.50061674 F F T
    0.97810332    0.44395570    0.49953868 F F T
    0.31424857    0.77539705    0.50061521 F F T
    0.64109944    0.78022808    0.50063119 F F T
    0.97712989    0.77914576    0.50044612 F F T
    0.31362139    0.11007995    0.50034039 F F T
    0.64372160    0.11341574    0.50068916 F F T
    0.97886274    0.11076651    0.49982352 F F T
    0.08879143    0.55642580    0.58276875 F F T
    0.42149707    0.55616513    0.58337721 F F T
    0.75302050    0.55805531    0.58269547 F F T
    0.08677133    0.88856392    0.58287620 F F T
    0.42221198    0.88860689    0.58335340 F F T
    0.75336935    0.88859995    0.58291333 F F T
    0.09102687    0.21939205    0.58409480 F F T
    0.42347495    0.22248173    0.58284480 F F T
    0.75629089    0.22113130    0.58274389 F F T
    0.20149516    0.33051814    0.66633523 F F T
    0.53123355    0.33564404    0.66618653 F F T
    0.86429245    0.33442838    0.66617999 F F T
    0.19947591    0.66662613    0.66712432 F F T
    0.53035568    0.66873761    0.66662569 F F T
    0.86373399    0.66931974    0.66636572 F F T
    0.20121772    0.00247365    0.66727783 F F T
    0.53251871    0.00102543    0.66621688 F F T
    0.86791175    0.00129945    0.66681366 F F T
    0.31222215    0.44442745    0.74959654 F F T
    0.64369509    0.44364479    0.75061644 F F T
    0.97815880    0.44482633    0.75031387 F F T
    0.31281713    0.77492918    0.75003137 F F T
    0.64624487    0.77704467    0.74960754 F F T
    0.98138058    0.77510345    0.74943773 F F T
    0.30881285    0.11108729    0.74985309 F F T
    0.64442602    0.10945153    0.75058120 F F T
    0.97874254    0.10972155    0.74938166 F F T
    0.08911695    0.55767315    0.83357823 F F T
    0.41985783    0.55772976    0.83278317 F F T
    0.75449806    0.55766186    0.83356875 F F T
    0.08715565    0.88817897    0.83384794 F F T
    0.42491729    0.88864256    0.83308125 F F T
    0.75594821    0.89006575    0.83363551 F F T
    0.08872549    0.22235218    0.83372245 F F T
    0.42137568    0.22483201    0.83286062 F F T
    0.75619859    0.22365899    0.83364141 F F T
    0.20043555    0.33428121    0.91632961 F F T
    0.53382350    0.33536044    0.91634027 F F T
    0.86639153    0.33382313    0.91623994 F F T
    0.19789097    0.66825804    0.91671264 F F T
    0.53470624    0.66810565    0.91620815 F F T
    0.86649428    0.66536943    0.91706415 F F T
    0.19819843    0.99952691    0.91594415 F F T
    0.53167677    0.99911765    0.91646063 F F T
    0.86814539    0.99823027    0.91616828 F F T
