Generated generic
1.0
    7.66857304    0.00000000    0.00000000
    3.83428652    6.64117907    0.00000000
    0.00000000    0.00000000   25.04545468
 Cu
 108
Selective dynamics
Direct
    0.10871115    0.11381456    0.99962715 F F F
    0.44615357    0.10834445    0.99978050 F F F
    0.77823028    0.10823175    0.99956480 F F F
    0.11080557    0.44450021    0.99952137 F F F
    0.44704077    0.44196271    0.00003576 F F F
    0.77763054    0.44650429    0.99971851 F F F
    0.10909766    0.77764358    0.00074799 F F F
    0.44613604    0.77558292    0.99954135 F F F
    0.77837949    0.77561323    0.00025871 F F F
    0.88934073    0.22358952    0.08390604 F F F
    0.22178398    0.22133366    0.08256248 F F F
    0.55539858    0.21943885    0.08319870 F F F
    0.89133625    0.55562493    0.08412103 F F F
    0.22219329    0.55832443    0.08308424 F F F
    0.55662823    0.55552219    0.08340217 F F F
    0.88904395    0.88876289    0.08262998 F F F
    0.22243959    0.88789354    0.08334102 F F F
    0.55903397    0.88694718    0.08336810 F F F
    0.00087198    0.99723630    0.16619308 F F F
    0.33307782    0.00023611    0.16587221 F F F
    0.66930144    0.99784382    0.16606168 F F F
    0.99807908    0.33520795    0.16635972 F F F
    0.33545415    0.33358777    0.16600072 F F F
    0.66405756    0.33340453    0.16611740 F F F
    0.99729539    0.66841820    0.16720821 F F F
    0.33335805    0.66604497    0.16659525 F F F
    0.66344311    0.66820093    0.16691930 F F F
    0.10821469    0.11198322    0.24977228 F F F
    0.44343286    0.11071045    0.25036299 F F F
    0.77559895    0.11348514    0.24937537 F F F
    0.10984413    0.44609995    0.24971263 F F F
    0.44338907    0.44283836    0.25026713 F F F
    0.77772981    0.44466649    0.24921117 F F F
    0.10936009    0.77669206    0.25010801 F F F
    0.44483010    0.77585647    0.24929438 F F F
    0.77701443    0.77622724    0.24947583 F F F
    0.88964218    0.22163320    0.33289606 F F F
    0.22250660    0.22510157    0.33308709 F F F
    0.55467154    0.22178989    0.33269204 F F F
    0.88661024    0.55706858    0.33257162 F F F
    0.22244141    0.55375501    0.33289013 F F F
    0.55664838    0.55744431    0.33309650 F F F
    0.88832577    0.88904420    0.33332980 F F F
    0.22094079    0.89036480    0.33289911 F F F
    0.55366112    0.89106217    0.33324613 F F F
    0.00212149    0.99809000    0.41701822 F F F
    0.33350755    0.00022559    0.41638871 F F F
    0.66723159    0.99921911    0.41671693 F F F
    0.99910052    0.33343732    0.41704415 F F F
    0.33505239    0.33033045    0.41606432 F F F
    0.66499657    0.33409166    0.41701932 F F F
    0.00045813    0.66875014    0.41660584 F F F
    0.33399080    0.66756188    0.41725874 F F F
    0.66764981    0.66490425    0.41613323 F F F
    0.17634453    0.11265556    0.49932342 F F T
    0.51356558    0.10839262    0.49936057 F F T
    0.84748631    0.10935104    0.50042355 F F T
    0.17923299    0.44583838    0.50066755 F F T
    0.51406829    0.44198721    0.49982632 F F T
    0.84260473    0.44672988    0.50057103 F F T
    0.17722266    0.77864504    0.49997311 F F T
    0.50849814    0.77970314    0.50060095 F F T
    0.84237516    0.77842275    0.49935015 F F T
    0.95318852    0.22399497    0.58412308 F F T
    0.29007858    0.21957105    0.58254244 F F T
    0.62211743    0.21940230    0.58271100 F F T
    0.95241268    0.55712279    0.58397527 F F T
    0.28547780    0.55831754    0.58332314 F F T
    0.62505733    0.55305301    0.58340576 F F T
    0.95451393    0.89012219    0.58301125 F F T
    0.28627884    0.88910674    0.58277149 F F T
    0.62222450    0.88757208    0.58401641 F F T
    0.06479248    0.00036286    0.66727147 F F T
    0.40244681    0.00001005    0.66695505 F F T
    0.73166326    0.00078294    0.66686693 F F T
    0.06740512    0.33283912    0.66607612 F F T
    0.40111472    0.33118227    0.66635971 F F T
    0.73301518    0.33089683    0.66631117 F F T
    0.06716991    0.66522817    0.66732789 F F T
    0.39987630    0.66471095    0.66646689 F F T
    0.72988830    0.66921333    0.66696546 F F T
    0.17578243    0.11397377    0.75040098 F F T
    0.51419981    0.11013419    0.75071438 F F T
    0.84117951    0.11320368    0.74993606 F F T
    0.17837153    0.44345899    0.74996704 F F T
    0.51079390    0.44682579    0.75077501 F F T
    0.84618385    0.44538199    0.74931500 F F T
    0.17606437    0.77628360    0.75004714 F F T
    0.50911213    0.77699179    0.74981153 F F T
    0.84333288    0.77985345    0.75074062 F F T
    0.95782919    0.22117222    0.83369118 F F T
    0.28791486    0.22058966    0.83290890 F F T
    0.62216066    0.22520401    0.83328411 F F T
    0.95588652    0.55491185    0.83358748 F F T
    0.28766994    0.55839508    0.83368571 F F T
    0.61915573    0.55793091    0.83385998 F F T
    0.95205411    0.89133358    0.83409880 F F T
    0.28903980    0.89156872    0.83333499 F F T
    0.62336650    0.89096433    0.83379505 F F T
    0.06661647    0.00279403    0.91641829 F F T
    0.40181902    0.99752734    0.91727201 F F T
    0.73214512    0.00218827    0.91699353 F F T
    0.06438965    0.33588203    0.91615633 F F T
    0.39997763    0.33283690    0.91656007 F F T
    0.73597194    0.33152125    0.91652073 F F T
    0.06535395    0.66824086    0.91705011 F F T
    0.40148239    0.66888067    0.91637670 F F T
    0.73159030    0.66878412    0.91645592 F F T
