Generated generic
1.0
    7.66857304    0.00000000    0.00000000
    3.83428652    6.64117907    0.00000000
    0.00000000    0.00000000   25.04545468
 Cu
 108
Selective dynamics
Direct
    0.10920111    0.11084347    0.00075231 F F F
    0.44489702    0.11010556    0.00007110 F F F
    0.77583269    0.11119299    0.00046485 F F F
    0.11054242    0.44488219    0.99933468 F F F
    0.44647398    0.44375764    0.99944044 F F F
    0.78089632    0.44235441    0.99936578 F F F
    0.10908514    0.77833244    0.00030883 F F F
    0.44483611    0.77809096    0.99980455 F F F
    0.77656175    0.77848844    0.99982462 F F F
    0.88671033    0.22471080    0.08358870 F F F
    0.22206716    0.22354857    0.08307089 F F F
    0.55342063    0.22243892    0.08409697 F F F
    0.88859424    0.55438900    0.08277295 F F F
    0.22080046    0.55378103    0.08291000 F F F
    0.55779710    0.55618170    0.08331084 F F F
    0.89006620    0.88640737    0.08262458 F F F
    0.22074542    0.88849401    0.08384717 F F F
    0.55239152    0.89126393    0.08322208 F F F
    0.99985245    0.00065482    0.16588527 F F F
    0.33426399    0.99968660    0.16590156 F F F
    0.66781737    0.00189488    0.16671708 F F F
    0.00009040    0.33465436    0.16694437 F F F
    0.33387759    0.33242800    0.16678802 F F F
    0.66505620    0.33586939    0.16668541 F F F
    0.99868232    0.66515441    0.16606263 F F F
    0.33221326    0.66921116    0.16713934 F F F
    0.66405331    0.66835702    0.16708575 F F F
    0.10929516    0.11408086    0.24967716 F F F
    0.44342796    0.11374250    0.25031382 F F F
    0.78100041    0.10855340    0.24934549 F F F
    0.11011514    0.44636731    0.24972723 F F F
    0.44606355    0.44573939    0.24923359 F F F
    0.77635704    0.44679550    0.24927371 F F F
    0.11099919    0.77683884    0.25046686 F F F
    0.44137729    0.77974535    0.24934199 F F F
    0.77642934    0.77999773    0.24992062 F F F
    0.89027325    0.22340742    0.33307143 F F F
    0.22385587    0.22111839    0.33320804 F F F
    0.55793130    0.22264624    0.33388444 F F F
    0.88876646    0.55356049    0.33355549 F F F
    0.22432982    0.55327237    0.33255325 F F F
    0.55885389    0.55384480    0.33255327 F F F
    0.88983617    0.88914886    0.33298950 F F F
    0.22138141    0.89168845    0.33299533 F F F
    0.55269824    0.89030606    0.33310302 F F F
    0.99848192    0.00113294    0.41607878 F F F
    0.33215489    0.99953517    0.41669183 F F F
    0.66596163    0.00026666    0.41737125 F F F
    0.99982737    0.33550074    0.41719572 F F F
    0.33111928    0.33383451    0.41641023 F F F
    0.66543956    0.33564339    0.41727806 F F F
    0.00150785    0.66736107    0.41617784 F F F
    0.33414254    0.66599269    0.41642361 F F F
    0.66457190    0.66607599    0.41653339 F F F
    0.17964358    0.17917139    0.50049908 F F T
    0.51166671    0.18041682    0.50061867 F F T
    0.84730635    0.17675037    0.49952912 F F T
    0.17566479    0.51384823    0.49964352 F F T
    0.51192042    0.51139396    0.49933923 F F T
    0.84504605    0.51026361    0.49999925 F F T
    0.17394997    0.84715777    0.49933811 F F T
    0.50869267    0.84736676    0.50075726 F F T
    0.84274815    0.84370430    0.50067965 F F T
    0.95602916    0.28700709    0.58348507 F F T
    0.28639945    0.28948973    0.58320821 F F T
    0.62357933    0.29047058    0.58380876 F F T
    0.95693165    0.62001078    0.58308313 F F T
    0.28940314    0.62297829    0.58394575 F F T
    0.62332556    0.62497060    0.58278198 F F T
    0.95439115    0.95563062    0.58347528 F F T
    0.28834991    0.95499561    0.58281390 F F T
    0.62532371    0.95427173    0.58404193 F F T
    0.06528310    0.06440558    0.66609086 F F T
    0.39862440    0.06444429    0.66730175 F F T
    0.73413825    0.06678518    0.66640696 F F T
    0.06681110    0.40198679    0.66684401 F F T
    0.39989357    0.39950588    0.66670718 F F T
    0.73270839    0.40273891    0.66715663 F F T
    0.06492878    0.73317400    0.66746261 F F T
    0.40062958    0.73397273    0.66672262 F F T
    0.73298084    0.73135824    0.66708610 F F T
    0.17652878    0.18038775    0.75029106 F F T
    0.51170156    0.17885186    0.74932363 F F T
    0.84667103    0.17816169    0.74939529 F F T
    0.17547297    0.51207400    0.74997373 F F T
    0.51011341    0.50878805    0.74930274 F F T
    0.84289082    0.50921383    0.75067627 F F T
    0.17702796    0.84563241    0.75070710 F F T
    0.50988613    0.84420692    0.74952978 F F T
    0.84246800    0.84719615    0.75076978 F F T
    0.95202773    0.29128768    0.83350972 F F T
    0.28683936    0.28984909    0.83298251 F F T
    0.61951295    0.29131951    0.83359060 F F T
    0.95553154    0.62268765    0.83291834 F F T
    0.28847509    0.62084475    0.83351455 F F T
    0.62293588    0.62142114    0.83366256 F F T
    0.95631411    0.95820485    0.83382468 F F T
    0.28991886    0.95412997    0.83266090 F F T
    0.62395246    0.95342181    0.83258076 F F T
    0.06676562    0.06429602    0.91591311 F F T
    0.40229470    0.06422807    0.91624013 F F T
    0.73421943    0.06716668    0.91664949 F F T
    0.06598911    0.40057888    0.91736707 F F T
    0.40143066    0.40105286    0.91738266 F F T
    0.73224376    0.39805413    0.91604144 F F T
    0.06917882    0.73293368    0.91693243 F F T
    0.39760506    0.73405172    0.91707226 F F T
    0.73179601    0.73225109    0.91606989 F F T
