Generated generic
1.0
    7.66857304    0.00000000    0.00000000
    3.83428652    6.64117907    0.00000000
    0.00000000    0.00000000   25.04545468
 Cu
 108
Selective dynamics
Direct
    0.11015618    0.10822791    0.00053685 F F F
    0.44628569    0.10977582    0.99970180 F F F
    0.77692791    0.11106629    0.00051509 F F F
    0.10831610    0.44619822    0.00060169 F F F
    0.44574214    0.44590044    0.99944329 F F F
    0.77607127    0.44437947    0.99947429 F F F
    0.11284244    0.77890199    0.00067254 F F F
    0.44363948    0.78047434    0.00025364 F F F
    0.77453675    0.77948370    0.99925670 F F F
    0.88679659    0.22269652    0.08376430 F F F
    0.22266139    0.22223652    0.08387625 F F F
    0.55630927    0.22462101    0.08330506 F F F
    0.88658179    0.55534146    0.08313441 F F F
    0.21866166    0.55795042    0.08318925 F F F
    0.55636136    0.55393855    0.08364108 F F F
    0.88593559    0.89061018    0.08287504 F F F
    0.22039525    0.88890738    0.08351393 F F F
    0.55415679    0.89098064    0.08349773 F F F
    0.00043737    0.99746068    0.16720499 F F F
    0.33512090    0.00105687    0.16692690 F F F
    0.66332947    0.00249974    0.16724748 F F F
    0.00241576    0.33107686    0.16615627 F F F
    0.33571445    0.33162000    0.16606383 F F F
    0.66442369    0.33474102    0.16740304 F F F
    0.99937052    0.66537451    0.16746376 F F F
    0.33585785    0.66379671    0.16595379 F F F
    0.66558457    0.66488502    0.16615298 F F F
    0.11031293    0.10999278    0.25054402 F F F
    0.44514971    0.11175121    0.25010219 F F F
    0.78129582    0.10880302    0.25069005 F F F
    0.10785730    0.44576195    0.25039847 F F F
    0.44710984    0.44336911    0.24951720 F F F
    0.77799783    0.44552831    0.25053079 F F F
    0.11001196    0.77969602    0.25002886 F F F
    0.44643863    0.77679620    0.24935218 F F F
    0.77503646    0.78020672    0.25066884 F F F
    0.89136995    0.22108980    0.33289621 F F F
    0.22035654    0.22339111    0.33307328 F F F
    0.55524670    0.21991886    0.33318347 F F F
    0.88700445    0.55760957    0.33369969 F F F
    0.22230717    0.55480869    0.33298252 F F F
    0.55286490    0.55679095    0.33290505 F F F
    0.88970785    0.88775776    0.33335359 F F F
    0.21976832    0.89091682    0.33295321 F F F
    0.55497553    0.88754475    0.33264403 F F F
    0.99923428    0.00234410    0.41696313 F F F
    0.33063504    0.00054366    0.41727306 F F F
    0.66428035    0.00203876    0.41661366 F F F
    0.00218777    0.33063727    0.41700014 F F F
    0.33272957    0.33376216    0.41740568 F F F
    0.66592592    0.33485624    0.41672086 F F F
    0.00129987    0.66837038    0.41636673 F F F
    0.33496638    0.66578934    0.41604438 F F F
    0.66428658    0.66720760    0.41672260 F F F
    0.44539379    0.44237194    0.49940000 F F T
    0.77778652    0.44607708    0.50012668 F F T
    0.10971569    0.44672678    0.49966194 F F T
    0.44509390    0.77842961    0.50034849 F F T
    0.77746299    0.77843567    0.50001349 F F T
    0.11113505    0.78020509    0.50062083 F F T
    0.44428332    0.11282123    0.50031629 F F T
    0.77803454    0.11237494    0.50063125 F F T
    0.11169415    0.10985422    0.50069919 F F T
    0.21963476    0.55812842    0.58327601 F F T
    0.55634142    0.55395253    0.58290044 F F T
    0.89011884    0.55556299    0.58290688 F F T
    0.21889177    0.89136134    0.58410408 F F T
    0.55284278    0.89046651    0.58392406 F F T
    0.88643502    0.88906886    0.58357165 F F T
    0.22284437    0.22513787    0.58287934 F F T
    0.55693996    0.22289875    0.58308619 F F T
    0.88865428    0.22305365    0.58258387 F F T
    0.33461737    0.33195900    0.66699877 F F T
    0.66891034    0.33394592    0.66670349 F F T
    0.99654510    0.33598303    0.66722413 F F T
    0.33300385    0.66704330    0.66605215 F F T
    0.66487928    0.66934483    0.66683588 F F T
    0.00287184    0.66470035    0.66690405 F F T
    0.33464435    0.00092805    0.66686634 F F T
    0.66535899    0.00104940    0.66623803 F F T
    0.00071819    0.99816990    0.66634566 F F T
    0.44575053    0.44162394    0.75038062 F F T
    0.77860516    0.44332535    0.74936435 F F T
    0.10880245    0.44519654    0.74929647 F F T
    0.44531096    0.78057475    0.75044513 F F T
    0.77552713    0.77942091    0.75024194 F F T
    0.10875800    0.77742706    0.75025485 F F T
    0.44600513    0.10926339    0.75007541 F F T
    0.78006346    0.11143005    0.74947395 F F T
    0.11222735    0.11003471    0.74941400 F F T
    0.22036132    0.55783085    0.83307852 F F T
    0.55445113    0.55795857    0.83410353 F F T
    0.88981170    0.55524872    0.83337571 F F T
    0.22029725    0.89010895    0.83385507 F F T
    0.55400056    0.89159858    0.83398075 F F T
    0.89004115    0.88831334    0.83331624 F F T
    0.22111167    0.22105928    0.83300123 F F T
    0.55303408    0.22513118    0.83289363 F F T
    0.88684477    0.22117927    0.83363919 F F T
    0.33405031    0.33144295    0.91639865 F F T
    0.67005195    0.33052188    0.91726249 F F T
    0.00060588    0.33219620    0.91642757 F F T
    0.33312320    0.66932949    0.91637884 F F T
    0.66594965    0.66525594    0.91619474 F F T
    0.99793059    0.66939969    0.91630467 F F T
    0.32940781    0.00277438    0.91610174 F F T
    0.66302246    0.00284954    0.91600208 F F T
    0.00221032    0.99846570    0.91693200 F F T
