Generated generic
1.0
    7.66857304    0.00000000    0.00000000
    3.83428652    6.64117907    0.00000000
    0.00000000    0.00000000   25.04545468
 Cu
 108
Selective dynamics
Direct
    0.11445527    0.10893090    0.99946663 F F F
    0.44589882    0.11073949    0.99977342 F F F
    0.77575988    0.11229992    0.00060403 F F F
    0.11096755    0.44244870    0.00068277 F F F
    0.44705222    0.44317872    0.99970592 F F F
    0.77700457    0.44257987    0.99970036 F F F
    0.11212854    0.77756843    0.00032065 F F F
    0.44723743    0.77620580    0.00004400 F F F
    0.77471982    0.77992289    0.00004214 F F F
    0.89128795    0.22019170    0.08332369 F F F
    0.22343795    0.21941154    0.08286080 F F F
    0.55481936    0.22521048    0.08328762 F F F
    0.88748349    0.55673905    0.08274864 F F F
    0.22195270    0.55751783    0.08269211 F F F
    0.55457973    0.55763434    0.08395766 F F F
    0.89158303    0.88761222    0.08349326 F F F
    0.22159337    0.88877392    0.08307293 F F F
    0.55717290    0.88666284    0.08292409 F F F
    0.99827768    0.99992414    0.16596703 F F F
    0.33416665    0.99776754    0.16622602 F F F
    0.66616636    0.99743396    0.16711145 F F F
    0.99945244    0.33369021    0.16648198 F F F
    0.33654197    0.33107287    0.16673961 F F F
    0.66666426    0.33424848    0.16719709 F F F
    0.00375286    0.66421484    0.16744404 F F F
    0.33476142    0.66538205    0.16632771 F F F
    0.66698275    0.66764520    0.16742499 F F F
    0.11462116    0.10827766    0.25035087 F F F
    0.44076573    0.11345508    0.25072263 F F F
    0.78042138    0.11070753    0.24945408 F F F
    0.11410081    0.44233267    0.25071218 F F F
    0.44493394    0.44544936    0.25034525 F F F
    0.77924603    0.44406471    0.25001631 F F F
    0.11277301    0.77612949    0.24957685 F F F
    0.44508886    0.77601952    0.25014336 F F F
    0.77753779    0.77505045    0.25037342 F F F
    0.89161007    0.22039844    0.33331924 F F F
    0.22438567    0.22181613    0.33310808 F F F
    0.55513517    0.22345746    0.33341356 F F F
    0.89087665    0.55484267    0.33386905 F F F
    0.21860628    0.55798348    0.33310800 F F F
    0.55798647    0.55532019    0.33400315 F F F
    0.89086974    0.88736170    0.33261452 F F F
    0.21993439    0.89014446    0.33361248 F F F
    0.55509392    0.88703026    0.33316469 F F F
    0.00080694    0.00250765    0.41662962 F F F
    0.33432035    0.00088688    0.41735374 F F F
    0.66707441    0.99798914    0.41744468 F F F
    0.00004510    0.33566268    0.41668404 F F F
    0.33529519    0.33355098    0.41697740 F F F
    0.66677530    0.33334660    0.41664487 F F F
    0.00173009    0.66748912    0.41617519 F F F
    0.33206522    0.66803826    0.41706326 F F F
    0.66816720    0.66792784    0.41645693 F F F
    0.17600599    0.44582105    0.50026753 F F T
    0.51078566    0.44306388    0.49930828 F F T
    0.84496894    0.44634536    0.49975668 F F T
    0.17935954    0.77953413    0.50076827 F F T
    0.51255825    0.77732609    0.49952465 F F T
    0.84720009    0.77643762    0.50077731 F F T
    0.17685295    0.11280668    0.50017147 F F T
    0.50910308    0.11120508    0.50078656 F F T
    0.84515102    0.11076719    0.50075159 F F T
    0.95693148    0.55513366    0.58368011 F F T
    0.28620928    0.55689885    0.58379654 F F T
    0.61931095    0.55783621    0.58395391 F F T
    0.95477965    0.88865363    0.58312054 F F T
    0.28990308    0.88707912    0.58300485 F F T
    0.62259713    0.88909575    0.58385714 F F T
    0.95266312    0.22454969    0.58383025 F F T
    0.28866755    0.22482396    0.58258355 F F T
    0.61910336    0.22469238    0.58365277 F F T
    0.06679055    0.33472326    0.66695428 F F T
    0.40061482    0.33580750    0.66695081 F F T
    0.73432028    0.33352787    0.66632547 F F T
    0.06553395    0.66762446    0.66606953 F F T
    0.39642144    0.66919439    0.66625116 F F T
    0.73418264    0.66410535    0.66622467 F F T
    0.06650516    0.99741576    0.66678221 F F T
    0.39985626    0.00219899    0.66595784 F F T
    0.73176615    0.99830966    0.66731904 F F T
    0.18083745    0.44164456    0.74981528 F F T
    0.51039998    0.44319583    0.74968179 F F T
    0.84221177    0.44590479    0.75015646 F F T
    0.17635932    0.78001069    0.75068376 F F T
    0.51001547    0.77772242    0.74983082 F F T
    0.84359288    0.77795692    0.74981710 F F T
    0.17903592    0.11325951    0.75030728 F F T
    0.51160705    0.11121848    0.75072156 F F T
    0.84258094    0.11297367    0.75006813 F F T
    0.95571490    0.55281684    0.83358553 F F T
    0.29036544    0.55756299    0.83312456 F F T
    0.61990231    0.55855253    0.83306603 F F T
    0.95325475    0.88895615    0.83314293 F F T
    0.28912499    0.89176797    0.83338027 F F T
    0.62409614    0.88924783    0.83289745 F F T
    0.95267891    0.22491081    0.83299693 F F T
    0.29091030    0.22295620    0.83277929 F F T
    0.62186653    0.22061554    0.83384066 F F T
    0.06646119    0.33201389    0.91685816 F F T
    0.39814718    0.33183216    0.91731100 F F T
    0.73082165    0.33421143    0.91737049 F F T
    0.06359862    0.66793615    0.91647008 F F T
    0.40118128    0.66914387    0.91629516 F F T
    0.73284302    0.66414051    0.91613458 F F T
    0.06835669    0.99872534    0.91692573 F F T
    0.40033704    0.99994669    0.91718557 F F T
    0.73333818    0.00172857    0.91626545 F F T
