Cu
 1.0000000000000000
     7.6685730419681093    0.0000000000000000    0.0000000000000000
     0.0000000000000000    8.8549054201611881    0.0000000000000000
     0.0000000000000000    0.0000000000000000   40.0454546774459672
 Cu 
 144
Direct
  0.1666666666666667  0.0833333333333333  0.0000000000000000
  0.6666666666666666  0.6666666666666666  0.3648316314428540
  0.1666666666666667  0.9166666666666666  0.3648316314428540
  0.4999999999999999  0.9166666666666666  0.3648316314428540
  0.8333333333333331  0.9166666666666666  0.3648316314428540
  0.0000000000000000  0.0000000000000000  0.4169504359346903
  0.3333333333333333  0.0000000000000000  0.4169504359346903
  0.3333333333333333  0.6666666666666666  0.3648316314428540
  0.6666666666666666  0.0000000000000000  0.4169504359346903
  0.4999999999999999  0.2500000000000000  0.4169504359346903
  0.8333333333333331  0.2500000000000000  0.4169504359346903
  0.0000000000000000  0.4999999999999999  0.4169504359346903
  0.3333333333333333  0.4999999999999999  0.4169504359346903
  0.6666666666666666  0.4999999999999999  0.4169504359346903
  0.1666666666666667  0.7500000000000000  0.4169504359346903
  0.1666666666666667  0.2500000000000000  0.4169504359346903
  0.4999999999999999  0.7500000000000000  0.4169504359346903
  0.0000000000000000  0.6666666666666666  0.3648316314428540
  0.4999999999999999  0.4166666666666666  0.3648316314428540
  0.8333333333333331  0.0833333333333333  0.3127128269510177
  0.0000000000000000  0.3333333333333333  0.3127128269510177
  0.3333333333333333  0.3333333333333333  0.3127128269510177
  0.6666666666666666  0.3333333333333333  0.3127128269510177
  0.1666666666666667  0.5833333333333334  0.3127128269510177
  0.4999999999999999  0.5833333333333334  0.3127128269510177
  0.8333333333333331  0.4166666666666666  0.3648316314428540
  0.8333333333333331  0.5833333333333334  0.3127128269510177
  0.3333333333333333  0.8333333333333334  0.3127128269510177
  0.6666666666666666  0.8333333333333334  0.3127128269510177
  0.0000000000000000  0.1666666666666667  0.3648316314428540
  0.3333333333333333  0.1666666666666667  0.3648316314428540
  0.6666666666666666  0.1666666666666667  0.3648316314428540
  0.1666666666666667  0.4166666666666666  0.3648316314428540
  0.0000000000000000  0.8333333333333334  0.3127128269510177
  0.4999999999999999  0.0833333333333333  0.3127128269510177
  0.8333333333333331  0.7500000000000000  0.4169504359346903
  0.4999999999999999  0.0833333333333333  0.4690692404265266
  0.6666666666666666  0.6666666666666666  0.5211880449183629
  0.1666666666666667  0.9166666666666666  0.5211880449183629
  0.4999999999999999  0.9166666666666666  0.5211880449183629
  0.8333333333333331  0.9166666666666666  0.5211880449183629
  0.0000000000000000  0.0000000000000000  0.5733068494101992
  0.3333333333333333  0.0000000000000000  0.5733068494101992
  0.3333333333333333  0.6666666666666666  0.5211880449183629
  0.6666666666666666  0.0000000000000000  0.5733068494101992
  0.4999999999999999  0.2500000000000000  0.5733068494101992
  0.8333333333333331  0.2500000000000000  0.5733068494101992
  0.0000000000000000  0.4999999999999999  0.5733068494101992
  0.3333333333333333  0.4999999999999999  0.5733068494101992
  0.6666666666666666  0.4999999999999999  0.5733068494101992
  0.1666666666666667  0.7500000000000000  0.5733068494101992
  0.1666666666666667  0.2500000000000000  0.5733068494101992
  0.1666666666666667  0.0833333333333333  0.4690692404265266
  0.0000000000000000  0.6666666666666666  0.5211880449183629
  0.4999999999999999  0.4166666666666666  0.5211880449183629
  0.8333333333333331  0.0833333333333333  0.4690692404265266
  0.0000000000000000  0.3333333333333333  0.4690692404265266
  0.3333333333333333  0.3333333333333333  0.4690692404265266
  0.6666666666666666  0.3333333333333333  0.4690692404265266
  0.1666666666666667  0.5833333333333334  0.4690692404265266
  0.4999999999999999  0.5833333333333334  0.4690692404265266
  0.8333333333333331  0.4166666666666666  0.5211880449183629
  0.8333333333333331  0.5833333333333334  0.4690692404265266
  0.3333333333333333  0.8333333333333334  0.4690692404265266
  0.6666666666666666  0.8333333333333334  0.4690692404265266
  0.0000000000000000  0.1666666666666667  0.5211880449183629
  0.3333333333333333  0.1666666666666667  0.5211880449183629
  0.6666666666666666  0.1666666666666667  0.5211880449183629
  0.1666666666666667  0.4166666666666666  0.5211880449183629
  0.0000000000000000  0.8333333333333334  0.4690692404265266
  0.1666666666666667  0.0833333333333333  0.3127128269510177
  0.8333333333333331  0.7500000000000000  0.2605940224591815
  0.4999999999999999  0.7500000000000000  0.2605940224591815
  0.3333333333333333  0.6666666666666666  0.0521188044918363
  0.6666666666666666  0.6666666666666666  0.0521188044918363
  0.1666666666666667  0.9166666666666666  0.0521188044918363
  0.4999999999999999  0.9166666666666666  0.0521188044918363
  0.8333333333333331  0.9166666666666666  0.0521188044918363
  0.0000000000000000  0.0000000000000000  0.1042376089836726
  0.0000000000000000  0.6666666666666666  0.0521188044918363
  0.3333333333333333  0.0000000000000000  0.1042376089836726
  0.1666666666666667  0.2500000000000000  0.1042376089836726
  0.4999999999999999  0.2500000000000000  0.1042376089836726
  0.8333333333333331  0.2500000000000000  0.1042376089836726
  0.0000000000000000  0.4999999999999999  0.1042376089836726
  0.3333333333333333  0.4999999999999999  0.1042376089836726
  0.6666666666666666  0.4999999999999999  0.1042376089836726
  0.6666666666666666  0.0000000000000000  0.1042376089836726
  0.1666666666666667  0.7500000000000000  0.1042376089836726
  0.8333333333333331  0.4166666666666666  0.0521188044918363
  0.1666666666666667  0.4166666666666666  0.0521188044918363
  0.4999999999999999  0.0833333333333333  0.0000000000000000
  0.8333333333333331  0.0833333333333333  0.0000000000000000
  0.0000000000000000  0.3333333333333333  0.0000000000000000
  0.3333333333333333  0.3333333333333333  0.0000000000000000
  0.6666666666666666  0.3333333333333333  0.0000000000000000
  0.1666666666666667  0.5833333333333334  0.0000000000000000
  0.4999999999999999  0.4166666666666666  0.0521188044918363
  0.4999999999999999  0.5833333333333334  0.0000000000000000
  0.0000000000000000  0.8333333333333334  0.0000000000000000
  0.3333333333333333  0.8333333333333334  0.0000000000000000
  0.6666666666666666  0.8333333333333334  0.0000000000000000
  0.0000000000000000  0.1666666666666667  0.0521188044918363
  0.3333333333333333  0.1666666666666667  0.0521188044918363
  0.6666666666666666  0.1666666666666667  0.0521188044918363
  0.8333333333333331  0.5833333333333334  0.0000000000000000
  0.4999999999999999  0.7500000000000000  0.1042376089836726
  0.8333333333333331  0.7500000000000000  0.1042376089836726
  0.1666666666666667  0.0833333333333333  0.1563564134755089
  0.6666666666666666  0.6666666666666666  0.2084752179673451
  0.1666666666666667  0.9166666666666666  0.2084752179673451
  0.4999999999999999  0.9166666666666666  0.2084752179673451
  0.8333333333333331  0.9166666666666666  0.2084752179673451
  0.0000000000000000  0.0000000000000000  0.2605940224591815
  0.3333333333333333  0.0000000000000000  0.2605940224591815
  0.3333333333333333  0.6666666666666666  0.2084752179673451
  0.6666666666666666  0.0000000000000000  0.2605940224591815
  0.4999999999999999  0.2500000000000000  0.2605940224591815
  0.8333333333333331  0.2500000000000000  0.2605940224591815
  0.0000000000000000  0.4999999999999999  0.2605940224591815
  0.3333333333333333  0.4999999999999999  0.2605940224591815
  0.6666666666666666  0.4999999999999999  0.2605940224591815
  0.1666666666666667  0.7500000000000000  0.2605940224591815
  0.1666666666666667  0.2500000000000000  0.2605940224591815
  0.0000000000000000  0.6666666666666666  0.2084752179673451
  0.8333333333333331  0.4166666666666666  0.2084752179673451
  0.4999999999999999  0.4166666666666666  0.2084752179673451
  0.4999999999999999  0.0833333333333333  0.1563564134755089
  0.8333333333333331  0.0833333333333333  0.1563564134755089
  0.0000000000000000  0.3333333333333333  0.1563564134755089
  0.3333333333333333  0.3333333333333333  0.1563564134755089
  0.6666666666666666  0.3333333333333333  0.1563564134755089
  0.1666666666666667  0.5833333333333334  0.1563564134755089
  0.4999999999999999  0.5833333333333334  0.1563564134755089
  0.8333333333333331  0.5833333333333334  0.1563564134755089
  0.0000000000000000  0.8333333333333334  0.1563564134755089
  0.3333333333333333  0.8333333333333334  0.1563564134755089
  0.6666666666666666  0.8333333333333334  0.1563564134755089
  0.0000000000000000  0.1666666666666667  0.2084752179673451
  0.3333333333333333  0.1666666666666667  0.2084752179673451
  0.6666666666666666  0.1666666666666667  0.2084752179673451
  0.1666666666666667  0.4166666666666666  0.2084752179673451
  0.4999999999999999  0.7500000000000000  0.5733068494101992
  0.8333333333333331  0.7500000000000000  0.5733068494101992
