Cu
 1.0000000000000000
    13.7663459599999989    0.0000000000000000    0.0000000000000000
     0.0000000000000000   13.4350387827040088    0.0000000000000000
     0.0000000000000000    0.0000000000000000   15.4757640000000016
 Cu 
 228
Direct
  0.0122525600104852  0.2677081510164516  0.6477545793538853
  0.5244509328022148  0.0177944697606516  0.5304808861132800
  0.6412429998236077  0.0880882750316716  0.6385789418861648
  0.7426279282610736  0.0949137112275132  0.9357597466593572
  0.6899705272262388  0.2703653819018554  0.1184301466473643
  0.6149760440859935  0.1839048946053528  0.2406470530307907
  0.6899269426757890  0.2698964588044312  0.3686084254063322
  0.6046101851707351  0.1841430777659492  0.5006600643431884
  0.7760863348228683  0.2748834187294189  0.6629589983408897
  0.5338434034240994  0.1670162198743124  0.7874245820755602
  0.6568462688845572  0.2544889856033499  0.9228427753227562
  0.6805635284208709  0.4526350455482703  0.1240647634585278
  0.7119153483776025  0.0789331097962467  0.3671545391878553
  0.5931910329529451  0.3674026901735930  0.2483623425635077
  0.6865200836489801  0.3457950115732361  0.5320769300953413
  0.8651440995748445  0.4350243781116720  0.6805413290096697
  0.7683428130263260  0.3477451362006193  0.8071651260642123
  0.7466159146272102  0.4232789710047609  0.9644303828877204
  0.7742121991535362  0.6182765472955473  0.1611162460218442
  0.6928834280146190  0.5260847776971933  0.2782154729162321
  0.8717544230596976  0.6065162537410990  0.4378909500041484
  0.7730644726583641  0.4978377434952109  0.5554554204884490
  0.7680449852649207  0.5877221137252870  0.7135994707595695
  0.6687593793407761  0.5022143590711701  0.8368890220864056
  0.7663815082560951  0.6137436240204466  0.9671572272619302
  0.7814835549868747  0.4292707661385146  0.4053497455763735
  0.7094310290019763  0.0856468976355584  0.1224622577599401
  0.5745659017274907  0.9788858524385361  0.9567990956698486
  0.4804813854903295  0.8719267268832038  0.8359779200561601
  0.4966730459823487  0.3442393778055906  0.5263841578354388
  0.6750791391559652  0.4220657255304728  0.6838820364539031
  0.5724520510306861  0.3372799635819139  0.8064155669471309
  0.5633937286289148  0.4125830584492275  0.9564437012608877
  0.5903435089902390  0.6238440786744887  0.1495950054549811
  0.5015109310822522  0.5339224923255694  0.2826546721699814
  0.6791179741642932  0.5893298500593129  0.4338459154585195
  0.5938665934849134  0.5025046447981470  0.5607604897567579
  0.5863555226241024  0.5838069780229832  0.7173924983606625
  0.4822756161505039  0.4977409815862185  0.8337680130040752
  0.5800430269006548  0.6055858507700189  0.9535100819578277
  0.4974793601656659  0.7044020895224612  0.0266589100221482
  0.6806143770630619  0.7778071623287725  0.1916866269090173
  0.5952031863653673  0.6909149680536888  0.3180390318694443
  0.5897478534674279  0.7638213448675006  0.4624390110885639
  0.4906293216533401  0.6799287697711783  0.6031428884544893
  0.5785829444605939  0.7732816822774403  0.7121132759584599
  0.4804668573068464  0.6876325063717192  0.8322624330533859
  0.5801301960015540  0.7937431044174267  0.9588862301079286
  0.5923556624026612  0.8640666825835215  0.0547137446655300
  0.5904234139993967  0.9427787739368720  0.2169713236774611
  0.5011767828621387  0.8551199276136185  0.3412947496485474
  0.5761640019106421  0.9575759027889249  0.4655470967378412
  0.4920530836346931  0.8624366165781902  0.5788209874485034
  0.5802028369189698  0.9588859101722054  0.7097805962923703
  0.6760670556328224  0.7028911150974276  0.0284675444779335
  0.5949707354296362  0.4348457407412249  0.4043869498139155
  0.8727060190778470  0.7819753676392097  0.1925266500574705
  0.7699772336681854  0.7612683191148580  0.4768744858089074
  0.9338333510833837  0.4337962461898467  0.9616259979151917
  0.9582770197938569  0.6209040052858765  0.1605023829518207
  0.8759821244533069  0.5349273275343356  0.2877141962102809
  0.9622068934260606  0.5162225062037475  0.5482893768604897
  0.9535771524370437  0.5960361946748560  0.7079002367831403
  0.8517127939446322  0.5044547694255302  0.8381749036751918
  0.9442064740903837  0.6280941594463814  0.9733410899778517
  0.8646574054281576  0.7095155842515156  0.0489305083742555
  0.9642916877558989  0.6889350705312308  0.3167854588632911
  0.9625047211874662  0.7657640262711157  0.4686551823871182
  0.8618679941993845  0.6782614876470036  0.5960285385587426
  0.9499451065662452  0.3514220887423265  0.8052847665549823
  0.9407850868800919  0.7774275579165715  0.7170177188021218
  0.9426882789163902  0.7978740936090212  0.9472163700609546
  0.9685484455164746  0.8673938036081028  0.0752400333838124
  0.9631875458111763  0.9461654407516022  0.2282857893154742
  0.8666114461066472  0.8658530562879948  0.3445837633605682
  0.9411410273754300  0.9485993749239469  0.4622710064588734
  0.8506449724586176  0.8633074737591206  0.5917056502024715
  0.9416131933386338  0.9670883427652447  0.7088307239629656
  0.8436932366619094  0.8777175549752041  0.8321848924550671
  0.9479111608785982  0.9747399767994045  0.9709631782960763
  0.9903261925577818  0.1892267995999292  0.2414676910296642
  0.9759868754598696  0.1843142719126280  0.5102492516686091
  0.8502091269541218  0.6858982352336266  0.8353317484035037
  0.8837329103415906  0.3540495467326558  0.5237154689099678
  0.9623085907104429  0.4450057411854160  0.3935248043327619
  0.7822462846197423  0.3595575323214483  0.2489115884682657
  0.6816604062738520  0.6626828202992436  0.5898705227089273
  0.7598075052299499  0.7751648178909054  0.7171986468648657
  0.6727255734316879  0.6852432315419864  0.8326242891788735
  0.7595387338355108  0.8021092879333762  0.9572449541101816
  0.7763260498503409  0.8654734518757943  0.0791235250162771
  0.7725850426034188  0.9518818366059163  0.2239822861087829
  0.6824739845489108  0.8569807335557780  0.3461151901773637
  0.7619794686606874  0.9523879758221836  0.4691785814257701
  0.6704083281661185  0.8576580669187238  0.5890175761274208
  0.7605193862206265  0.9528047963532275  0.7116351089354942
  0.6615969848835616  0.8799133059869528  0.8406949731205514
  0.7573812985882565  0.9871106147028816  0.9618909282927809
  0.8918033162665047  0.1020071034790254  0.1174156571526939
  0.8975128923753999  0.0896215791280113  0.3833476008034239
  0.7289278512364220  0.0171766821878544  0.5234505385323788
  0.8265354519682578  0.0975932717842228  0.6536541265426380
  0.9259881320024591  0.0950179163602742  0.9430679480509008
  0.8808200095532105  0.2732310230527811  0.1156580702574685
  0.8071185347429696  0.1744073410765702  0.2464496744716449
  0.8828394270573743  0.2718986859981947  0.3687635066029696
  0.7928518585624738  0.1904847044168290  0.4906960974592272
  0.9577612692802034  0.2599299821782244  0.6598250658255062
  0.7270319232918653  0.1693385056901277  0.7818675058627153
  0.8487490445140606  0.2622448247702709  0.9327098164588191
  0.8690013322896324  0.4591627527933662  0.1221391719336119
  0.7789411228773158  0.6943760671061052  0.3226268506033046
  0.4095911141840868  0.3642095471768472  0.2470764609747215
  0.4999346231743255  0.4505807157881261  0.1265654477543081
  0.4751785985189639  0.2497550952864958  0.9223387614336842
  0.1286886865365398  0.4532230602259929  0.1273667006036020
  0.0400013904633848  0.3684670711725084  0.2587527827382223
  0.2249524302961800  0.4512878220461467  0.3962645721400250
  0.1252019225005733  0.3523152755945631  0.5244456428774696
  0.2978693831983285  0.4352179019296568  0.6769615380539532
  0.2139037467572113  0.3294571354010750  0.7953143379544946
  0.1937967408164714  0.4185153077928324  0.9436042705226054
  0.2066687113825810  0.6143167522506316  0.1564961187053511
  0.1257830498399010  0.5324859501382221  0.2763351134070021
  0.3108503151405618  0.6092776897592637  0.4346407065912868
  0.2175285285362681  0.5190658176833673  0.5521922536425343
  0.0965741369469404  0.2550844435048408  0.9123489476836167
  0.2051723084838119  0.5973313156105993  0.7164490877477842
  0.1932083493854022  0.6030030521223017  0.9519657317079789
  0.1332941207007121  0.7084586464763694  0.0386557329253665
  0.3116638934156206  0.7710263854755426  0.1967203040832105
  0.2217780222051021  0.6923366237934983  0.3170310040913004
  0.2151676987202493  0.7650271471180203  0.4678280826717182
  0.1120902369069911  0.6759764179500313  0.5946586546551111
  0.2025136509063875  0.7800029133405206  0.7122295868559380
  0.1089158288159132  0.6914657666125678  0.8366370151418695
  0.1965788879535031  0.7957304451636535  0.9540399427130059
  0.2253374271584848  0.8766234010812145  0.0745486297154699
  0.2171144753069970  0.9395186419262080  0.2211262074040417
  0.1085671524123166  0.5067696120175766  0.8311639412438701
  0.1993392428153099  0.2520103920883933  0.6488853797460338
  0.0541009925338240  0.1789998101418202  0.5071217808697522
  0.1447495933772102  0.2763274041405345  0.3720977523306765
  0.0350109594369078  0.4447228986822079  0.4069005575427489
  0.1174801929792559  0.4252439820796814  0.6807610273715727
  0.0180202488533130  0.3517942499307586  0.8025837690468788
  0.0098336174605334  0.4227281724458817  0.9523082026838869
  0.0304273175479603  0.6235016903811313  0.1599466753305361
  0.1081022505408545  0.6060026713010628  0.4362109037072418
  0.0226256830174853  0.5188648506416140  0.5564634482665929
  0.0282698823007060  0.5828914614994407  0.7122231251394114
  0.0096738074422183  0.6052881218192735  0.9606567404362071
  0.1317323409762688  0.7841339025321146  0.1937285293314113
  0.0359117068128658  0.6989908658426612  0.3176577905943773
  0.0267589512184539  0.7728425320750903  0.4726226763344285
  0.0178095901928067  0.7754774332891885  0.7051087752436649
  0.0123905777535755  0.7905871775395240  0.9538590146502620
  0.0372119792346116  0.8732888368328643  0.0706715997995317
  0.0370957537667460  0.9464333968072731  0.2332548493244018
  0.0341102120609497  0.9648777053059587  0.4682610176789979
  0.0335145565381389  0.9722911561795227  0.7059487983921182
  0.0273255503742984  0.9798311418571534  0.9569218682838532
  0.1573455284571389  0.0835851246516456  0.1353663056634878
  0.1606434261078239  0.0964619017713898  0.3720202117323577
  0.0782976821250829  0.0944150152350143  0.6538932100541207
  0.1743071826737673  0.0895173739952503  0.9334464521428473
  0.1352481613792016  0.2714818654671512  0.1303261667727681
  0.0393403581148995  0.1812848798387921  0.2535834095169712
  0.1349648618012793  0.8548817444530221  0.3527772199162510
  0.2137148803719299  0.9531025253039733  0.4696179781495763
  0.1200371532722979  0.8706911517376096  0.5851663930775889
  0.2104097186295034  0.9771441380766751  0.7116803409511803
  0.4113853448442611  0.6916444039830152  0.3155641944397704
  0.4077896194321706  0.7604793373953821  0.4768486389428012
  0.3016685031791835  0.6741230552316407  0.5911951745968730
  0.3918522021511072  0.7814766716467108  0.7177543544861500
  0.2900314282091455  0.6886001254616421  0.8338778621850268
  0.3939369964809455  0.7912868405737765  0.9553904414670578
  0.4101286569729647  0.8575166456671197  0.0530343445402761
  0.4045135140567106  0.9421684295878435  0.2148454189402217
  0.3250588785871250  0.8518374659316490  0.3441443666367617
  0.3985279024616349  0.9493064811819677  0.4580644290000804
  0.3081698652879127  0.8666197083361646  0.5877381562551611
  0.3986877124799499  0.9678177786945711  0.7060586475730698
  0.2951017642447801  0.8834637237245933  0.8385626066667855
  0.3955641530310633  0.9806945558143155  0.9547378080978747
  0.5241458409490676  0.0846867217694039  0.1296347631044258
  0.5312138022136413  0.0834437034000416  0.3754061511922772
  0.3373860422726147  0.0128893852971190  0.5159226387789320
  0.4564953545595769  0.1011734624169380  0.6581579429616528
  0.5488437528704966  0.0813744871923599  0.9391909181349624
  0.5048088287329370  0.2609869199533710  0.1149795900221793
  0.4399986022144107  0.1799302131128999  0.2613310076323212
  0.5053536356135567  0.2721443123825600  0.3865396887675465
  0.4188528311546225  0.1705145350455724  0.5041558529840595
  0.5705779153613540  0.2689362829382767  0.6610527919655534
  0.3285238503478666  0.1624460804803685  0.7830629234201295
  0.4987505762204454  0.7794521147816411  0.1837581007309235
  0.9053726396398076  0.1688472529213974  0.7958312752766196
  0.3169666803869863  0.6994374592687796  0.0428913881085290
  0.2959879834372549  0.4988574651515144  0.8249736168114220
  0.1074702745593355  0.8780525000447928  0.8354803678836147
  0.2120949879135537  0.9817663800369990  0.9555390609471686
  0.3493863218297327  0.0935888173966955  0.1233604363571324
  0.3415411027488081  0.0873141797597335  0.3752122996964803
  0.2644327689117585  0.0903286853860318  0.6513796023252876
  0.3581322882866152  0.0829152345124682  0.9306679140364249
  0.3318725966407429  0.2736255139125190  0.1255638816926905
  0.2385290177612245  0.1792528797499538  0.2490343610822704
  0.3223421082757680  0.2775480928385913  0.3794705708874858
  0.2384055282016173  0.1816049384608436  0.5026696581829498
  0.3883872303903657  0.2678049129254437  0.6539578272193864
  0.1483380546975589  0.1634658021366720  0.7850660555433645
  0.2941283759514061  0.2542731321140593  0.9181192605418382
  0.3130731272134905  0.4597209945760141  0.1197095665196239
  0.2304368195610857  0.3721812398330588  0.2411510669198626
  0.4145161683848892  0.4481318951682443  0.4004776113153444
  0.3161821584788938  0.3547640962144453  0.5227074411318239
  0.4899029124791806  0.4224974325090539  0.6704868980943365
  0.4053198282400278  0.3379349672735538  0.7975694770222653
  0.3754135625398739  0.4138484064898962  0.9590219261549866
  0.4043972885888450  0.6136096459926110  0.1561278008633371
  0.3134435958923118  0.5317341845375896  0.2764449625879536
  0.5011695187703972  0.6086599021864665  0.4459228636466672
  0.3992179911770865  0.5200483232208274  0.5606764874419125
  0.3863896051614266  0.5861962528527160  0.7200482638530803
  0.3882855331059833  0.5952769858504551  0.9464086554951342
  0.9647130050769116  0.3761484781017430  0.2440653010733427
