Cu
 1.0000000000000000
     7.6685730419681093    0.0000000000000000    0.0000000000000000
     3.8342865209840546    6.6411790651208911    0.0000000000000000
     0.0000000000000000    0.0000000000000000   25.0450909090909093
 Cu 
 108
Direct
  0.1092047472212244  0.1117847809474300  0.0007622679086010
  0.0675000973647690  0.6675555064233548  0.6661882938135515
  0.7360590760243008  0.3324921122385215  0.6667863161290334
  0.4020324193415232  0.3320901181171839  0.6664258374844020
  0.0641507216190252  0.3343653593097017  0.6661484638497344
  0.7312489273992703 -0.0002447717326824  0.6662901305174661
  0.4006139101667571  0.0004200266237642  0.6663886354411586
  0.0650570515251090  0.0001865291441213  0.6661456112097470
  0.6210426709100351  0.8869682171048573  0.5825698357646611
  0.2858606234069245  0.8914170068229218  0.5840952842160110
  0.9554536756292105  0.8876533148182025  0.5833295367727126
  0.6204393157240325  0.5585435979409840  0.5825933835700845
  0.2895670835524453  0.5538566239684930  0.5837215415193256
  0.9562411056087259  0.5534978778465801  0.5825759237648780
  0.6216254440225993  0.2203128259654704  0.5833885341269623
  0.2886809563952813  0.2201665963555976  0.5830838568436610
  0.9563285812859764  0.2218325441104512  0.5833662145936344
  0.8466275313401295  0.7767462806343001  0.4999259121557338
  0.5112394092455124  0.7758202232191094  0.4999675877783032
  0.1787665146727646  0.7764303722836220  0.4993849576859651
  0.8435536421492089  0.4450320708328804  0.4992430751087109
  0.5112872435468354  0.4424442318194283  0.4994269952046494
  0.1781230708956535  0.4435662031015135  0.5004657874604106
  0.8413634183703527  0.1136493666715517  0.5003484743510136
  0.3989706416178298  0.6637202605831267  0.6659345987230351
  0.5121149309848865  0.1139018022933731  0.4999026864319959
  0.7345690570891981  0.6645733685009729  0.6659673076967356
  0.5125303045026243  0.1090552510606160  0.7495634596969193
  0.0665365448569527  0.6639436654102473  0.9166281426536841
  0.7334403539260436  0.3326381537317601  0.9161490584598292
  0.3997403036264002  0.3352143151452361  0.9165991546171838
  0.0686251451101752  0.3325019221622623  0.9166646034712075
  0.7342425768105668  0.0004991133045302  0.9163703940386004
  0.4013727949505082  0.0011997765496101  0.9161519543695885
  0.0653613080204289  0.0004220534164836  0.9166588920684143
  0.6207698864870634  0.8883554993690537  0.8330709424466486
  0.2862478206475704  0.8918085388220137  0.8326450259724147
  0.9542148440099776  0.8899922958127496  0.8328914092908459
  0.6236372886367901  0.5533013659027974  0.8332209992326846
  0.2864838981272627  0.5552227343632647  0.8334936763805442
  0.9547852173742626  0.5530391019395746  0.8338650298160752
  0.6229848866254846  0.2192920016143085  0.8333112594497419
  0.2895144106271754  0.2234082469300259  0.8327615807965548
  0.9580686454212677  0.2216571429676812  0.8334903609192151
  0.8462484138917962  0.7784834788717929  0.7506464589495966
  0.5108135853571802  0.7752682203603868  0.7501664151829406
  0.1756655076053331  0.7805440658757130  0.7507093103349399
  0.8443542831362533  0.4427768843200594  0.7493677220934137
  0.5080632073868417  0.4472720098603465  0.7497619580666559
  0.1813803932167324  0.4420991177426125  0.7497459497020436
  0.8437156526129036  0.1086474471433615  0.7493068561652727
  0.1774457024654764  0.1132171179234648  0.7507997719759343
  0.1786990827352698  0.1092713938209420  0.5002656096457144
  0.6684669033286436  0.6638478610425547  0.4168934167445344
  0.3307077391862362  0.6681981035697088  0.4169627989176846
  0.6662038112329136  0.3342420168479389  0.1669052635674808
  0.3326163012956870  0.3339092084363789  0.1661972746908451
 -0.0019442739262249  0.3326356680863660  0.1659566639837316
  0.6684731328298216  0.0008992860075903  0.1658906454187091
  0.3302015924097148  0.0018633399843310  0.1659277944854262
 -0.0004465940317091 -0.0023911034169852  0.1662658044482748
  0.5563859158181494  0.8867518035695606  0.0836855867834643
  0.2219036470198302  0.8904974144803184  0.0839995474307098
  0.8872993631227518  0.8910976333717868  0.0825823246642629
  0.5527240025368144  0.5569704930566004  0.0827417601529746
  0.2207889005435364  0.5555571576149019  0.0829046587255946
  0.8891429315596280  0.5573275959049491  0.0833479391259332
  0.5570118187515478  0.2236211753851539  0.0834069465634003
  0.2214402467639434  0.2248231847526211  0.0838465681093885
  0.8892493268498601  0.2232720413120106  0.0835726034364540
  0.7764765335555101  0.7795550826050899  0.0002441375587352
  0.4475253142734243  0.7762003533765800 -0.0005728697398540
  0.1072919571580963  0.7804551592942514 -0.0006452088154011
  0.7754434124794910  0.4473600591067611 -0.0005999602422813
  0.4434295042137466  0.4415584250907505 -0.0006442300735210
  0.1119512713377433  0.4436587021318413 -0.0007205561855012
  0.7778196182918483  0.1102713511720362  0.0005421181596061
  0.4443267581811874  0.1101117654587475 -0.0005482358259247
  0.0013819944049825  0.6684494908491451  0.1666912171573967
  0.3343569110981730  0.6658349374338847  0.1660911507921693
  0.6676087442690067  0.6656176521759386  0.1658781509341505
  0.1127370722273691  0.1085906460442293  0.2500070122529905
 -0.0027481445093491  0.6670180641727174  0.4158780898195759
  0.6642084579932923  0.3351820709533453  0.4173006854044791
  0.3343167244941612  0.3310790900491763  0.4173560382895837
  0.0014537151547845  0.3319602724458360  0.4163885337224910
  0.6684064744550151  0.0009432249107494  0.4172505425263917
  0.3346676021049798 -0.0001847848800221  0.4173329070164270
  0.0023593389845092 -0.0008904999209471  0.4160165534999571
  0.5549594652359490  0.8873244820162701  0.3338857593775533
  0.2225307064149568  0.8881917550623314  0.3330624178558411
  0.8863128413105379  0.8898856782954061  0.3339284230955648
  0.5543706870990325  0.5584283842641345  0.3331183290402071
  0.4016849611594431  0.6652330798220513  0.9172928217408423
  0.2215586257630137  0.5578528924330951  0.3326841087916955
  0.5550042885361356  0.2220498912990818  0.3340465730841922
  0.2212804269579877  0.2249081635097732  0.3339626811878592
  0.8904566086585750  0.2216284286222689  0.3326551837262502
  0.7777514375213859  0.7755122805543145  0.2498308706763307
  0.4466611318662502  0.7777655596708911  0.2499264096506787
  0.1092868296708361  0.7801002137867097  0.2502416832937523
  0.7799988193284410  0.4431567127023481  0.2506799090589948
  0.4466019390938142  0.4432811734789035  0.2501989683468356
  0.1117298346276328  0.4466664252970710  0.2492707857453553
  0.7773078878569086  0.1124442836881258  0.2493851816119420
  0.4446022224712814  0.1085289360349474  0.2494774794705283
  0.8910087088992309  0.5546433705819197  0.3326717970535170
  0.7347356829887367  0.6672916129617633  0.9160926569667465
