Cu
 1.0000000000000000
     7.6685730419681093    0.0000000000000000    0.0000000000000000
     3.8342865209840546    6.6411790651208911    0.0000000000000000
     0.0000000000000000    0.0000000000000000   25.0450909090909093
 Cu 
 108
Direct
  0.1117369372631425  0.1108398284134862  0.0005933520291087
 -0.0021336292898242  0.9691874490426980  0.6661832094986354
  0.6696779071322990  0.6318678586633604  0.6666951373342003
  0.3304881828166694  0.6358162608353612  0.6660016013376083
 -0.0007314173515265  0.6318134220563626  0.6674210809449775
  0.6650418330728315  0.3021487868799943  0.6664091564971683
  0.3307029472076518  0.3029868209631590  0.6659847498444937
  0.0007548155045634  0.3029984186079064  0.6669657097181323
  0.5555553193705338  0.1902036182119487  0.5827365895514601
  0.2227778476993141  0.1879688839728689  0.5835568017410248
  0.8854379293554437  0.1907991845132246  0.5831804615387226
  0.5535185159921350  0.8559817528921182  0.5833286935462815
  0.2211798390201271  0.8561790202466516  0.5836692930627170
  0.8896775966060506  0.8553356017389289  0.5825710648501825
  0.5549042146202856  0.5204061810898851  0.5833318735114252
  0.2233143400327704  0.5243148224678333  0.5833132434035891
  0.8901617888760811  0.5214289717924305  0.5825790449289258
  0.7765311364596632  0.0763238887109022  0.5001477388689698
  0.4420648245558084  0.0779603921622336  0.4992442273774975
  0.1097923568320217  0.0774151921239297  0.5002558821935875
  0.7764054662807827  0.7431030209308543  0.5007804805142463
  0.4455110241577865  0.7447306762814880  0.4997597077757422
  0.1089559237764129  0.7437246115053571  0.4992819127308612
  0.7753777503605683  0.4117885766679307  0.4999635816367777
  0.3337241428042821  0.9666321830738530  0.6660309326750702
  0.4430873280993320  0.4137842734850024  0.4994125412488407
  0.6691411149432551  0.9664181715644317  0.6662868212253028
  0.4456714305755713  0.4102889720429045  0.7504237751352734
 -0.0015656654981662  0.9670813024748973  0.9172316542354272
  0.6689340939788303  0.6330351966720428  0.9164276671589927
  0.3313418920038294  0.6322538542774037  0.9162463411364955
 -0.0026726695261292  0.6344216370978081  0.9169728402397329
  0.6687402590169506  0.3010072419566478  0.9161050590255019
  0.3322749247953214  0.2999807012323238  0.9162686650637393
 -0.0013227792368408  0.2974578004439045  0.9170906869910962
  0.5527477875134660  0.1911529835851927  0.8339016963160955
  0.2228116530569153  0.1865119188254363  0.8334853845062753
  0.8906991742801480  0.1863301335282734  0.8328661078107564
  0.5546775245754174  0.8539602610369350  0.8327191024515422
  0.2232592939505940  0.8568577050680043  0.8338068010503263
  0.8879492927418127  0.8568199195243680  0.8333900842509600
  0.5516976916058717  0.5251379146483491  0.8335317174735551
  0.2207152531764386  0.5250474128754196  0.8326764892628037
  0.8861183016934167  0.5242922374308021  0.8334784598098786
  0.7794649136401748  0.0781179871460780  0.7494891562716063
  0.4427326111183234  0.0790170208464226  0.7493508808658050
  0.1114763544848709  0.0786121113685300  0.7497361292740627
  0.7783243917165806  0.7463328171797635  0.7501867525233850
  0.4448804523737915  0.7438968267012565  0.7507092838162529
  0.1088491577613299  0.7460405218691771  0.7506706414620418
  0.7796939302154040  0.4089153780019376  0.7505529297883867
  0.1144492619493044  0.4085306353103898  0.7496148302025691
  0.1106463114169244  0.4106401667153361  0.5002791627797097
  0.6662647053085041  0.6684061541128211  0.4162051105065280
  0.3346248800112846  0.6658139440429521  0.4164273520888231
  0.6687804915148741  0.3323028015800270  0.1673564015032513
  0.3332960766083641  0.3304863707962488  0.1669529693943509
 -0.0027232891737028  0.3354013773365808  0.1666664203245869
  0.6643213568337180  0.0002176550091580  0.1669929944097376
  0.3361468714490951 -0.0030053709993656  0.1661484742661482
  0.0015192991475847 -0.0014497994941158  0.1660349336792793
  0.5551422035797464  0.8891121481078550  0.0829380570782843
  0.2214943264500812  0.8891929721073308  0.0833748207872654
  0.8875136780814334  0.8918302471535724  0.0828355254521625
  0.5543411086219647  0.5572022328906284  0.0828738320157750
  0.2200308443109918  0.5554342497156118  0.0840857902324375
  0.8879469961671776  0.5553194037426907  0.0835083087227603
  0.5542890601200108  0.2206336664341008  0.0837102038242716
  0.2226660566007296  0.2240859617399334  0.0828820074625921
  0.8890012238610769  0.2198948981732620  0.0825860179518428
  0.7767085652583593  0.7787828231302353 -0.0004695289218053
  0.4444632209843803  0.7767437063306633 -0.0001851509293259
  0.1134238219165570  0.7772481433603361  0.0002836785697516
  0.7785208364913279  0.4415293128305523 -0.0006442214237388
  0.4417967175954885  0.4453856172005268 -0.0002828328243995
  0.1109837488411685  0.4462760894158018  0.0002794847234838
  0.7763789238925983  0.1117088677843422 -0.0000244067961570
  0.4459992732038642  0.1112812125338956  0.0002818715284186
  0.0007592880358345  0.6641203958400758  0.1670685376729755
  0.3316135787477142  0.6688949085972559  0.1670248373208663
  0.6642000405213641  0.6695472990766018  0.1662713746267302
  0.1102117119428696  0.1090119400409568  0.2505791874754439
 -0.0019270989173458  0.6664161513255524  0.4166368133825631
  0.6687408509660935  0.3335894405253665  0.4161337767363885
  0.3308439853246364  0.3355939870901761  0.4173879816536503
  0.0011373747597921  0.3349539638542335  0.4167590089538801
  0.6671620133328636 -0.0026245505318720  0.4161426045350408
  0.3327603523658663  0.0015388563739652  0.4161743742847588
  0.0002580168756211 -0.0001105182137321  0.4160875948820853
  0.5565189895976195  0.8917303798901025  0.3332824729370645
  0.2241569854522979  0.8900280272071472  0.3340067511008099
  0.8871329129164086  0.8896148139914741  0.3341270937169155
  0.5550251928882082  0.5574410066247720  0.3325999250172411
  0.3319361271410126  0.9686809770167387  0.9162728017774910
  0.2224873288806516  0.5547599230825461  0.3327553455491103
  0.5565318230819889  0.2246956069442548  0.3329223294227099
  0.2243480659227145  0.2231498819002035  0.3335466062174575
  0.8897151600596379  0.2241673103974125  0.3335998005960019
  0.7776873177626551  0.7800349950727427  0.2504446513218030
  0.4459021455164998  0.7767294917378410  0.2495559963033513
  0.1125382502071961  0.7789477828089045  0.2504462841716751
  0.7802465994005846  0.4446599017091757  0.2507697035501964
  0.4424467739556712  0.4469496355625086  0.2494203920606945
  0.1130570176541524  0.4457214285031635  0.2503767527235863
  0.7771777272062862  0.1111191699029674  0.2506342562050799
  0.4474554812657111  0.1091412229722780  0.2494287156973186
  0.8880533575875650  0.5529031051258514  0.3336262293812110
  0.6701403575187551  0.9647026477792187  0.9162035598236150
