Cu
 1.0000000000000000
     7.6685730419681093    0.0000000000000000    0.0000000000000000
     3.8342865209840546    6.6411790651208911    0.0000000000000000
     0.0000000000000000    0.0000000000000000   25.0450909090909093
 Cu 
 108
Direct
  0.1114642547558730  0.1125695133485258 -0.0003559086712327
  0.1320075133609890  0.7983071836416774  0.6670458774141534
  0.8010088277671622  0.4661748743316045  0.6665481012421542
  0.4676607793688924  0.4692758508222269  0.6670539050219008
  0.1314533479160446  0.4681870079913343  0.6663136269005154
  0.7995120592242775  0.1359772457532799  0.6666484373139400
  0.4651975738799639  0.1345935519951287  0.6672054663274588
  0.1340901371734902  0.1355535161460964  0.6659075483577663
  0.6906807572256909  0.0236626593014390  0.5841322382854461
  0.3561064725894029  0.0207217986457002  0.5830168441574033
  0.0210602678754063  0.0212959251985599  0.5840264648917642
  0.6897745290559285  0.6862473866820735  0.5831208476725659
  0.3561882648592588  0.6876071393612273  0.5836675545746276
  0.0217587350898675  0.6864568938166954  0.5834973879535537
  0.6886815676184609  0.3563161977799535  0.5827035559230980
  0.3567828078981350  0.3535592691904181  0.5832568359836141
  0.0219361759324278  0.3546083833662115  0.5831454135603443
  0.9122226727100556  0.9086146774123728  0.5006289336367887
  0.5754279169280498  0.9118746343804620  0.5002111205521288
  0.2458492869683144  0.9095675441819884  0.4998768661136836
  0.9108412782649145  0.5782378533755166  0.5003976950371922
  0.5806089555275591  0.5754747383398956  0.4997160275919592
  0.2427163242947477  0.5796869511879803  0.5003279788254852
  0.9105393903255622  0.2466742120362651  0.5006272026634475
  0.4673341879283255  0.8010484714973229  0.6660367333307261
  0.5749273891431719  0.2465837819936541  0.5003468603934823
  0.7994944110725698  0.8003697366254601  0.6661516142142485
  0.5809081473967134  0.2427215067963963  0.7508071185615511
  0.1307958526313187  0.8022670176838659  0.9173592942322519
  0.8024455538792065  0.4657782284600459  0.9168422322566697
  0.4681991720804773  0.4636598849686217  0.9160692123243127
  0.1338457633982739  0.4679596909938793  0.9173006634270265
  0.7985446651328659  0.1323067429897714  0.9163797863011885
  0.4671744313130363  0.1311354305599740  0.9160801677209374
  0.1362020530260869  0.1320020400527026  0.9160033378040791
  0.6881070821212848  0.0248088433188070  0.8341096147066048
  0.3581830450305841  0.0220131204129381  0.8332886994911466
  0.0243474739695716  0.0196449991468287  0.8337621410932126
  0.6900327232791987  0.6900640920421095  0.8330041615337349
  0.3542543561254300  0.6870105278067119  0.8339473738543566
  0.0214671256445101  0.6915989604076382  0.8328064564351876
  0.6890802308369444  0.3549377835965011  0.8326346162990850
  0.3565208354528984  0.3560917596312605  0.8329582235893739
  0.0210027312663639  0.3578793191952884  0.8338937252325594
  0.9127535006522511  0.9114911938058624  0.7499577345210975
  0.5810401519757387  0.9094044119499460  0.7498477214267820
  0.2412622193914109  0.9129501343627014  0.7500653489270659
  0.9098452210523432  0.5760072732716583  0.7494982483382178
  0.5772916688774795  0.5749993918407682  0.7500975255137049
  0.2473861704639434  0.5761940333888309  0.7500772257291896
  0.9104085316982088  0.2463742893278713  0.7507562788104581
  0.2434123850707989  0.2449252570539499  0.7498103109468921
  0.2459273709958461  0.2460249769074639  0.5003690666654903
  0.6690438599587241  0.6669201169822662  0.4166474476658193
  0.3344089013652929  0.6696635865776246  0.4165371107503471
  0.6661719708964211  0.3328625424441805  0.1669944361986681
  0.3347531736892971  0.3304627947154957  0.1661538314342374
 -0.0014217769244278  0.3318160574375372  0.1672846632188278
  0.6700272479138263 -0.0025043335989900  0.1660223125871191
  0.3345209079079384 -0.0030049640194147  0.1662750359255871
 -0.0006138056472543  0.0023300803212212  0.1672557757958470
  0.5551148833303041  0.8885467004396854  0.0827961182571550
  0.2225562788457345  0.8910661220711954  0.0839157846130957
  0.8910673696218623  0.8894452468640524  0.0838088182514085
  0.5579301697514359  0.5528201978907585  0.0839570460182817
  0.2238006121299467  0.5530905217985689  0.0829892921056120
  0.8874375196192066  0.5553388752203352  0.0835455119713443
  0.5557460744336963  0.2243082400424140  0.0830226824309608
  0.2215756148220031  0.2200093351182115  0.0839475066023018
  0.8876331127222542  0.2214971132900500  0.0834303175278158
  0.7761223745520048  0.7771737979110027  0.0003585626695014
  0.4452289315116414  0.7776317182050939 -0.0002762445851448
  0.1126404703846003  0.7764648876645623  0.0003790351515370
  0.7780981046816416  0.4472841079922638  0.0001898398767073
  0.4479065858319942  0.4420649969231823 -0.0005611196334397
  0.1118792540413832  0.4445746348817146 -0.0004341519143753
  0.7772459715795361  0.1089614713127552 -0.0002541209669788
  0.4426590404289239  0.1114233834021533  0.0006061542380239
 -0.0020995272922530  0.6686637569655317  0.1670597605034700
  0.3350984452684412  0.6649823343696186  0.1669321182938486
  0.6670078868232057  0.6684771936494779  0.1662490182023986
  0.1089355124475332  0.1127158181603105  0.2502627057813148
 -0.0017557071128504  0.6695909628501757  0.4170587954734036
  0.6673397069529431  0.3345479460578440  0.4169349850161612
  0.3326369131650155  0.3304232109048018  0.4159324869802783
  0.0016466639002679  0.3310699325673146  0.4162346471409938
  0.6681112253967948  0.0008530399207803  0.4173826278284504
  0.3338777973945591 -0.0017386852569205  0.4164328835403946
  0.0000734300421321  0.0006227148945793  0.4162469170970218
  0.5537560715850243  0.8877472640621412  0.3333191008909471
  0.2229373814925189  0.8878276687539998  0.3328268644766790
  0.8863056497655888  0.8906171066506340  0.3341057357381186
  0.5568906658636928  0.5551361198185378  0.3334011176051020
  0.4685354009076259  0.7997366523279741  0.9160146140591200
  0.2215965135305430  0.5584130356088131  0.3332767623108477
  0.5572052213699223  0.2217388418590563  0.3333992622813904
  0.2240066675968373  0.2221636600250963  0.3336094079308725
  0.8896718118538095  0.2219592897162933  0.3331321047927936
  0.7792297036581509  0.7782800888334859  0.2497751375681848
  0.4448706533302734  0.7805421501442881  0.2495912425354303
  0.1122080970843060  0.7760986755991890  0.2494340960913409
  0.7798119618829046  0.4416078842037952  0.2493513476846738
  0.4446591821170190  0.4460452663914274  0.2496425853823512
  0.1078280157868118  0.4460247986771013  0.2504069209316876
  0.7756837437720551  0.1125294005135516  0.2494042630516256
  0.4448069623306331  0.1095060008663907  0.2496286909843937
  0.8872419494760494  0.5557395274990494  0.3339584582508433
  0.7996449246926699  0.8017763845126098  0.9167053316230714
