Cu
 1.0000000000000000
     7.6685730419681093    0.0000000000000000    0.0000000000000000
     3.8342865209840546    6.6411790651208911    0.0000000000000000
     0.0000000000000000    0.0000000000000000   25.0454546774459672
 Cu 
 108
Direct
  0.1111111111111111  0.1111111111111111  0.0000000000000000
  0.1428571428571429  0.8095238095238094  0.6666666666666667
  0.8095238095238094  0.4761904761904762  0.6666666666666667
  0.4761904761904762  0.4761904761904762  0.6666666666666667
  0.1428571428571429  0.4761904761904762  0.6666666666666667
  0.8095238095238095  0.1428571428571428  0.6666666666666667
  0.4761904761904762  0.1428571428571428  0.6666666666666667
  0.1428571428571428  0.1428571428571428  0.6666666666666667
  0.6984126984126984  1.0317460317460314  0.5833333333333334
  0.3650793650793652  1.0317460317460314  0.5833333333333334
  0.0317460317460319  1.0317460317460314  0.5833333333333334
  0.6984126984126983  0.6984126984126984  0.5833333333333334
  0.3650793650793651  0.6984126984126984  0.5833333333333334
  0.0317460317460318  0.6984126984126984  0.5833333333333334
  0.6984126984126985  0.3650793650793650  0.5833333333333334
  0.3650793650793651  0.3650793650793650  0.5833333333333334
  0.0317460317460318  0.3650793650793650  0.5833333333333334
  0.9206349206349204  0.9206349206349206  0.5000000000000000
  0.5873015873015871  0.9206349206349206  0.5000000000000000
  0.2539682539682540  0.9206349206349206  0.5000000000000000
  0.9206349206349205  0.5873015873015872  0.5000000000000000
  0.5873015873015873  0.5873015873015872  0.5000000000000000
  0.2539682539682540  0.5873015873015872  0.5000000000000000
  0.9206349206349205  0.2539682539682539  0.5000000000000000
  0.4761904761904762  0.8095238095238094  0.6666666666666667
  0.5873015873015873  0.2539682539682539  0.5000000000000000
  0.8095238095238094  0.8095238095238094  0.6666666666666667
  0.5873015873015873  0.2539682539682539  0.7500000000000001
  0.1428571428571429  0.8095238095238094  0.9166666666666669
  0.8095238095238094  0.4761904761904762  0.9166666666666669
  0.4761904761904762  0.4761904761904762  0.9166666666666669
  0.1428571428571429  0.4761904761904762  0.9166666666666669
  0.8095238095238095  0.1428571428571428  0.9166666666666669
  0.4761904761904762  0.1428571428571428  0.9166666666666669
  0.1428571428571428  0.1428571428571428  0.9166666666666669
  0.6984126984126984  1.0317460317460314  0.8333333333333335
  0.3650793650793652  1.0317460317460314  0.8333333333333335
  0.0317460317460319  1.0317460317460314  0.8333333333333335
  0.6984126984126983  0.6984126984126984  0.8333333333333335
  0.3650793650793651  0.6984126984126984  0.8333333333333335
  0.0317460317460318  0.6984126984126984  0.8333333333333335
  0.6984126984126985  0.3650793650793650  0.8333333333333335
  0.3650793650793651  0.3650793650793650  0.8333333333333335
  0.0317460317460318  0.3650793650793650  0.8333333333333335
  0.9206349206349204  0.9206349206349206  0.7500000000000001
  0.5873015873015871  0.9206349206349206  0.7500000000000001
  0.2539682539682540  0.9206349206349206  0.7500000000000001
  0.9206349206349205  0.5873015873015872  0.7500000000000001
  0.5873015873015873  0.5873015873015872  0.7500000000000001
  0.2539682539682540  0.5873015873015872  0.7500000000000001
  0.9206349206349205  0.2539682539682539  0.7500000000000001
  0.2539682539682540  0.2539682539682539  0.7500000000000001
  0.2539682539682540  0.2539682539682539  0.5000000000000000
  0.6666666666666666  0.6666666666666666  0.4166666666666667
  0.3333333333333333  0.6666666666666666  0.4166666666666667
  0.6666666666666666  0.3333333333333333  0.1666666666666667
  0.3333333333333333  0.3333333333333333  0.1666666666666667
  0.0000000000000000  0.3333333333333333  0.1666666666666667
  0.6666666666666666  0.0000000000000000  0.1666666666666667
  0.3333333333333333  0.0000000000000000  0.1666666666666667
  0.0000000000000000  0.0000000000000000  0.1666666666666667
  0.5555555555555556  0.8888888888888887  0.0833333333333333
  0.2222222222222223  0.8888888888888887  0.0833333333333333
 -0.1111111111111110  0.8888888888888887  0.0833333333333333
  0.5555555555555556  0.5555555555555555  0.0833333333333333
  0.2222222222222222  0.5555555555555555  0.0833333333333333
 -0.1111111111111111  0.5555555555555555  0.0833333333333333
  0.5555555555555556  0.2222222222222222  0.0833333333333333
  0.2222222222222222  0.2222222222222222  0.0833333333333333
 -0.1111111111111111  0.2222222222222222  0.0833333333333333
  0.7777777777777776  0.7777777777777778  0.0000000000000000
  0.4444444444444444  0.7777777777777778  0.0000000000000000
  0.1111111111111111  0.7777777777777778  0.0000000000000000
  0.7777777777777778  0.4444444444444444  0.0000000000000000
  0.4444444444444444  0.4444444444444444  0.0000000000000000
  0.1111111111111111  0.4444444444444444  0.0000000000000000
  0.7777777777777778  0.1111111111111111  0.0000000000000000
  0.4444444444444444  0.1111111111111111  0.0000000000000000
  0.0000000000000000  0.6666666666666666  0.1666666666666667
  0.3333333333333333  0.6666666666666666  0.1666666666666667
  0.6666666666666666  0.6666666666666666  0.1666666666666667
  0.1111111111111111  0.1111111111111111  0.2500000000000000
  0.0000000000000000  0.6666666666666666  0.4166666666666667
  0.6666666666666666  0.3333333333333333  0.4166666666666667
  0.3333333333333333  0.3333333333333333  0.4166666666666667
  0.0000000000000000  0.3333333333333333  0.4166666666666667
  0.6666666666666666  0.0000000000000000  0.4166666666666667
  0.3333333333333333  0.0000000000000000  0.4166666666666667
  0.0000000000000000  0.0000000000000000  0.4166666666666667
  0.5555555555555556  0.8888888888888887  0.3333333333333334
  0.2222222222222223  0.8888888888888887  0.3333333333333334
 -0.1111111111111110  0.8888888888888887  0.3333333333333334
  0.5555555555555556  0.5555555555555555  0.3333333333333334
  0.4761904761904762  0.8095238095238094  0.9166666666666669
  0.2222222222222222  0.5555555555555555  0.3333333333333334
  0.5555555555555556  0.2222222222222222  0.3333333333333334
  0.2222222222222222  0.2222222222222222  0.3333333333333334
 -0.1111111111111111  0.2222222222222222  0.3333333333333334
  0.7777777777777776  0.7777777777777778  0.2500000000000000
  0.4444444444444444  0.7777777777777778  0.2500000000000000
  0.1111111111111111  0.7777777777777778  0.2500000000000000
  0.7777777777777778  0.4444444444444444  0.2500000000000000
  0.4444444444444444  0.4444444444444444  0.2500000000000000
  0.1111111111111111  0.4444444444444444  0.2500000000000000
  0.7777777777777778  0.1111111111111111  0.2500000000000000
  0.4444444444444444  0.1111111111111111  0.2500000000000000
 -0.1111111111111111  0.5555555555555555  0.3333333333333334
  0.8095238095238094  0.8095238095238094  0.9166666666666669
