Cu
 1.0000000000000000
     7.6685730419681093    0.0000000000000000    0.0000000000000000
     3.8342865209840546    6.6411790651208911    0.0000000000000000
     0.0000000000000000    0.0000000000000000   41.7424244624099501
 Cu 
 180
Direct
  0.0000000000000000  0.0000000000000000  0.0000000000000000
  0.3333333333333333  0.6666666666666666  0.6000000000000000
  0.6666666666666666  0.6666666666666666  0.6000000000000000
  0.2222222222222222  0.2222222222222222  0.6499999999999999
  0.5555555555555556  0.2222222222222222  0.6499999999999999
  0.8888888888888886  0.2222222222222222  0.6499999999999999
  0.2222222222222222  0.5555555555555556  0.6499999999999999
  0.5555555555555555  0.5555555555555556  0.6499999999999999
  0.8888888888888887  0.5555555555555556  0.6499999999999999
  0.0000000000000000  0.6666666666666666  0.6000000000000000
  0.2222222222222223  0.8888888888888887  0.6499999999999999
  0.8888888888888888  0.8888888888888887  0.6499999999999999
  0.1111111111111111  0.1111111111111111  0.7000000000000000
  0.4444444444444443  0.1111111111111111  0.7000000000000000
  0.7777777777777778  0.1111111111111111  0.7000000000000000
  0.1111111111111111  0.4444444444444444  0.7000000000000000
  0.4444444444444444  0.4444444444444444  0.7000000000000000
  0.7777777777777778  0.4444444444444444  0.7000000000000000
  0.1111111111111111  0.7777777777777777  0.7000000000000000
  0.5555555555555556  0.8888888888888887  0.6499999999999999
  0.6666666666666666  0.3333333333333333  0.6000000000000000
  0.3333333333333333  0.3333333333333333  0.6000000000000000
  0.0000000000000000  0.3333333333333333  0.6000000000000000
  0.8888888888888886  0.2222222222222222  0.5000000000000000
  0.2222222222222222  0.5555555555555556  0.5000000000000000
  0.5555555555555555  0.5555555555555556  0.5000000000000000
  0.8888888888888887  0.5555555555555556  0.5000000000000000
  0.2222222222222223  0.8888888888888887  0.5000000000000000
  0.5555555555555556  0.8888888888888887  0.5000000000000000
  0.8888888888888888  0.8888888888888887  0.5000000000000000
  0.1111111111111111  0.1111111111111111  0.5500000000000000
  0.4444444444444443  0.1111111111111111  0.5500000000000000
  0.7777777777777778  0.1111111111111111  0.5500000000000000
  0.1111111111111111  0.4444444444444444  0.5500000000000000
  0.4444444444444444  0.4444444444444444  0.5500000000000000
  0.7777777777777778  0.4444444444444444  0.5500000000000000
  0.1111111111111111  0.7777777777777777  0.5500000000000000
  0.4444444444444444  0.7777777777777777  0.5500000000000000
  0.7777777777777778  0.7777777777777777  0.5500000000000000
  0.0000000000000000  0.0000000000000000  0.6000000000000000
  0.3333333333333333  0.0000000000000000  0.6000000000000000
  0.6666666666666666  0.0000000000000000  0.6000000000000000
  0.4444444444444444  0.7777777777777777  0.7000000000000000
  0.5555555555555556  0.2222222222222222  0.5000000000000000
  0.7777777777777778  0.7777777777777777  0.7000000000000000
  0.3333333333333333  0.0000000000000000  0.7500000000000000
  0.4444444444444444  0.7777777777777777  0.8500000000000000
  0.7777777777777778  0.7777777777777777  0.8500000000000000
  0.0000000000000000  0.0000000000000000  0.9000000000000000
  0.3333333333333333  0.0000000000000000  0.9000000000000000
  0.6666666666666666  0.0000000000000000  0.9000000000000000
  0.0000000000000000  0.3333333333333333  0.9000000000000000
  0.3333333333333333  0.3333333333333333  0.9000000000000000
  0.6666666666666666  0.3333333333333333  0.9000000000000000
  0.1111111111111111  0.7777777777777777  0.8500000000000000
  0.0000000000000000  0.6666666666666666  0.9000000000000000
  0.6666666666666666  0.6666666666666666  0.9000000000000000
  0.2222222222222222  0.2222222222222222  0.9500000000000000
  0.5555555555555556  0.2222222222222222  0.9500000000000000
  0.8888888888888886  0.2222222222222222  0.9500000000000000
  0.2222222222222222  0.5555555555555556  0.9500000000000000
  0.5555555555555555  0.5555555555555556  0.9500000000000000
  0.8888888888888887  0.5555555555555556  0.9500000000000000
  0.2222222222222223  0.8888888888888887  0.9500000000000000
  0.3333333333333333  0.6666666666666666  0.9000000000000000
  0.7777777777777778  0.4444444444444444  0.8500000000000000
  0.4444444444444444  0.4444444444444444  0.8500000000000000
  0.1111111111111111  0.4444444444444444  0.8500000000000000
  0.6666666666666666  0.0000000000000000  0.7500000000000000
  0.0000000000000000  0.3333333333333333  0.7500000000000000
  0.3333333333333333  0.3333333333333333  0.7500000000000000
  0.6666666666666666  0.3333333333333333  0.7500000000000000
  0.0000000000000000  0.6666666666666666  0.7500000000000000
  0.3333333333333333  0.6666666666666666  0.7500000000000000
  0.6666666666666666  0.6666666666666666  0.7500000000000000
  0.2222222222222222  0.2222222222222222  0.7999999999999999
  0.5555555555555556  0.2222222222222222  0.7999999999999999
  0.8888888888888886  0.2222222222222222  0.7999999999999999
  0.2222222222222222  0.5555555555555556  0.7999999999999999
  0.5555555555555555  0.5555555555555556  0.7999999999999999
  0.8888888888888887  0.5555555555555556  0.7999999999999999
  0.2222222222222223  0.8888888888888887  0.7999999999999999
  0.5555555555555556  0.8888888888888887  0.7999999999999999
  0.8888888888888888  0.8888888888888887  0.7999999999999999
  0.1111111111111111  0.1111111111111111  0.8500000000000000
  0.4444444444444443  0.1111111111111111  0.8500000000000000
  0.7777777777777778  0.1111111111111111  0.8500000000000000
  0.0000000000000000  0.0000000000000000  0.7500000000000000
  0.2222222222222222  0.2222222222222222  0.5000000000000000
  0.6666666666666666  0.6666666666666666  0.4500000000000000
  0.3333333333333333  0.6666666666666666  0.4500000000000000
  0.2222222222222223  0.8888888888888887  0.1000000000000000
  0.5555555555555556  0.8888888888888887  0.1000000000000000
  0.8888888888888888  0.8888888888888887  0.1000000000000000
  0.0000000000000000  0.0000000000000000  0.1500000000000000
  0.3333333333333333  0.0000000000000000  0.1500000000000000
  0.6666666666666666  0.0000000000000000  0.1500000000000000
  0.0000000000000000  0.3333333333333333  0.1500000000000000
  0.3333333333333333  0.3333333333333333  0.1500000000000000
  0.8888888888888887  0.5555555555555556  0.1000000000000000
  0.6666666666666666  0.3333333333333333  0.1500000000000000
  0.3333333333333333  0.6666666666666666  0.1500000000000000
  0.6666666666666666  0.6666666666666666  0.1500000000000000
  0.1111111111111111  0.1111111111111111  0.2000000000000000
  0.4444444444444443  0.1111111111111111  0.2000000000000000
  0.7777777777777778  0.1111111111111111  0.2000000000000000
  0.1111111111111111  0.4444444444444444  0.2000000000000000
  0.4444444444444444  0.4444444444444444  0.2000000000000000
  0.7777777777777778  0.4444444444444444  0.2000000000000000
  0.0000000000000000  0.6666666666666666  0.1500000000000000
  0.5555555555555555  0.5555555555555556  0.1000000000000000
  0.2222222222222222  0.5555555555555556  0.1000000000000000
  0.8888888888888886  0.2222222222222222  0.1000000000000000
  0.3333333333333333  0.0000000000000000  0.0000000000000000
  0.6666666666666666  0.0000000000000000  0.0000000000000000
  0.0000000000000000  0.3333333333333333  0.0000000000000000
  0.3333333333333333  0.3333333333333333  0.0000000000000000
  0.6666666666666666  0.3333333333333333  0.0000000000000000
  0.0000000000000000  0.6666666666666666  0.0000000000000000
  0.3333333333333333  0.6666666666666666  0.0000000000000000
  0.6666666666666666  0.6666666666666666  0.0000000000000000
  0.1111111111111111  0.1111111111111111  0.0500000000000000
  0.4444444444444443  0.1111111111111111  0.0500000000000000
  0.7777777777777778  0.1111111111111111  0.0500000000000000
  0.1111111111111111  0.4444444444444444  0.0500000000000000
  0.4444444444444444  0.4444444444444444  0.0500000000000000
  0.7777777777777778  0.4444444444444444  0.0500000000000000
  0.1111111111111111  0.7777777777777777  0.0500000000000000
  0.4444444444444444  0.7777777777777777  0.0500000000000000
  0.7777777777777778  0.7777777777777777  0.0500000000000000
  0.2222222222222222  0.2222222222222222  0.1000000000000000
  0.5555555555555556  0.2222222222222222  0.1000000000000000
  0.1111111111111111  0.7777777777777777  0.2000000000000000
  0.4444444444444444  0.7777777777777777  0.2000000000000000
  0.7777777777777778  0.7777777777777777  0.2000000000000000
  0.2222222222222222  0.2222222222222222  0.2500000000000000
  0.1111111111111111  0.7777777777777777  0.3500000000000000
  0.4444444444444444  0.7777777777777777  0.3500000000000000
  0.7777777777777778  0.7777777777777777  0.3500000000000000
  0.2222222222222222  0.2222222222222222  0.4000000000000000
  0.5555555555555556  0.2222222222222222  0.4000000000000000
  0.8888888888888886  0.2222222222222222  0.4000000000000000
  0.2222222222222222  0.5555555555555556  0.4000000000000000
  0.5555555555555555  0.5555555555555556  0.4000000000000000
  0.8888888888888887  0.5555555555555556  0.4000000000000000
  0.2222222222222223  0.8888888888888887  0.4000000000000000
  0.5555555555555556  0.8888888888888887  0.4000000000000000
  0.8888888888888888  0.8888888888888887  0.4000000000000000
  0.0000000000000000  0.0000000000000000  0.4500000000000000
  0.3333333333333333  0.0000000000000000  0.4500000000000000
  0.6666666666666666  0.0000000000000000  0.4500000000000000
  0.0000000000000000  0.3333333333333333  0.4500000000000000
  0.3333333333333333  0.3333333333333333  0.4500000000000000
  0.6666666666666666  0.3333333333333333  0.4500000000000000
  0.0000000000000000  0.6666666666666666  0.4500000000000000
  0.7777777777777778  0.4444444444444444  0.3500000000000000
  0.5555555555555556  0.8888888888888887  0.9500000000000000
  0.4444444444444444  0.4444444444444444  0.3500000000000000
  0.7777777777777778  0.1111111111111111  0.3500000000000000
  0.5555555555555556  0.2222222222222222  0.2500000000000000
  0.8888888888888886  0.2222222222222222  0.2500000000000000
  0.2222222222222222  0.5555555555555556  0.2500000000000000
  0.5555555555555555  0.5555555555555556  0.2500000000000000
  0.8888888888888887  0.5555555555555556  0.2500000000000000
  0.2222222222222223  0.8888888888888887  0.2500000000000000
  0.5555555555555556  0.8888888888888887  0.2500000000000000
  0.8888888888888888  0.8888888888888887  0.2500000000000000
  0.0000000000000000  0.0000000000000000  0.3000000000000000
  0.3333333333333333  0.0000000000000000  0.3000000000000000
  0.6666666666666666  0.0000000000000000  0.3000000000000000
  0.0000000000000000  0.3333333333333333  0.3000000000000000
  0.3333333333333333  0.3333333333333333  0.3000000000000000
  0.6666666666666666  0.3333333333333333  0.3000000000000000
  0.0000000000000000  0.6666666666666666  0.3000000000000000
  0.3333333333333333  0.6666666666666666  0.3000000000000000
  0.6666666666666666  0.6666666666666666  0.3000000000000000
  0.1111111111111111  0.1111111111111111  0.3500000000000000
  0.4444444444444443  0.1111111111111111  0.3500000000000000
  0.1111111111111111  0.4444444444444444  0.3500000000000000
  0.8888888888888888  0.8888888888888887  0.9500000000000000
