Cu
 1.0000000000000000
     7.6685730419681093    0.0000000000000000    0.0000000000000000
     3.8342865209840546    6.6411790651208911    0.0000000000000000
     0.0000000000000000    0.0000000000000000   12.5227273387229836
 Cu 
  54
Direct
  0.0000000000000000  0.0000000000000000  0.0000000000000000
  0.8888888888888886  0.2222222222222222  0.5000000000000000
  0.2222222222222222  0.5555555555555556  0.5000000000000000
  0.5555555555555555  0.5555555555555556  0.5000000000000000
  0.8888888888888887  0.5555555555555556  0.5000000000000000
  0.2222222222222223  0.8888888888888887  0.5000000000000000
  0.5555555555555556  0.8888888888888887  0.5000000000000000
  0.8888888888888888  0.8888888888888887  0.5000000000000000
  0.0000000000000000  0.0000000000000000  0.6666666666666667
  0.3333333333333333  0.0000000000000000  0.6666666666666667
  0.6666666666666666  0.0000000000000000  0.6666666666666667
  0.0000000000000000  0.3333333333333333  0.6666666666666667
  0.3333333333333333  0.3333333333333333  0.6666666666666667
  0.6666666666666666  0.3333333333333333  0.6666666666666667
  0.0000000000000000  0.6666666666666666  0.6666666666666667
  0.3333333333333333  0.6666666666666666  0.6666666666666667
  0.6666666666666666  0.6666666666666666  0.6666666666666667
  0.1111111111111111  0.1111111111111111  0.8333333333333335
  0.4444444444444443  0.1111111111111111  0.8333333333333335
  0.7777777777777778  0.1111111111111111  0.8333333333333335
  0.1111111111111111  0.4444444444444444  0.8333333333333335
  0.4444444444444444  0.4444444444444444  0.8333333333333335
  0.7777777777777778  0.4444444444444444  0.8333333333333335
  0.1111111111111111  0.7777777777777777  0.8333333333333335
  0.5555555555555556  0.2222222222222222  0.5000000000000000
  0.2222222222222222  0.2222222222222222  0.5000000000000000
  0.6666666666666666  0.6666666666666666  0.3333333333333334
  0.3333333333333333  0.6666666666666666  0.3333333333333334
  0.3333333333333333  0.0000000000000000  0.0000000000000000
  0.6666666666666666  0.0000000000000000  0.0000000000000000
  0.0000000000000000  0.3333333333333333  0.0000000000000000
  0.3333333333333333  0.3333333333333333  0.0000000000000000
  0.6666666666666666  0.3333333333333333  0.0000000000000000
  0.0000000000000000  0.6666666666666666  0.0000000000000000
  0.3333333333333333  0.6666666666666666  0.0000000000000000
  0.6666666666666666  0.6666666666666666  0.0000000000000000
  0.1111111111111111  0.1111111111111111  0.1666666666666667
  0.4444444444444443  0.1111111111111111  0.1666666666666667
  0.7777777777777778  0.1111111111111111  0.1666666666666667
  0.4444444444444444  0.7777777777777777  0.8333333333333335
  0.1111111111111111  0.4444444444444444  0.1666666666666667
  0.7777777777777778  0.4444444444444444  0.1666666666666667
  0.1111111111111111  0.7777777777777777  0.1666666666666667
  0.4444444444444444  0.7777777777777777  0.1666666666666667
  0.7777777777777778  0.7777777777777777  0.1666666666666667
  0.0000000000000000  0.0000000000000000  0.3333333333333334
  0.3333333333333333  0.0000000000000000  0.3333333333333334
  0.6666666666666666  0.0000000000000000  0.3333333333333334
  0.0000000000000000  0.3333333333333333  0.3333333333333334
  0.3333333333333333  0.3333333333333333  0.3333333333333334
  0.6666666666666666  0.3333333333333333  0.3333333333333334
  0.0000000000000000  0.6666666666666666  0.3333333333333334
  0.4444444444444444  0.4444444444444444  0.1666666666666667
  0.7777777777777778  0.7777777777777777  0.8333333333333335
