Cu
 1.0000000000000000
     7.6685730419681093    0.0000000000000000    0.0000000000000000
     3.8342865209840546    6.6411790651208911    0.0000000000000000
     0.0000000000000000    0.0000000000000000   25.0454546774459672
 Cu 
 108
Direct
  0.1099026930646099  0.1083676013503399  0.0006506334190520
  0.2847277493621575  0.6683039993847570  0.6658941631854013
  0.9482825723811604  0.3352312410343967  0.6668394575887397
  0.6193264698730249  0.3308981756063920  0.6673660194352530
  0.2811922620463132  0.3360990408562347  0.6671670441613698
  0.9471185000357539  0.0020944712297784  0.6666005420472453
  0.6177811992897304  0.0006103225049900  0.6664767754392205
  0.2855059692872378 -0.0012923184414528  0.6658902815438347
  0.8407230435473150  0.8866513989294664  0.5837065726712450
  0.5057065571823832  0.8887793197326516  0.5839589823990441
  0.1708333533271121  0.8895897943629023  0.5830484272820600
  0.8390869522235790  0.5531014213618124  0.5830222161159208
  0.5062891448252703  0.5580173522121611  0.5831098600649542
  0.1694863067352491  0.5567285462639578  0.5826747042936191
  0.8383491520156660  0.2229123386671326  0.5825655974188553
  0.5071768419300035  0.2238820544835935  0.5830710151340885
  0.1740049948667854  0.2192484177556508  0.5831585249662421
  0.0616521766389473  0.7778202135236850  0.5007315146337457
  0.7251916973586056  0.7801856272681725  0.5002418113782491
  0.3961863191610288  0.7780130287816894  0.5004087573341868
  0.0597269935988887  0.4442889136241318  0.5007256393934011
  0.7287213754080991  0.4444475103135408  0.5005632109805830
  0.3906983859441685  0.4473741856143216  0.5003957803888457
  0.0594090275607052  0.1102905656817992  0.4992217984952371
  0.6197489016513152  0.6644242512331796  0.6662957162688841
  0.7313400867536548  0.1083895141600522  0.5002276626236958
  0.9524059724152518  0.6637849023408968  0.6661107775280936
  0.7264737883520718  0.1099309590976679  0.7506605279414199
  0.2815692992977822  0.6672665835387736  0.9172704512210209
  0.9488739353915430  0.3361238875601504  0.9165600418873121
  0.6176802728832761  0.3314473586656794  0.9167423855981158
  0.2817524974674904  0.3361600999882221  0.9166202584755337
  0.9517247967839992  0.0003889081941715  0.9173008103786713
  0.6176888584959219  0.0021034245760798  0.9174172357310639
  0.2811755692559320  0.0029986538709942  0.9173438176638179
  0.8385490150830360  0.8907262044046030  0.8339611365179120
  0.5055100267381172  0.8880535649662430  0.8329315519919533
  0.1714275537045556  0.8878187817024711  0.8340534357224274
  0.8398992441876598  0.5575513351273749  0.8333448246123786
  0.5065119852374097  0.5529750801207911  0.8331033016110518
  0.1709875385841444  0.5565222262524422  0.8333398742711806
  0.8394599264686331  0.2192271427773748  0.8328917971867095
  0.5031577161811295  0.2231832083986931  0.8336645048844643
  0.1705266495919539  0.2219686789728489  0.8335175594102097
  0.0608809590286949  0.7807715102205339  0.7501956050168906
  0.7287171266106629  0.7771909932164389  0.7502526183286548
  0.3943443694763134  0.7789870781438452  0.7492920976331897
  0.0640514979641270  0.4436499893402862  0.7494512966133530
  0.7278357034535032  0.4457229718371680  0.7501161879384571
  0.3930602369140110  0.4464737103873539  0.7497716885621210
  0.0610400074276581  0.1138003773836251  0.7506714961849875
  0.3932431298915534  0.1121531680378936  0.7504722163804614
  0.3941903356965353  0.1124113600070303  0.4993194345047775
  0.6698482701130710  0.6653461390509445  0.4167064333482535
  0.3316108004277299  0.6684005356867466  0.4172729991729923
  0.6652749181551827  0.3333546512907903  0.1669855212983527
  0.3325909213009889  0.3320894637613082  0.1668601176620272
  0.0019750167647003  0.3306214381863978  0.1673198116017929
  0.6697790596813077 -0.0026818408375420  0.1662219158630660
  0.3338849431880357 -0.0028515340483594  0.1668798100544926
  0.0002676825536081 -0.0016168077732285  0.1671290900700294
  0.5515251756295961  0.8918002904144691  0.0835388243275577
  0.2242493397642183  0.8884540542162723  0.0829877956080275
  0.8896405414657551  0.8882194869474221  0.0838954036223436
  0.5571383023569891  0.5572825885993135  0.0835221269364408
  0.2234280987013185  0.5542380199614868  0.0840852645202708
  0.8877151312608939  0.5528103133761272  0.0825537377807511
  0.5528961869491882  0.2233871203538754  0.0833499408995002
  0.2226215691152029  0.2200035784548606  0.0828536763819401
  0.8861220769221720  0.2233245959208939  0.0839973707707260
  0.7799120825915092  0.7754406552231672  0.0000744700480138
  0.4459855916712640  0.7758539402555533  0.0006510300049641
  0.1084367387230598  0.7796346700355885  0.0002376166757028
  0.7771591386154718  0.4446203754008606  0.0003004550034790
  0.4408533313445911  0.4471324636198486 -0.0005805445359196
  0.1110646303505745  0.4428275946687186 -0.0004834732939879
  0.7803130806760675  0.1092552329437042  0.0000109804187136
  0.4418859476895479  0.1127066290037015 -0.0000030368468648
  0.0011568706904924  0.6677552802800324  0.1659551286972102
  0.3300269506635834  0.6695173584736861  0.1666321622192542
  0.6690930481624334  0.6648451538262679  0.1669322650639901
  0.1121524062522505  0.1085552990091325  0.2503469619379832
  0.0000684900776803  0.6636791378639597  0.4162114542098340
  0.6681545201117035  0.3346751406738164  0.4172120612149776
  0.3336597207728739  0.3342517734607886  0.4165201704496964
  0.0022124404039410  0.3339204887297676  0.4172835987470052
  0.6665308666489305 -0.0010595289257215  0.4170075810862221
  0.3317935719044543  0.0029229162817904  0.4169702974265606
 -0.0003279354699959  0.0024636150822320  0.4163997580302398
  0.5565555970147301  0.8916412193498335  0.3328640907869477
  0.2206193581358719  0.8892725438572140  0.3332362555079332
  0.8872405491784404  0.8880891470681994  0.3325523264807302
  0.5546358120849755  0.5528315016314873  0.3337776997324892
  0.6180106147479598  0.6642914003530753  0.9164327004400875
  0.2215372990425396  0.5548537600298453  0.3326692028057401
  0.5567812067489250  0.2207924918458181  0.3340365403169597
  0.2218462591524662  0.2209724056204911  0.3339217486212986
  0.8874006545636144  0.2203372605872995  0.3327761230267515
  0.7791270065699236  0.7749081914043017  0.2500214017862291
  0.4460801602924998  0.7774964526713013  0.2507970595482606
  0.1133495853846081  0.7749730780820513  0.2493381985406291
  0.7796791242504113  0.4433751057292988  0.2501403348249452
  0.4428260173139965  0.4447448789157894  0.2492111379768405
  0.1135323378964742  0.4440478873601379  0.2502643014095058
  0.7784969152262710  0.1126909490272316  0.2498732558561207
  0.4466510178449155  0.1099305665406176  0.2499043138336901
  0.8877129155514610  0.5535196144189256  0.3334261644905543
  0.9503441803248475  0.6690538126619254  0.9173387347156317
