Cu
 1.0000000000000000
     7.6685730419681093    0.0000000000000000    0.0000000000000000
     3.8342865209840546    6.6411790651208911    0.0000000000000000
     0.0000000000000000    0.0000000000000000   25.0454546774459672
 Cu 
 108
Direct
  0.1107063914025398  0.1134469413856341 -0.0005304612306771
  0.2664297698812341  0.9326888363425869  0.6667561551216016
  0.9314104210683919  0.5986915557419188  0.6662020064949121
  0.6007301398030367  0.5999966852796249  0.6665858201728188
  0.2642519019189888  0.6004358960121152  0.6673443569456593
  0.9315536348856716  0.2664783695553128  0.6672811907864828
  0.5991557185992641  0.2658141967358068  0.6663935546827410
  0.2660197472323733  0.2680696176832492  0.6665281893868544
  0.8233530668445537  0.1532223266139681  0.5826048522889147
  0.4902828394441265  0.1536476262718235  0.5827322857296761
  0.1580210222954238  0.1547671774430600  0.5835540348589827
  0.8240592192191554  0.8219074541650031  0.5825692672345464
  0.4876402834144667  0.8226626956577361  0.5830740693119738
  0.1579099879778151  0.8211487567421485  0.5829790629165982
  0.8228986815339393  0.4885157305064780  0.5826228886713686
  0.4877117903913920  0.4898197680649732  0.5832241380551063
  0.1557814858403395  0.4906873126239628  0.5838484606705886
  0.0449765675100889  0.0445126605877274  0.5003288840211241
  0.7115904946660238  0.0435346153767246  0.5004789340392605
  0.3763594904352337  0.0457661684390475  0.5004761151012236
  0.0464877466540846  0.7114638322947532  0.4996036183949218
  0.7098443946487534  0.7094268290074085  0.5002925360776063
  0.3790434959024675  0.7106362710477854  0.5002147685934971
  0.0446243781893272  0.3760933619713182  0.4995196828992608
  0.5965775527199875  0.9361729990942703  0.6660127189509452
  0.7137177005595651  0.3770612742756966  0.4998172092709086
  0.9358575031221773  0.9327603951119123  0.6671644707282997
  0.7073427924513167  0.3805148503354998  0.7507780964552894
  0.2639569485054264  0.9363254057575672  0.9169647002530597
  0.9318164071774393  0.5990936552466029  0.9164694073000277
  0.5990520337376377  0.6004634957526448  0.9163738651127873
  0.2691440341154808  0.5972222061824287  0.9168354214499759
  0.9337278767753657  0.2676524110557886  0.9173428517334052
  0.6015058760541055  0.2644900126380124  0.9172530758223332
  0.2676670390314078  0.2696312156449875  0.9171103088832012
  0.8242429187629394  0.1535335609935611  0.8325810258512953
  0.4893175904173909  0.1532062177456954  0.8330773337062659
  0.1543449955931657  0.1577598999120997  0.8331304209937650
  0.8216844479192464  0.8215850531652796  0.8328443912496147
  0.4861614245694054  0.8251771650365322  0.8335089842368106
  0.1554376095314923  0.8196312652913132  0.8340221915649108
  0.8238101881389832  0.4866853201926472  0.8335909849372832
  0.4885595714997812  0.4897747489928673  0.8327053955452975
  0.1569582071478569  0.4899496481979851  0.8336146833884160
  0.0438795444583215  0.0416834796566042  0.7497336863153030
  0.7108741489734408  0.0432390859029956  0.7503796225780491
  0.3785735556399906  0.0417908550132834  0.7506868455229041
  0.0433339364150688  0.7082880345180724  0.7505491935717805
  0.7137731314132328  0.7102267766089344  0.7494537328636950
  0.3799009502616416  0.7116136225271319  0.7505892367219680
  0.0463297250320545  0.3751332780576620  0.7506200018684706
  0.3754480621694080  0.3785963172310473  0.7501907525472140
  0.3794892572353502  0.3781751777691936  0.5003156266132309
  0.6683538831584339  0.6669917477349079  0.4164273019443764
  0.3364931553828834  0.6648200411899565  0.4166821285271371
  0.6671400360340541  0.3345315073190187  0.1669419930765736
  0.3351879359379644  0.3312105500312704  0.1667942610378334
  0.0020372171771043  0.3314792943753663  0.1661358488296258
  0.6644448258580633  0.0019821138805403  0.1663458386192674
  0.3346355199428195 -0.0022028960612506  0.1669586679866284
 -0.0027906312506487  0.0018050065159405  0.1668351217105735
  0.5565667544111994  0.8917175725552950  0.0827307376202038
  0.2217896633761083  0.8912279717830361  0.0830819786401637
  0.8917382845210676  0.8876572428468640  0.0830878482640732
  0.5563111353416657  0.5570066066389195  0.0840003506434684
  0.2249076683306226  0.5526840592975037  0.0839988474984982
  0.8871359506019644  0.5539204763215433  0.0835935478295938
  0.5563365008058266  0.2237059638370532  0.0836784990375709
  0.2252241433877930  0.2195299158315595  0.0827833847170104
  0.8893653729199321  0.2210251210842686  0.0832488444274257
  0.7774603204171299  0.7780259028956128 -0.0003992167789700
  0.4421218491437762  0.7780421526110398  0.0006142768040926
  0.1125814618466983  0.7776347205525239  0.0005258838226168
  0.7779944178428511  0.4437089259728633 -0.0006965875638660
  0.4458394797521862  0.4453998532393230  0.0002361353685270
  0.1111421069637201  0.4423686545641662  0.0001316978641161
  0.7780260019416126  0.1132425821441884  0.0007267986889604
  0.4439233921657063  0.1109275605044067  0.0002469770537620
 -0.0015077579934582  0.6682765277326043  0.1662905419343743
  0.3336535217228639  0.6660683908096642  0.1667649703155100
  0.6645401759518837  0.6691394751262922  0.1669361647848684
  0.1111759937880976  0.1107224394704930  0.2507222374742339
 -0.0010996047722853  0.6646151974922344  0.4174163294011326
  0.6641294594301904  0.3343367667062118  0.4173071473115513
  0.3308709562028094  0.3336593643945661  0.4166058833726973
 -0.0033427244546675  0.3360743074847737  0.4168547973401486
  0.6655000352525675 -0.0006282461900473  0.4168670873110334
  0.3340570659149856 -0.0017199137767145  0.4173964958786731
  0.0006818553689770  0.0001770239125934  0.4171724972927301
  0.5565258115455701  0.8884243396891878  0.3327075205648131
  0.2216077792786253  0.8904201215215068  0.3336481414816082
  0.8890890966770001  0.8911523768860038  0.3333373591981195
  0.5535361993395925  0.5574589560386171  0.3340660371057602
  0.5990277740762130  0.9340913701260647  0.9169894070573354
  0.2202642953391284  0.5585269027333268  0.3329282785582610
  0.5571237683971270  0.2232348300117678  0.3333007238135470
  0.2228625695081383  0.2243733027745621  0.3328286323538595
  0.8867410800095196  0.2241134380864895  0.3340295892716272
  0.7747986991414594  0.7790000554115764  0.2507232949558602
  0.4429523425765681  0.7761733856750040  0.2500974612368878
  0.1131921050549377  0.7780037023150183  0.2494725291040624
  0.7788649342213179  0.4430967136024558  0.2503195614084300
  0.4438864645083719  0.4446305384110728  0.2507721758404631
  0.1140625107075060  0.4422713929228024  0.2496276661434052
  0.7795066033492289  0.1088395586345005  0.2495594207125750
  0.4453426637113925  0.1124209485922809  0.2494272073216321
  0.8915577240165251  0.5535992218211513  0.3325913567776210
  0.9333000449581439  0.9305543833174704  0.9173951993130018
