Cu
 1.0000000000000000
    13.7663459599999989    0.0000000000000000    0.0000000000000000
     0.0000000000000000   13.4350387827040088    0.0000000000000000
     0.0000000000000000    0.0000000000000000   15.4757640000000016
 Cu 
 236
Direct
  0.0460451147923933  0.0366742068498024  0.1559749812674842
  0.8796795471497798  0.0748728312304543  0.6691128140749626
  0.7603741043857943  0.0927142386038803  0.9470893973312079
  0.6878566765294341  0.1394279109758544  0.0296161145905304
  0.7774011354280973  0.2266178342016835  0.1413391933348172
  0.6932248403264740  0.1297442768528561  0.2682537676330551
  0.7750911542542694  0.2374179518899776  0.3984961259424740
  0.6819945544939655  0.1487319406866523  0.5204028699326250
  0.7778660372995594  0.2404771168588880  0.6295218769167069
  0.7771904767675909  0.1633504321682580  0.7895785952796902
  0.8638874117035483  0.2544406046488537  0.9197627981403700
  0.6883578988596042  0.3175665854306751  0.0203952451071237
  0.7748732315020216  0.4119466628170089  0.1418819775230487
  0.6896218508226422  0.3233425270751384  0.2637241043479341
  0.7787740487672592  0.4257166267889897  0.3794276004725841
  0.6896726994648332  0.3354600953704817  0.5131722091394002
  0.6853941494290327  0.4205733591648607  0.6566740097613277
  0.7705365687322884  0.3427693411112844  0.7883056371239572
  0.7837790079772193  0.4233868977494061  0.9288738184428247
  0.7719458025301582  0.6040339386142579  0.1238731735635156
  0.6843408561265012  0.5123110921133278  0.2573916221519018
  0.6916848528772555  0.5891326046294438  0.4059981788298142
  0.6012541747861172  0.5068775387622217  0.5225546215359709
  0.7831470319957003  0.5780570876617102  0.6895899937476433
  0.6804545670447469  0.5030517217451419  0.8059267380918964
  0.7705293046405467  0.5899513592439942  0.9377716020999031
  0.7783018828040552  0.0482633062575722  0.3931329012254258
  0.7790137637947319  0.0336597012235040  0.1473421279879950
  0.4110657248076308  0.9030059077291529  0.1511351555890875
  0.3184776114692385  0.9737686360975972  0.0229863934342759
  0.5976293930070606  0.4188018719079247  0.3840671129386571
  0.5071406021819898  0.3410276267494231  0.5137214550441584
  0.5072786199250801  0.4226649050438480  0.6462383375709271
  0.5875105132110162  0.3390179563318907  0.7945993490208302
  0.6069564868032709  0.4236176376862338  0.9344696649548287
  0.5083972900532859  0.4950353697463183  0.0131193522982129
  0.5937576321087895  0.5911571614945135  0.1235436260206604
  0.4979660543123530  0.5083736267397183  0.2538958335110309
  0.5100026543281787  0.5952583777910331  0.4045055223121780
  0.4107678970462253  0.5002605128319024  0.5179861879516902
  0.5911570872652978  0.5828579669924818  0.6776035095908673
  0.5073222044755294  0.5105098319613173  0.8005958219574816
  0.6864619709150475  0.7661547955189689  0.1358984280194504
  0.5801156678180709  0.6054853672491421  0.9382433074063419
  0.4009904295620361  0.6675395238082801  0.2687319346560211
  0.6008328574651048  0.7517744871979595  0.4192511594257965
  0.4996150031376955  0.6677181611787270  0.5533188539189410
  0.5792512409008208  0.7715734624225378  0.6708768626867148
  0.4945519311938025  0.6950199059620926  0.8066375269098186
  0.4846219177830396  0.7677774183005320  0.9583069372213225
  0.5011477264951721  0.8208848198897661  0.2736428392162095
  0.5908374672286675  0.9453280780776301  0.4148571921877333
  0.5024479989169180  0.8519007333336824  0.5267870458608701
  0.4979006774866785  0.9218670367588824  0.7027202017296206
  0.3939515246644287  0.8473380371635069  0.8256349734979158
  0.3941331269579688  0.9180561061893394  0.9841085713118912
  0.4976319060922396  0.7437730216466737  0.1238667118469888
  0.5051647692282754  0.3254489594016630  0.2683700785305334
  0.5943532876316003  0.6721022199784550  0.2603381648880148
  0.6771058207518706  0.6688644176390972  0.5654345724062479
  0.8709045243259310  0.5164792974237653  0.2518927013877957
  0.8705485838305925  0.5834087655513610  0.4062178771917173
  0.7924160130579779  0.5003126153982828  0.5326865930496226
  0.9643062159393820  0.5701449407956476  0.6864495995157334
  0.8792073811865762  0.5055079855887924  0.8103013201803803
  0.9434655367327410  0.5963450884612544  0.9405242933402188
  0.8677446444183363  0.7539702382097082  0.1054702048958618
  0.7857911613896416  0.6735387621658022  0.2678272943423020
  0.9650544173887666  0.7343647868031146  0.4323102885259819
  0.8679335108036179  0.6593966370053896  0.5524400604713281
  0.9518555626942854  0.7614283484258833  0.6677881621870172
  0.8583013251542606  0.6842049018262613  0.8043306941098355
  0.8606766831537626  0.7659314988059098  0.9639286305994327
  0.8710933907112123  0.8200809517227535  0.3069400644775922
  0.9677566595166405  0.9327862460274750  0.4244980732453664
  0.8727350754448132  0.8473529236110442  0.5419397711156619
  0.8551777657053740  0.9227155642685073  0.7015829396209456
  0.7553182965336432  0.8350939340640972  0.8269337785197550
  0.7586089300925866  0.9196489560758280  0.9868806477017873
  0.6864910272820137  0.9757410903962862  0.0361166014162536
  0.7848831499219421  0.9100248677429786  0.1805811978006384
  0.9682506177550693  0.4956829302141900  0.5343278690473702
  0.9644587618659556  0.6681200952622335  0.2823596948105441
  0.9529960250977160  0.8498538467973066  0.8211634656615340
  0.9502865188781002  0.9241967657984663  0.9774788501556372
  0.9534391346939534  0.5986003852631518  0.1314269201830682
  0.8634588302907941  0.5059545790149107  0.0200204655485829
  0.9567007118859302  0.4154003186456570  0.9350318342926400
  0.9617928401967896  0.3315598461157150  0.7921632818903156
  0.7681466825493032  0.7644800701710253  0.6723242871886649
  0.6752244209907970  0.6781461176785895  0.8014746154050941
  0.6643863961123350  0.7623587513969633  0.9632436886476172
  0.6875588487680285  0.8338881318135773  0.2954963645090481
  0.7802559234825448  0.9339473889353824  0.4156067513048143
  0.6878203560707259  0.8518411875435329  0.5446278451907126
  0.6788637309533371  0.9358081948775420  0.6957997033296711
  0.5788953004054826  0.8471593997930594  0.8326653210788173
  0.5836678086797117  0.9271889417534588  0.9854655317824697
  0.5017070615592751  0.9899799774656918  0.0302364393770805
  0.5931982970446866  0.9143642672000950  0.1672506766063376
  0.9657517701959598  0.0506972404299171  0.4010097336713072
  0.7826530737572719  0.7483208313693114  0.4313087224643644
  0.9449256191728019  0.0924686122195153  0.9460038289547449
  0.9591341826193651  0.2276971016481361  0.1499461997481998
  0.8615193177957879  0.1477345487016547  0.2746444052778266
  0.9597153099586930  0.2312698490570824  0.3911233073856648
  0.8687035045282272  0.1398000721642862  0.5222509208592224
  0.9611536001235292  0.2479277838512950  0.6362549855373862
  0.9525456514097370  0.1568152816993934  0.8026441860964024
  0.8767739104531412  0.3240421901093904  0.0257132378084859
  0.9685121250577666  0.4141051977099141  0.1440531142759741
  0.8662409774278259  0.3270269228406143  0.2627806937350557
  0.9636887681413465  0.4200448902772873  0.3830009297117740
  0.8828394270573743  0.3323339413876535  0.5035700983809264
  0.8648026872629897  0.4055231607046740  0.6645960742228948
  0.8651005150243950  0.1410207608623430  0.0272317411922282
  0.5955591268607054  0.4100858568748492  0.1462500978950057
  0.5010896137612395  0.3129294570228134  0.0191287486679174
  0.6835708624018919  0.2546415716906067  0.9144835757381671
  0.3303544014667491  0.2676374403906494  0.9113948752384700
  0.1413717907173677  0.3053150391074965  0.0297970426532743
  0.2316208665149658  0.4136437178362585  0.1438980330793365
  0.1443500683314224  0.3165617502219089  0.2666448002179410
  0.2344756545694134  0.4310608614548720  0.3786198859067639
  0.1346016572141995  0.3452479346262410  0.5117441697870295
  0.1413572625338845  0.4071085673673939  0.6570358658868150
  0.2289040962036087  0.3398292677226722  0.7793626214511932
  0.2442385938701194  0.4213325679892617  0.9280079484282648
  0.1391998272866303  0.4937551352581127  0.0167314518365621
  0.2288314552861927  0.5999476087652754  0.1212497166537304
  0.1343692062784684  0.5050241760438310  0.2503225042718410
  0.1320301687376742  0.5885892492943331  0.4009515782225680
  0.0342554938957817  0.5109713118349728  0.5306705374933348
  0.2344901827528965  0.5751467871681725  0.6724276746530902
  0.1457810944045168  0.4997171574967917  0.8054485710689310
  0.2230129178011738  0.5961217917481952  0.9318074377458847
  0.1372821070668487  0.7574759966047363  0.1333589734245110
  0.0408222328301853  0.6719012529367020  0.2668386517137379
  0.2328702902945206  0.7441377396113369  0.4217195351389436
  0.1403475537818025  0.6639891060706397  0.5519683551648888
  0.2181605045177871  0.7529505165534047  0.6740883358004170
  0.1246716438034367  0.6816072167310064  0.8006927477053801
  0.1268653995093990  0.7586371395126443  0.9627784450577043
  0.1409286811211303  0.8253209812558748  0.2918971884037520
  0.2347371618721110  0.1624051427496407  0.7928029918264455
  0.2327831211936214  0.2450695859241379  0.6326105774164040
  0.1241994778402330  0.1456653324939733  0.5110850747013201
  0.2303060659097370  0.2388768237486308  0.3939923095234588
  0.0365945314365759  0.0381628516035300  0.3963637594887079
  0.1357929682598213  0.0780659742272001  0.6666832086609749
  0.0346768112167944  0.0993312645341996  0.9467210794891935
  0.0509411126262296  0.2163536286247313  0.1506505268495957
  0.0361732141155633  0.2281511382980231  0.3878924491223826
  0.0583868066613662  0.2396211461254947  0.6381805770623022
  0.0570502137809124  0.1631792380215792  0.7929128410073971
  0.1452798720743467  0.2553263482773214  0.9131136918345355
  0.0484132087001539  0.4016601275687507  0.1403893210054121
  0.0446358809945236  0.4178268095942332  0.3805325539986265
  0.0364710418769687  0.3364798170267851  0.7828002546433248
  0.0637041218162150  0.4143880402131222  0.9247641667319301
  0.2221339627004406  0.9316995353572537  0.4090351855972995
  0.0475051972324542  0.5873760038200453  0.1236793220677186
  0.0418174133987840  0.5985333962492341  0.9434256040606462
  0.0479773631956580  0.7479263405095736  0.4152513568958535
  0.0365654750696095  0.7671968468465781  0.6780041360155142
  0.0436915490681160  0.9342823340049712  0.4191219250952651
  0.2332117026063756  0.0368454009964812  0.1494228007095482
  0.2219015117647095  0.0490597312008165  0.3964219149374471
  0.3202645780376712  0.0867298866938950  0.6693195890038126
  0.1310858368112666  0.0059932384754754  0.8259839061903503
  0.2195697383156570  0.0967112497676390  0.9473543277087970
  0.1423887635611912  0.1244074854107421  0.0311152328246929
  0.2252575221493271  0.2335995780966663  0.1506699119991751
  0.1389383199839328  0.1370460793698901  0.2714846258963372
  0.0473453872141392  0.5830068314678545  0.6821202494429356
  0.1381320058006155  0.8412345936732234  0.5400464881733787
  0.1271850195460292  0.9231770441421628  0.6983068493419775
  0.0394057349405738  0.8391579342417732  0.8314311332222435
  0.3156954643322070  0.7542754103842219  0.1327515720710141
  0.2268628864242199  0.6728912016979309  0.2676011342638726
  0.4180683092465300  0.7537543847204173  0.4136100808981065
  0.3179182764051355  0.6769477586518386  0.5487116500355009
  0.4024505120020970  0.7698094183893701  0.6718073498665397
  0.3110755019845513  0.6872863964664772  0.8090800557568596
  0.3044651784996982  0.7600141359098421  0.9524526220482556
  0.3239256802754360  0.8373417876422254  0.2859911794984727
  0.4066128365700321  0.9373266125263443  0.4028383994483248
  0.3162911198550178  0.8605646458003773  0.5436908962943610
  0.3025765146468831  0.9175201940779977  0.6937384157576972
  0.2218288708472934  0.8538359715135281  0.8238192311539517
  0.4071213229919437  0.6071973087159289  0.9335004074758441
  0.2110271664275389  0.9190013956079567  0.9795207525780312
  0.2321874656708106  0.9170438277568048  0.1558134383543198
  0.5957334650625039  0.0393463241827437  0.1517942506747973
  0.5833263963678567  0.0481069985584309  0.3877696765083780
  0.6841374615577365  0.0693648456416618  0.6682663292099826
  0.5768686188095770  0.0901239967323941  0.9450733417749201
  0.5071188099067647  0.1348949877007536  0.0370664737456583
  0.6010507802173527  0.2376412486030368  0.1441112697247128
  0.5087096459981746  0.1436333324051350  0.2566420630348203
  0.5882805069356254  0.2385195490077361  0.3927128896511994
  0.5019395124950065  0.1485012007498245  0.5179215707864248
  0.6027287854096616  0.2471611318031252  0.6434468760314517
  0.5889633315593354  0.1553861827358150  0.7991290123059517
  0.1218386480242140  0.9940067615245249  0.0360713694005675
  0.8711732957203699  0.9775795666671401  0.0400065547652446
  0.3238457752662783  0.5046371284078619  0.8077037101367017
  0.2277563697084365  0.5041161027440570  0.5307674632412334
  0.0314878749422334  0.9307914620574798  0.9751784790721804
  0.0485657546267274  0.9073378639625004  0.1653961639632137
  0.4147994679628116  0.0350218111731648  0.1529638213661051
  0.3984116769937693  0.0508237752339839  0.3928808942808901
  0.4953437171936365  0.0824500330269282  0.6775712010082348
  0.3102183391590428  0.0070427330268533  0.8273408666609288
  0.3972421582233721  0.1015195723221795  0.9430120542029462
  0.3169013035613120  0.1219884376859348  0.0360002905187752
  0.4131505191374691  0.2257618634682902  0.1408416411622719
  0.3142717023508539  0.1407304751353660  0.2666641853675205
  0.4113199680185866  0.2320737172240953  0.3856696186372448
  0.3219861677804295  0.1501759260977682  0.5125583460693769
  0.4018112719288364  0.5846145678018803  0.6728218393612103
  0.4083562185880151  0.2531529269368791  0.6306914476080148
  0.5031017671736618  0.2659924879377801  0.9361755581178417
  0.3222622032666104  0.3214221753428297  0.0260427853513405
  0.4173273718888871  0.4140605383673021  0.1301345768777557
  0.3317563711728774  0.3209234793503308  0.2672457398549112
  0.4237851494471668  0.4223225167504907  0.3792789809924733
  0.3324319317048459  0.3277563587699410  0.5055086133388956
  0.3257417032108351  0.4141424138287572  0.6517889520672455
  0.4115887394130259  0.3356015166220858  0.7720673434927025
  0.4208867768422697  0.4258133886979821  0.9254426469672193
  0.4092206455052652  0.5901597695095159  0.1227682200374732
  0.3232937042939170  0.5019873407462264  0.2570233043098873
  0.3231847429177930  0.5884627144902663  0.3957822050013171
  0.4181046297052382  0.1611621243802781  0.7954910659014962
  0.9671174194433799  0.9076504793607830  0.1814406060986715
