Cu
 1.0000000000000000
    13.7663459599999989    0.0000000000000000    0.0000000000000000
     0.0000000000000000   13.4350387827040088    0.0000000000000000
     0.0000000000000000    0.0000000000000000   15.4757640000000016
 Cu 
 240
Direct
  0.9624611366370163  0.1454866951235259  0.0261817122566614
  0.4164048322377035  0.8741485291781420  0.2955060570838378
  0.5139470561438652  0.9654545551480282  0.4182851328050753
  0.4164556808798948  0.8810856137305126  0.5408638953139892
  0.4074336789368315  0.9456332502521444  0.7048687224747031
  0.3109229560579773  0.8779073571813043  0.8396084354866100
  0.7765367085108471  0.0489257531729811  0.4044505977217023
  0.7716334465852686  0.0296850197310509  0.6385392023295265
  0.7671515019807033  0.0235592465694616  0.8884460889943787
  0.7798927188954647  0.0702878053889729  0.1744974916908787
  0.8674976652991209  0.1549098164146220  0.3088042696955057
  0.6799460806228341  0.1265362474085727  0.5255108568468737
  0.7735221104380834  0.2098705807222472  0.6482899325681112
  0.5179931552439346  0.9637426136812413  0.1686044062186526
  0.6864111222728557  0.1225392362448138  0.7555156566099096
  0.5904524703663621  0.1461640284864720  0.0308341481557875
  0.6834909573927334  0.2312400761620076  0.1606112628752933
  0.7673113119990185  0.2584822751552239  0.4364490179612456
  0.8505432751742349  0.3462378833874697  0.5612829195379302
  0.6779775117608616  0.3043697496888792  0.7595025357067995
  0.7710232628789748  0.3948570210442150  0.8711609972858204
  0.6113803186739023  0.3160407245581041  0.0452502377265511
  0.6926146566201788  0.4179533443982998  0.1562302190702832
  0.5980725026032971  0.3201791569734669  0.2870088998514063
  0.6821834208792464  0.4172685678115851  0.4083405510706937
  0.7673984810999175  0.4520284228111259  0.6942585839380854
  0.8636694889513004  0.5423445000197832  0.8095485302050354
  0.7827765633168784  0.2172617019245050  0.8864881888868297
  0.6084528897020393  0.4993152234132852  0.0471499823853608
  0.4327490386562963  0.8728682946899361  0.0405719549613188
  0.4073755662028988  0.7219867056758691  0.7953586007127014
  0.5975785443648687  0.2012885437170071  0.8843945927322233
  0.3969661227371910  0.1410282040861113  0.0276162133255587
  0.5047507159990035  0.2321853655806249  0.1601977130175933
  0.5895299307151796  0.2557133959132905  0.4379029041797226
  0.6796627810449123  0.3554302647417380  0.5653796478157718
  0.4989975553396587  0.3105773983119236  0.7560261322155081
  0.5933798993382257  0.4026872924488225  0.8618108934718827
  0.4258118310430713  0.3309643882142238  0.0361198322745165
  0.5078379549891823  0.4172760110353537  0.1742648698959225
  0.4182571756318108  0.3201344976308552  0.2831447933685215
  0.4938327861113839  0.4228509856380638  0.4173287987591438
  0.5921014191917046  0.4570823717500315  0.6902135493924563
  0.3981719619662958  0.8132852884219864  0.9748263155214825
  0.6863384813554394  0.5516187568355067  0.8180909194531525
  0.5170560874092686  0.6101373821045410  0.1684751718881212
  0.4261096588044769  0.5142463302931738  0.2865501179780202
  0.3317781634481012  0.6029323414964991  0.4134517688432054
  0.4074917916707647  0.5129884254762739  0.5436295099873584
  0.5029419571553462  0.6135538218143460  0.6617626115259961
  0.4923145909373898  0.6556005928833840  0.9493089969580822
  0.4371292859764795  0.6815848870597003  0.0410048899685988
  0.5171505206019094  0.7901443057252902  0.1595256944988308
  0.4116468521469576  0.6925338692233669  0.2892705006357039
  0.5092762451540183  0.7871372433227599  0.4069512820174823
  0.2373449708073435  0.7043834814630395  0.5414066795022201
  0.3186083651205863  0.7908365255357732  0.6653617876312923
  0.4286956754644854  0.4965612306188891  0.0409596579529127
  0.5035230844946735  0.1181328477737798  0.7597286957852289
  0.6977721617567124  0.5973499236700204  0.1601395575688541
  0.5152691208408358  0.6045103049354504  0.4050386139256194
  0.9499305783827620  0.4019652997432647  0.8649965197194788
  0.7924087489662354  0.3288430694401621  0.0422520012582256
  0.8695606673537347  0.4253370223767890  0.1721454268752095
  0.7753817179239331  0.3268036261275551  0.2830607910536762
  0.8750377925268988  0.4212134764089634  0.4042761313754847
  0.9504463288964149  0.4576778296515225  0.6849860207224663
  0.7897864118475186  0.5092295974731114  0.0465102724492311
  0.8891228664138550  0.5973201507749459  0.1673056011968133
  0.7878033148020630  0.5051581540716661  0.3024136320507342
  0.7078474570023071  0.6104276678315178  0.4242557588756201
  0.7771977408593316  0.5211164258316268  0.5343569467717393
  0.8615774305297201  0.6101448253283097  0.6518244915081414
  0.8638438271530983  0.3130411053793427  0.7556707378065473
  0.8550106915953165  0.6600963000396416  0.9422528025110746
  0.8830500857178797  0.7925410237787914  0.1669695919374319
  0.7957211748004041  0.6865048579707701  0.2920942707578119
  0.8756261839579681  0.7872340052317522  0.4127797503244430
  0.5946583794847469  0.6976250342811158  0.5328125965218907
  0.6889172339237062  0.7901889650679018  0.6709964044424560
  0.7792462147304617  0.7250905299873911  0.8081592611518245
  0.7736819204563987  0.8215770397002498  0.9706132763461630
  0.7864231373711602  0.8743197233248206  0.0434280336660600
  0.8913093580280759  0.9744608559080803  0.1677256127710401
  0.7846216426192443  0.8724291444875866  0.2909182383499777
  0.8849895982128865  0.9823878892216804  0.4148281144633633
  0.7871350183618365  0.8844276212026316  0.5510927925755393
  0.7944354305621411  0.6906953929525135  0.0440806670352430
  0.6064770567483249  0.5080982274602783  0.2839977399500277
  0.9573762724178980  0.2628663339549519  0.4323652131164573
  0.7729264549152733  0.1456430028226672  0.0330569786409253
  0.5952540350075579  0.5152734951732458  0.5303894528244292
  0.6891787412264041  0.6076662318133531  0.6581052799719613
  0.6777886453755800  0.6636541610010503  0.9417810972046354
  0.6172206484341465  0.6876287847598342  0.0463551912525934
  0.6965881148028331  0.7834305178859782  0.1606177245918201
  0.6058232884915812  0.6990690196922315  0.2928696767409995
  0.6904426931894415  0.7835272797949705  0.4251410140397593
  0.4184605702005755  0.7031255766461396  0.5430091852008083
  0.5055497660905792  0.7902782837531254  0.6705957780178091
  0.5837404495971268  0.7111865879875749  0.7935234732191575
  0.5804207596712173  0.8147739331757143  0.9700834155909847
  0.6092955243440640  0.8806762364232377  0.0441905162161946
  0.8673741757395138  0.2373286332047539  0.1654898588528488
  0.7052396480670740  0.9650600642882901  0.1697998237760671
  0.6973435803439584  0.9659532511405267  0.4163789264297387
  0.6052348970605119  0.8739177892413140  0.5434227350585084
  0.5870964599817444  0.9471367814534090  0.7139862044936847
  0.4920821400016587  0.8749151812263118  0.8403192243045318
  0.9549791221431710  0.0614675852231365  0.4064537298449369
  0.9642117827467404  0.0324985583155963  0.6408072648303504
  0.9558871336108709  0.0305112175693697  0.8768666929787764
  0.9527199896115348  0.0830008315858072  0.1739417840695942
  0.8726261140686882  0.1402243359190984  0.5221184556704276
  0.9571583496656502  0.2227250281706854  0.6423257682140928
  0.8729384700135768  0.1231421373700737  0.7615638232787734
  0.9602092681971208  0.2092900092682934  0.8792898366762379
  0.6007892729146547  0.8760018918965327  0.2932121477169077
  0.5858252439269651  0.2195616580690141  0.6425519282925223
  0.4927794928088520  0.1354011269170209  0.5312617845555153
  0.6788564668615952  0.1618394577432242  0.3054441771016926
  0.2193082310129587  0.0504665004930890  0.4163789264297387
  0.2256497831033726  0.0350292543969332  0.6358446665379491
  0.2216763249207194  0.0211774149634973  0.8899581306615943
  0.2185164450131246  0.0859557914219566  0.1853790223216120
  0.3095863631775235  0.1580136407261440  0.3090821235061480
  0.1343328858197595  0.1383933028720134  0.5288451025745806
  0.2233180096543200  0.2219732625700531  0.6498665914005928
  0.1350592949939196  0.1161901663701653  0.7649691478882721
  0.2225770722966773  0.2094239872961288  0.8868112747131580
  0.0229598312375979  0.1435812298387544  0.0251736844785176
  0.1385170026629193  0.2431120180729859  0.1544338618758985
  0.2198893583522866  0.2550509489978817  0.4266207471243424
  0.1307952731416022  0.5474431083013005  0.8165659543528837
  0.3147366042223152  0.3426353630834487  0.5564560172925871
  0.2230928228103308  0.4002905743953210  0.8691901737452187
  0.0542317461851721  0.3191519920933948  0.0407011892918503
  0.1464058062942936  0.4222034251701922  0.1613802071419542
  0.0481081168470061  0.3149019113215025  0.2887212547309456
  0.1371005047733079  0.4300411397985683  0.4120043443412553
  0.2301317277079379  0.4455304884611048  0.6838746054798976
  0.3135743495436598  0.5539708155463964  0.8343292130844071
  0.1287976479126628  0.5044361613661082  0.9741607587192463
  0.0669003221825167  0.4991068131477633  0.0287793223003402
  0.1565537424573041  0.6010566491068023  0.1621039193929295
  0.0577112461293968  0.5037513847793936  0.2892575772026508
  0.0471637849205987  0.5138518394334358  0.5405925032198732
  0.1324660142421691  0.2985565919255727  0.7595736145885913
  0.1468198595235644  0.6056342317245148  0.6611293633063930
  0.0502728161860020  0.4386529496988829  0.6904978649196254
  0.1377542730300516  0.3452404914024721  0.5565270961743793
  0.9652360196823054  0.3260072011843109  0.0445717574912619
  0.9574779697022806  0.3278159045600900  0.2865953499937063
  0.9657372420124758  0.5014812015299589  0.0407011892918503
  0.9675242085809090  0.5178935099398064  0.2884240157707240
  0.8809507632045588  0.6042944514461599  0.4246111532845809
  0.9612843537748768  0.5145366160201504  0.5442046027582224
  0.9773888451659977  0.6848822351892071  0.0419612240145303
  0.9749699026160452  0.6976696936237275  0.2960682264216487
  0.7848323012797503  0.7092066904651170  0.5419753105565578
  0.8730837518484095  0.7887077635379428  0.6785372276289560
  0.9556038340329485  0.7134791009083155  0.8107568711955030
  0.9543979948038436  0.8121911345279967  0.9609400867058969
  0.0485366982597601  0.3937256510313820  0.8669091878113417
  0.9761539495699255  0.8679036644362544  0.0477444603058046
  0.9597952149678495  0.8935083542003703  0.5368964013666790
  0.9632674508203335  0.9746394932785277  0.7050948825531326
  0.8672870066386148  0.8843085296223332  0.8229178216984956
  0.9677639236083815  0.7057455914127000  0.5425762501935284
  0.0345533216571866  0.0460973281408985  0.4210119771792848
  0.0420716566097391  0.0391155842459156  0.6430430187485413
  0.0293885524289112  0.0203437739014099  0.8851247666997248
  0.0378657474913548  0.0818992344680486  0.1849783958969650
  0.1347759954159972  0.1688286448619754  0.3102129238982966
  0.0449627651228945  0.2271016437466449  0.6415568239474314
  0.0520525186626930  0.2106223463228797  0.8822234559792974
  0.0397979958946191  0.2489996080739788  0.4414568482693326
  0.9723257732221039  0.8844127347550944  0.2980325882457241
  0.1089303569993958  0.6763225278552728  0.9433900646197499
  0.0689851165123551  0.6788532239366099  0.0407593447405892
  0.1480039064774448  0.7807286276579627  0.1722229674735281
  0.2457132044936630  0.5160848065640273  0.0372635560997183
  0.3339719191540635  0.6042423488797796  0.1558231309291095
  0.2442821784205685  0.5226497299279663  0.2890184936911678
  0.1382772876354469  0.6034235942652294  0.4128831377888678
  0.2264125127362403  0.5255898033165786  0.5355006705969414
  0.3283858326047759  0.6082393600435382  0.6663633536929099
  0.2955521379327582  0.6670780439346239  0.9623616643417409
  0.2486696898324930  0.6939555249631769  0.0408304236223815
  0.3303979860171979  0.7802597045605383  0.1585693604528993
  0.2330664207715429  0.6965234371633572  0.2887406398805255
  0.3167487576347377  0.7830509134737778  0.4118234162785115
  0.0521760082223001  0.6967169609813419  0.5421045448870893
  0.4977190751931381  0.5412056867831816  0.8096777645355668
  0.1296766030133963  0.7892287892017473  0.6726312187236767
  0.2066541831990972  0.8275762780577720  0.9647008057243570
  0.2403014561461734  0.8735158551578074  0.0433117227685819
  0.3349743638144041  0.9656183060709379  0.1561203698893316
  0.2308218164233898  0.8881641195344878  0.2917582614984309
  0.3278700820911225  0.9719524894980495  0.4169410957675500
  0.2352674405692470  0.8822839727572636  0.5397912503705793
  0.2195043614899816  0.9465264371043810  0.7186321786762839
  0.1181412253277407  0.8690945802392365  0.8341418233051370
  0.5915130277606353  0.0565550575358353  0.4000889390662716
  0.5850552502023556  0.0325804337770511  0.6489231807877144
  0.5849390247344903  0.0176121107783197  0.8838259616778856
  0.5905759599259692  0.0668415927840933  0.1764553917984274
  0.2234487633056690  0.7191880535388607  0.7993390180930646
  0.4070995307167183  0.4437292283090942  0.6905947906675238
  0.3178964841299099  0.4179459011745312  0.3984993568007369
  0.2307201191390072  0.3315524028919462  0.2792096080038440
  0.0523212900571322  0.6961363895273879  0.2961199201538611
  0.1430861163683836  0.7877996902381690  0.4202753414952569
  0.0360497245559557  0.6995602724609614  0.7945573478634076
  0.0226111548340015  0.8242863731520341  0.9704840420156317
  0.0583722784778824  0.8708214081535608  0.0454957829545604
  0.1521517028618964  0.9637575001287785  0.1661877242377179
  0.0468369007922268  0.8748928515550057  0.2925078206155123
  0.1350084463517283  0.9683425259702596  0.4174321862235686
  0.0432920240223276  0.8852240461458759  0.5533802402259431
  0.0381998957114680  0.9442339241836405  0.7044939429161624
  0.4068816079644704  0.0535182222382308  0.4098332075883299
  0.4064167060930082  0.0387731959525583  0.6446132158644960
  0.4011139191216426  0.0259559646229631  0.8819908341843412
  0.4053852050657013  0.0748877176779913  0.1685914827855995
  0.4936293915426191  0.1494316037209040  0.3015413003196480
  0.3165598912494561  0.1444967463622969  0.5268548938843990
  0.4042011581118209  0.2203580830122584  0.6429977867328552
  0.3203735394137945  0.1266851118839454  0.7696732775196106
  0.4189109438885545  0.2064169248935991  0.8830182471120650
  0.2223518854526876  0.1383039841867897  0.0253546125412614
  0.3230903097251516  0.2336293509917405  0.1559006715274285
  0.4110294043489220  0.2504435934850947  0.4333409323119686
  0.4965277641475159  0.3462750995063128  0.5609275251289694
  0.3194655279460947  0.3012882550486630  0.7644780574322535
  0.4073828302946407  0.3947379294639168  0.8714259276634095
  0.2365749770827340  0.3284932379230358  0.0382521987282826
  0.3347709692456393  0.4270638502911130  0.1674736058265041
  0.7832559933718232  0.9676503061597764  0.7004812169531662
  0.6862367840710573  0.8836237530356185  0.8355181689252948
