Cu
 1.0000000000000000
     7.6685730419681093    0.0000000000000000    0.0000000000000000
     3.8342865209840546    6.6411790651208911    0.0000000000000000
     0.0000000000000000    0.0000000000000000   45.9166669086509458
 Cu 
 198
Direct
  0.1666955875677061  0.0555658268327427  0.0000000000000000
  0.0555735504564958  0.2777445161938142  0.6363636363636362
  0.3889068837898291  0.2777445161938142  0.6363636363636362
  0.7222402171231626  0.2777445161938142  0.6363636363636362
  0.0555735504564958  0.6110778495271476  0.6363636363636362
  0.3889068837898292  0.6110778495271476  0.6363636363636362
  0.7222402171231624  0.6110778495271476  0.6363636363636362
  0.0555735504564959  0.9444111828604809  0.6363636363636362
  0.3889068837898291  0.9444111828604809  0.6363636363636362
  0.7222402171231624  0.9444111828604809  0.6363636363636362
  0.9444624393453845  0.8333000717493699  0.5909090909090908
  0.1666846615676069  0.0555222939715920  0.6818181818181818
  0.8333513282342735  0.0555222939715920  0.6818181818181818
  0.1666846615676069  0.3888556273049253  0.6818181818181818
  0.5000179949009402  0.3888556273049253  0.6818181818181818
  0.8333513282342736  0.3888556273049253  0.6818181818181818
  0.1666846615676071  0.7221889606382587  0.6818181818181818
  0.5000179949009402  0.7221889606382587  0.6818181818181818
  0.8333513282342736  0.7221889606382587  0.6818181818181818
  0.2777957726787180  0.1666334050827031  0.7272727272727272
  0.6111291060120513  0.1666334050827031  0.7272727272727272
  0.5000179949009402  0.0555222939715920  0.6818181818181818
  0.6111291060120513  0.8333000717493699  0.5909090909090908
  0.2777957726787180  0.8333000717493699  0.5909090909090908
  0.9444624393453845  0.4999667384160364  0.5909090909090908
  0.4444636379397304  0.1123629048671656  0.5000000000000000
  0.1111303046063972  0.7790295715338323  0.5000000000000000
  0.7777969712730640  0.7790295715338323  0.5000000000000000
  0.4444636379397304  0.7790295715338323  0.5000000000000000
  0.1111303046063971  0.4456962382004990  0.5000000000000000
  0.7777969712730639  0.4456962382004990  0.5000000000000000
  0.4444636379397304  0.4456962382004990  0.5000000000000000
  0.1666846615676069  0.0555222939715920  0.5454545454545454
  0.5000179949009402  0.0555222939715920  0.5454545454545454
  0.8333513282342735  0.0555222939715920  0.5454545454545454
  0.1666846615676069  0.3888556273049253  0.5454545454545454
  0.5000179949009402  0.3888556273049253  0.5454545454545454
  0.8333513282342736  0.3888556273049253  0.5454545454545454
  0.1666846615676071  0.7221889606382587  0.5454545454545454
  0.5000179949009402  0.7221889606382587  0.5454545454545454
  0.8333513282342736  0.7221889606382587  0.5454545454545454
  0.2777957726787180  0.1666334050827031  0.5909090909090908
  0.6111291060120513  0.1666334050827031  0.5909090909090908
  0.9444624393453845  0.1666334050827031  0.5909090909090908
  0.2777957726787180  0.4999667384160364  0.5909090909090908
  0.6111291060120513  0.4999667384160364  0.5909090909090908
  0.9444624393453845  0.1666334050827031  0.7272727272727272
  0.2777957726787180  0.4999667384160364  0.7272727272727272
  0.6111291060120513  0.4999667384160364  0.7272727272727272
  0.9444624393453845  0.4999667384160364  0.7272727272727272
  0.6111291060120513  0.4999667384160364  0.8636363636363636
  0.9444624393453845  0.4999667384160364  0.8636363636363636
  0.2777957726787180  0.8333000717493699  0.8636363636363636
  0.6111291060120513  0.8333000717493699  0.8636363636363636
  0.9444624393453845  0.8333000717493699  0.8636363636363636
  0.0555735504564958  0.2777445161938142  0.9090909090909091
  0.3889068837898291  0.2777445161938142  0.9090909090909091
  0.7222402171231626  0.2777445161938142  0.9090909090909091
  0.0555735504564958  0.6110778495271476  0.9090909090909091
  0.3889068837898292  0.6110778495271476  0.9090909090909091
  0.7222402171231624  0.6110778495271476  0.9090909090909091
  0.0555735504564959  0.9444111828604809  0.9090909090909091
  0.3889068837898291  0.9444111828604809  0.9090909090909091
  0.7222402171231624  0.9444111828604809  0.9090909090909091
  0.1666846615676069  0.0555222939715920  0.9545454545454545
  0.5000179949009402  0.0555222939715920  0.9545454545454545
  0.8333513282342735  0.0555222939715920  0.9545454545454545
  0.1666846615676069  0.3888556273049253  0.9545454545454545
  0.5000179949009402  0.3888556273049253  0.9545454545454545
  0.8333513282342736  0.3888556273049253  0.9545454545454545
  0.1666846615676071  0.7221889606382587  0.9545454545454545
  0.2777957726787180  0.4999667384160364  0.8636363636363636
  0.7777969712730639  0.1123629048671656  0.5000000000000000
  0.9444624393453845  0.1666334050827031  0.8636363636363636
  0.2777957726787180  0.1666334050827031  0.8636363636363636
  0.2777957726787180  0.8333000717493699  0.7272727272727272
  0.6111291060120513  0.8333000717493699  0.7272727272727272
  0.9444624393453845  0.8333000717493699  0.7272727272727272
  0.0555735504564958  0.2777445161938142  0.7727272727272727
  0.3889068837898291  0.2777445161938142  0.7727272727272727
  0.7222402171231626  0.2777445161938142  0.7727272727272727
  0.0555735504564958  0.6110778495271476  0.7727272727272727
  0.3889068837898292  0.6110778495271476  0.7727272727272727
  0.7222402171231624  0.6110778495271476  0.7727272727272727
  0.0555735504564959  0.9444111828604809  0.7727272727272727
  0.3889068837898291  0.9444111828604809  0.7727272727272727
  0.7222402171231624  0.9444111828604809  0.7727272727272727
  0.1666846615676069  0.0555222939715920  0.8181818181818181
  0.5000179949009402  0.0555222939715920  0.8181818181818181
  0.8333513282342735  0.0555222939715920  0.8181818181818181
  0.1666846615676069  0.3888556273049253  0.8181818181818181
  0.5000179949009402  0.3888556273049253  0.8181818181818181
  0.8333513282342736  0.3888556273049253  0.8181818181818181
  0.1666846615676071  0.7221889606382587  0.8181818181818181
  0.5000179949009402  0.7221889606382587  0.8181818181818181
  0.8333513282342736  0.7221889606382587  0.8181818181818181
  0.6111291060120513  0.1666334050827031  0.8636363636363636
  0.1111303046063971  0.1123629048671656  0.5000000000000000
  0.5555747490508415  0.2234740159782767  0.4545454545454545
  0.8889080823841750  0.2234740159782767  0.4545454545454545
  0.7222511431232618  0.9444547157216314  0.0909090909090909
  0.1666955875677061  0.0555658268327427  0.1363636363636364
  0.5000289209010396  0.0555658268327427  0.1363636363636364
  0.8333622542343728  0.0555658268327427  0.1363636363636364
  0.1666955875677061  0.3888991601660761  0.1363636363636364
  0.5000289209010395  0.3888991601660761  0.1363636363636364
  0.8333622542343728  0.3888991601660761  0.1363636363636364
  0.1666955875677064  0.7222324934994093  0.1363636363636364
  0.5000289209010396  0.7222324934994093  0.1363636363636364
  0.8333622542343728  0.7222324934994093  0.1363636363636364
  0.2778066986788172  0.1666769379438538  0.1818181818181818
  0.6111400320121506  0.1666769379438538  0.1818181818181818
  0.9444733653454839  0.1666769379438538  0.1818181818181818
  0.2778066986788174  0.5000102712771871  0.1818181818181818
  0.6111400320121506  0.5000102712771871  0.1818181818181818
  0.9444733653454838  0.5000102712771871  0.1818181818181818
  0.2778066986788174  0.8333436046105205  0.1818181818181818
  0.6111400320121506  0.8333436046105205  0.1818181818181818
  0.9444733653454838  0.8333436046105205  0.1818181818181818
  0.0555844764565951  0.2777880490549649  0.2272727272727273
  0.3889178097899285  0.2777880490549649  0.2272727272727273
  0.3889178097899285  0.9444547157216314  0.0909090909090909
  0.7222511431232619  0.2777880490549649  0.2272727272727273
  0.0555844764565953  0.9444547157216314  0.0909090909090909
  0.3889178097899286  0.6111213823882983  0.0909090909090909
  0.5000289209010396  0.0555658268327427  0.0000000000000000
  0.8333622542343728  0.0555658268327427  0.0000000000000000
  0.1666955875677061  0.3888991601660761  0.0000000000000000
  0.5000289209010395  0.3888991601660761  0.0000000000000000
  0.8333622542343728  0.3888991601660761  0.0000000000000000
  0.1666955875677064  0.7222324934994093  0.0000000000000000
  0.5000289209010396  0.7222324934994093  0.0000000000000000
  0.8333622542343728  0.7222324934994093  0.0000000000000000
  0.2778066986788172  0.1666769379438538  0.0454545454545454
  0.6111400320121506  0.1666769379438538  0.0454545454545454
  0.9444733653454839  0.1666769379438538  0.0454545454545454
  0.2778066986788174  0.5000102712771871  0.0454545454545454
  0.6111400320121506  0.5000102712771871  0.0454545454545454
  0.9444733653454838  0.5000102712771871  0.0454545454545454
  0.2778066986788174  0.8333436046105205  0.0454545454545454
  0.6111400320121506  0.8333436046105205  0.0454545454545454
  0.9444733653454838  0.8333436046105205  0.0454545454545454
  0.0555844764565951  0.2777880490549649  0.0909090909090909
  0.3889178097899285  0.2777880490549649  0.0909090909090909
  0.7222511431232619  0.2777880490549649  0.0909090909090909
  0.0555844764565951  0.6111213823882983  0.0909090909090909
  0.7222511431232618  0.6111213823882983  0.0909090909090909
  0.5000179949009402  0.7221889606382587  0.9545454545454545
  0.0555844764565951  0.6111213823882983  0.2272727272727273
  0.7222511431232618  0.6111213823882983  0.2272727272727273
  0.3889178097899286  0.6111213823882983  0.3636363636363636
  0.7222511431232618  0.6111213823882983  0.3636363636363636
  0.0555844764565953  0.9444547157216314  0.3636363636363636
  0.3889178097899285  0.9444547157216314  0.3636363636363636
  0.7222511431232618  0.9444547157216314  0.3636363636363636
  0.1666955875677061  0.0555658268327427  0.4090909090909091
  0.5000289209010396  0.0555658268327427  0.4090909090909091
  0.8333622542343728  0.0555658268327427  0.4090909090909091
  0.1666955875677061  0.3888991601660761  0.4090909090909091
  0.5000289209010395  0.3888991601660761  0.4090909090909091
  0.8333622542343728  0.3888991601660761  0.4090909090909091
  0.1666955875677064  0.7222324934994093  0.4090909090909091
  0.5000289209010396  0.7222324934994093  0.4090909090909091
  0.8333622542343728  0.7222324934994093  0.4090909090909091
  0.2222414157175083  0.8901406826449433  0.4545454545454545
  0.8889080823841750  0.8901406826449433  0.4545454545454545
  0.5555747490508416  0.8901406826449433  0.4545454545454545
  0.2222414157175083  0.5568073493116100  0.4545454545454545
  0.8889080823841750  0.5568073493116100  0.4545454545454545
  0.5555747490508416  0.5568073493116100  0.4545454545454545
  0.2222414157175081  0.2234740159782767  0.4545454545454545
  0.0555844764565951  0.6111213823882983  0.3636363636363636
  0.3889178097899286  0.6111213823882983  0.2272727272727273
  0.7222511431232619  0.2777880490549649  0.3636363636363636
  0.0555844764565951  0.2777880490549649  0.3636363636363636
  0.0555844764565953  0.9444547157216314  0.2272727272727273
  0.3889178097899285  0.9444547157216314  0.2272727272727273
  0.7222511431232618  0.9444547157216314  0.2272727272727273
  0.1666955875677061  0.0555658268327427  0.2727272727272727
  0.5000289209010396  0.0555658268327427  0.2727272727272727
  0.8333622542343728  0.0555658268327427  0.2727272727272727
  0.1666955875677061  0.3888991601660761  0.2727272727272727
  0.5000289209010395  0.3888991601660761  0.2727272727272727
  0.8333622542343728  0.3888991601660761  0.2727272727272727
  0.1666955875677064  0.7222324934994093  0.2727272727272727
  0.5000289209010396  0.7222324934994093  0.2727272727272727
  0.8333622542343728  0.7222324934994093  0.2727272727272727
  0.2778066986788172  0.1666769379438538  0.3181818181818181
  0.6111400320121506  0.1666769379438538  0.3181818181818181
  0.9444733653454839  0.1666769379438538  0.3181818181818181
  0.2778066986788174  0.5000102712771871  0.3181818181818181
  0.6111400320121506  0.5000102712771871  0.3181818181818181
  0.9444733653454838  0.5000102712771871  0.3181818181818181
  0.2778066986788174  0.8333436046105205  0.3181818181818181
  0.6111400320121506  0.8333436046105205  0.3181818181818181
  0.9444733653454838  0.8333436046105205  0.3181818181818181
  0.3889178097899285  0.2777880490549649  0.3636363636363636
  0.8333513282342736  0.7221889606382587  0.9545454545454545
