Cu
 1.0000000000000000
     7.6685730419681093    0.0000000000000000    0.0000000000000000
     3.8342865209840546    6.6411790651208911    0.0000000000000000
     0.0000000000000000    0.0000000000000000  400.7272748391354753
 Cu 
 1728
Direct
  0.2778661962290262  0.1665978882302482  0.0000000000000000
  0.1664640063974930  0.7224215825972257  0.6666666666666667
  0.8331306730641594  0.3890882492638922  0.6666666666666667
  0.4997973397308262  0.3890882492638922  0.6666666666666667
  0.1664640063974929  0.3890882492638922  0.6666666666666667
  0.8331306730641594  0.0557549159305590  0.6666666666666667
  0.4997973397308261  0.0557549159305590  0.6666666666666667
  0.1664640063974929  0.0557549159305590  0.6666666666666667
  0.7220195619530484  0.9446438048194478  0.6614583333333334
  0.3886862286197151  0.9446438048194478  0.6614583333333334
  0.0553528952863819  0.9446438048194478  0.6614583333333334
  0.7220195619530483  0.6113104714861146  0.6614583333333334
  0.3886862286197151  0.6113104714861146  0.6614583333333334
  0.0553528952863818  0.6113104714861146  0.6614583333333334
  0.7220195619530484  0.2779771381527811  0.6614583333333334
  0.3886862286197151  0.2779771381527811  0.6614583333333334
  0.0553528952863819  0.2779771381527811  0.6614583333333334
  0.9442417841752705  0.8335326937083368  0.6562500000000001
  0.6109084508419372  0.8335326937083368  0.6562500000000001
  0.2775751175086040  0.8335326937083368  0.6562500000000001
  0.9442417841752706  0.5001993603750033  0.6562500000000001
  0.6109084508419373  0.5001993603750033  0.6562500000000001
  0.2775751175086040  0.5001993603750033  0.6562500000000001
  0.9442417841752706  0.1668660270416701  0.6562500000000001
  0.4997973397308261  0.7224215825972257  0.6666666666666667
  0.6109084508419373  0.1668660270416701  0.6562500000000001
  0.8331306730641594  0.7224215825972257  0.6666666666666667
  0.6109084508419373  0.1668660270416701  0.6718750000000001
  0.1664640063974930  0.7224215825972257  0.6822916666666669
  0.8331306730641594  0.3890882492638922  0.6822916666666669
  0.4997973397308262  0.3890882492638922  0.6822916666666669
  0.1664640063974929  0.3890882492638922  0.6822916666666669
  0.8331306730641594  0.0557549159305590  0.6822916666666669
  0.4997973397308261  0.0557549159305590  0.6822916666666669
  0.1664640063974929  0.0557549159305590  0.6822916666666669
  0.7220195619530484  0.9446438048194478  0.6770833333333335
  0.3886862286197151  0.9446438048194478  0.6770833333333335
  0.0553528952863819  0.9446438048194478  0.6770833333333335
  0.7220195619530483  0.6113104714861146  0.6770833333333335
  0.3886862286197151  0.6113104714861146  0.6770833333333335
  0.0553528952863818  0.6113104714861146  0.6770833333333335
  0.7220195619530484  0.2779771381527811  0.6770833333333335
  0.3886862286197151  0.2779771381527811  0.6770833333333335
  0.0553528952863819  0.2779771381527811  0.6770833333333335
  0.9442417841752705  0.8335326937083368  0.6718750000000001
  0.6109084508419372  0.8335326937083368  0.6718750000000001
  0.2775751175086040  0.8335326937083368  0.6718750000000001
  0.9442417841752706  0.5001993603750033  0.6718750000000001
  0.6109084508419373  0.5001993603750033  0.6718750000000001
  0.2775751175086040  0.5001993603750033  0.6718750000000001
  0.9442417841752706  0.1668660270416701  0.6718750000000001
  0.2775751175086040  0.1668660270416701  0.6718750000000001
  0.4997973397308261  0.7224215825972257  0.6822916666666669
  0.2775751175086040  0.1668660270416701  0.6562500000000001
  0.4997973397308261  0.7224215825972257  0.6510416666666667
  0.1664640063974930  0.7224215825972257  0.6354166666666667
  0.8331306730641594  0.3890882492638922  0.6354166666666667
  0.4997973397308262  0.3890882492638922  0.6354166666666667
  0.1664640063974929  0.3890882492638922  0.6354166666666667
  0.8331306730641594  0.0557549159305590  0.6354166666666667
  0.4997973397308261  0.0557549159305590  0.6354166666666667
  0.1664640063974929  0.0557549159305590  0.6354166666666667
  0.7220195619530484  0.9446438048194478  0.6302083333333335
  0.3886862286197151  0.9446438048194478  0.6302083333333335
  0.0553528952863819  0.9446438048194478  0.6302083333333335
  0.7220195619530483  0.6113104714861146  0.6302083333333335
  0.3886862286197151  0.6113104714861146  0.6302083333333335
  0.0553528952863818  0.6113104714861146  0.6302083333333335
  0.7220195619530484  0.2779771381527811  0.6302083333333335
  0.3886862286197151  0.2779771381527811  0.6302083333333335
  0.0553528952863819  0.2779771381527811  0.6302083333333335
  0.9442417841752705  0.8335326937083368  0.6250000000000001
  0.6109084508419372  0.8335326937083368  0.6250000000000001
  0.2775751175086040  0.8335326937083368  0.6250000000000001
  0.9442417841752706  0.5001993603750033  0.6250000000000001
  0.6109084508419373  0.5001993603750033  0.6250000000000001
  0.2775751175086040  0.5001993603750033  0.6250000000000001
  0.9442417841752706  0.1668660270416701  0.6250000000000001
  0.4997973397308261  0.7224215825972257  0.6354166666666667
  0.8331306730641594  0.7224215825972257  0.6510416666666667
  0.8331306730641594  0.7224215825972257  0.6354166666666667
  0.6109084508419373  0.1668660270416701  0.6406250000000001
  0.1664640063974930  0.7224215825972257  0.6510416666666667
  0.8331306730641594  0.3890882492638922  0.6510416666666667
  0.4997973397308262  0.3890882492638922  0.6510416666666667
  0.1664640063974929  0.3890882492638922  0.6510416666666667
  0.8331306730641594  0.0557549159305590  0.6510416666666667
  0.4997973397308261  0.0557549159305590  0.6510416666666667
  0.1664640063974929  0.0557549159305590  0.6510416666666667
  0.7220195619530484  0.9446438048194478  0.6458333333333335
  0.3886862286197151  0.9446438048194478  0.6458333333333335
  0.0553528952863819  0.9446438048194478  0.6458333333333335
  0.7220195619530483  0.6113104714861146  0.6458333333333335
  0.3886862286197151  0.6113104714861146  0.6458333333333335
  0.0553528952863818  0.6113104714861146  0.6458333333333335
  0.7220195619530484  0.2779771381527811  0.6458333333333335
  0.3886862286197151  0.2779771381527811  0.6458333333333335
  0.0553528952863819  0.2779771381527811  0.6458333333333335
  0.9442417841752705  0.8335326937083368  0.6406250000000001
  0.6109084508419372  0.8335326937083368  0.6406250000000001
  0.2775751175086040  0.8335326937083368  0.6406250000000001
  0.9442417841752706  0.5001993603750033  0.6406250000000001
  0.6109084508419373  0.5001993603750033  0.6406250000000001
  0.2775751175086040  0.5001993603750033  0.6406250000000001
  0.9442417841752706  0.1668660270416701  0.6406250000000001
  0.2775751175086040  0.1668660270416701  0.6406250000000001
  0.6109084508419373  0.1668660270416701  0.6250000000000001
  0.8331306730641594  0.7224215825972257  0.6822916666666669
  0.6109084508419373  0.1668660270416701  0.6875000000000000
  0.1664640063974930  0.7224215825972257  0.7291666666666667
  0.8331306730641594  0.3890882492638922  0.7291666666666667
  0.4997973397308262  0.3890882492638922  0.7291666666666667
  0.1664640063974929  0.3890882492638922  0.7291666666666667
  0.8331306730641594  0.0557549159305590  0.7291666666666667
  0.4997973397308261  0.0557549159305590  0.7291666666666667
  0.1664640063974929  0.0557549159305590  0.7291666666666667
  0.7220195619530484  0.9446438048194478  0.7239583333333335
  0.3886862286197151  0.9446438048194478  0.7239583333333335
  0.0553528952863819  0.9446438048194478  0.7239583333333335
  0.7220195619530483  0.6113104714861146  0.7239583333333335
  0.3886862286197151  0.6113104714861146  0.7239583333333335
  0.0553528952863818  0.6113104714861146  0.7239583333333335
  0.7220195619530484  0.2779771381527811  0.7239583333333335
  0.3886862286197151  0.2779771381527811  0.7239583333333335
  0.0553528952863819  0.2779771381527811  0.7239583333333335
  0.9442417841752705  0.8335326937083368  0.7187500000000001
  0.6109084508419372  0.8335326937083368  0.7187500000000001
  0.2775751175086040  0.8335326937083368  0.7187500000000001
  0.9442417841752706  0.5001993603750033  0.7187500000000001
  0.6109084508419373  0.5001993603750033  0.7187500000000001
  0.2775751175086040  0.5001993603750033  0.7187500000000001
  0.9442417841752706  0.1668660270416701  0.7187500000000001
  0.4997973397308261  0.7224215825972257  0.7291666666666667
  0.6109084508419373  0.1668660270416701  0.7187500000000001
  0.8331306730641594  0.7224215825972257  0.7291666666666667
  0.6109084508419373  0.1668660270416701  0.7343750000000001
  0.1664640063974930  0.7224215825972257  0.7447916666666667
  0.8331306730641594  0.3890882492638922  0.7447916666666667
  0.4997973397308262  0.3890882492638922  0.7447916666666667
  0.1664640063974929  0.3890882492638922  0.7447916666666667
  0.8331306730641594  0.0557549159305590  0.7447916666666667
  0.4997973397308261  0.0557549159305590  0.7447916666666667
  0.1664640063974929  0.0557549159305590  0.7447916666666667
  0.7220195619530484  0.9446438048194478  0.7395833333333334
  0.3886862286197151  0.9446438048194478  0.7395833333333334
  0.0553528952863819  0.9446438048194478  0.7395833333333334
  0.7220195619530483  0.6113104714861146  0.7395833333333334
  0.3886862286197151  0.6113104714861146  0.7395833333333334
  0.0553528952863818  0.6113104714861146  0.7395833333333334
  0.7220195619530484  0.2779771381527811  0.7395833333333334
  0.3886862286197151  0.2779771381527811  0.7395833333333334
  0.0553528952863819  0.2779771381527811  0.7395833333333334
  0.9442417841752705  0.8335326937083368  0.7343750000000001
  0.6109084508419372  0.8335326937083368  0.7343750000000001
  0.2775751175086040  0.8335326937083368  0.7343750000000001
  0.9442417841752706  0.5001993603750033  0.7343750000000001
  0.6109084508419373  0.5001993603750033  0.7343750000000001
  0.2775751175086040  0.5001993603750033  0.7343750000000001
  0.9442417841752706  0.1668660270416701  0.7343750000000001
  0.2775751175086040  0.1668660270416701  0.7343750000000001
  0.2775751175086040  0.1668660270416701  0.6875000000000000
  0.2775751175086040  0.1668660270416701  0.7187500000000001
  0.4997973397308261  0.7224215825972257  0.7135416666666667
  0.1664640063974930  0.7224215825972257  0.6979166666666667
  0.8331306730641594  0.3890882492638922  0.6979166666666667
  0.4997973397308262  0.3890882492638922  0.6979166666666667
  0.1664640063974929  0.3890882492638922  0.6979166666666667
  0.8331306730641594  0.0557549159305590  0.6979166666666667
  0.4997973397308261  0.0557549159305590  0.6979166666666667
  0.1664640063974929  0.0557549159305590  0.6979166666666667
  0.7220195619530484  0.9446438048194478  0.6927083333333334
  0.3886862286197151  0.9446438048194478  0.6927083333333334
  0.0553528952863819  0.9446438048194478  0.6927083333333334
  0.7220195619530483  0.6113104714861146  0.6927083333333334
  0.3886862286197151  0.6113104714861146  0.6927083333333334
  0.0553528952863818  0.6113104714861146  0.6927083333333334
  0.7220195619530484  0.2779771381527811  0.6927083333333334
  0.3886862286197151  0.2779771381527811  0.6927083333333334
  0.0553528952863819  0.2779771381527811  0.6927083333333334
  0.9442417841752705  0.8335326937083368  0.6875000000000000
  0.6109084508419372  0.8335326937083368  0.6875000000000000
  0.2775751175086040  0.8335326937083368  0.6875000000000000
  0.9442417841752706  0.5001993603750033  0.6875000000000000
  0.6109084508419373  0.5001993603750033  0.6875000000000000
  0.2775751175086040  0.5001993603750033  0.6875000000000000
  0.9442417841752706  0.1668660270416701  0.6875000000000000
  0.4997973397308261  0.7224215825972257  0.6979166666666667
  0.8331306730641594  0.7224215825972257  0.7135416666666667
  0.8331306730641594  0.7224215825972257  0.6979166666666667
  0.6109084508419373  0.1668660270416701  0.7031250000000001
  0.1664640063974930  0.7224215825972257  0.7135416666666667
  0.8331306730641594  0.3890882492638922  0.7135416666666667
  0.4997973397308262  0.3890882492638922  0.7135416666666667
  0.1664640063974929  0.3890882492638922  0.7135416666666667
  0.8331306730641594  0.0557549159305590  0.7135416666666667
  0.4997973397308261  0.0557549159305590  0.7135416666666667
  0.1664640063974929  0.0557549159305590  0.7135416666666667
  0.7220195619530484  0.9446438048194478  0.7083333333333335
  0.3886862286197151  0.9446438048194478  0.7083333333333335
  0.0553528952863819  0.9446438048194478  0.7083333333333335
  0.7220195619530483  0.6113104714861146  0.7083333333333335
  0.3886862286197151  0.6113104714861146  0.7083333333333335
  0.0553528952863818  0.6113104714861146  0.7083333333333335
  0.7220195619530484  0.2779771381527811  0.7083333333333335
  0.3886862286197151  0.2779771381527811  0.7083333333333335
  0.0553528952863819  0.2779771381527811  0.7083333333333335
  0.9442417841752705  0.8335326937083368  0.7031250000000001
  0.6109084508419372  0.8335326937083368  0.7031250000000001
  0.2775751175086040  0.8335326937083368  0.7031250000000001
  0.9442417841752706  0.5001993603750033  0.7031250000000001
  0.6109084508419373  0.5001993603750033  0.7031250000000001
  0.2775751175086040  0.5001993603750033  0.7031250000000001
  0.9442417841752706  0.1668660270416701  0.7031250000000001
  0.2775751175086040  0.1668660270416701  0.7031250000000001
  0.4997973397308261  0.7224215825972257  0.7447916666666667
  0.2775751175086040  0.1668660270416701  0.6250000000000001
  0.4997973397308261  0.7224215825972257  0.6197916666666667
  0.1664640063974930  0.7224215825972257  0.5416666666666667
  0.8331306730641594  0.3890882492638922  0.5416666666666667
  0.4997973397308262  0.3890882492638922  0.5416666666666667
  0.1664640063974929  0.3890882492638922  0.5416666666666667
  0.8331306730641594  0.0557549159305590  0.5416666666666667
  0.4997973397308261  0.0557549159305590  0.5416666666666667
  0.1664640063974929  0.0557549159305590  0.5416666666666667
  0.7220195619530484  0.9446438048194478  0.5364583333333335
  0.3886862286197151  0.9446438048194478  0.5364583333333335
  0.0553528952863819  0.9446438048194478  0.5364583333333335
  0.7220195619530483  0.6113104714861146  0.5364583333333335
  0.3886862286197151  0.6113104714861146  0.5364583333333335
  0.0553528952863818  0.6113104714861146  0.5364583333333335
  0.7220195619530484  0.2779771381527811  0.5364583333333335
  0.3886862286197151  0.2779771381527811  0.5364583333333335
  0.0553528952863819  0.2779771381527811  0.5364583333333335
  0.9442417841752705  0.8335326937083368  0.5312500000000001
  0.6109084508419372  0.8335326937083368  0.5312500000000001
  0.2775751175086040  0.8335326937083368  0.5312500000000001
  0.9442417841752706  0.5001993603750033  0.5312500000000001
  0.6109084508419373  0.5001993603750033  0.5312500000000001
  0.2775751175086040  0.5001993603750033  0.5312500000000001
  0.9442417841752706  0.1668660270416701  0.5312500000000001
  0.4997973397308261  0.7224215825972257  0.5416666666666667
  0.6109084508419373  0.1668660270416701  0.5312500000000001
  0.8331306730641594  0.7224215825972257  0.5416666666666667
  0.6109084508419373  0.1668660270416701  0.5468750000000001
  0.1664640063974930  0.7224215825972257  0.5572916666666667
  0.8331306730641594  0.3890882492638922  0.5572916666666667
  0.4997973397308262  0.3890882492638922  0.5572916666666667
  0.1664640063974929  0.3890882492638922  0.5572916666666667
  0.8331306730641594  0.0557549159305590  0.5572916666666667
  0.4997973397308261  0.0557549159305590  0.5572916666666667
  0.1664640063974929  0.0557549159305590  0.5572916666666667
  0.7220195619530484  0.9446438048194478  0.5520833333333334
  0.3886862286197151  0.9446438048194478  0.5520833333333334
  0.0553528952863819  0.9446438048194478  0.5520833333333334
  0.7220195619530483  0.6113104714861146  0.5520833333333334
  0.3886862286197151  0.6113104714861146  0.5520833333333334
  0.0553528952863818  0.6113104714861146  0.5520833333333334
  0.7220195619530484  0.2779771381527811  0.5520833333333334
  0.3886862286197151  0.2779771381527811  0.5520833333333334
  0.0553528952863819  0.2779771381527811  0.5520833333333334
  0.9442417841752705  0.8335326937083368  0.5468750000000001
  0.6109084508419372  0.8335326937083368  0.5468750000000001
  0.2775751175086040  0.8335326937083368  0.5468750000000001
  0.9442417841752706  0.5001993603750033  0.5468750000000001
  0.6109084508419373  0.5001993603750033  0.5468750000000001
  0.2775751175086040  0.5001993603750033  0.5468750000000001
  0.9442417841752706  0.1668660270416701  0.5468750000000001
  0.2775751175086040  0.1668660270416701  0.5468750000000001
  0.4997973397308261  0.7224215825972257  0.5572916666666667
  0.2775751175086040  0.1668660270416701  0.5312500000000001
  0.4997973397308261  0.7224215825972257  0.5260416666666667
  0.1664640063974930  0.7224215825972257  0.5104166666666667
  0.8331306730641594  0.3890882492638922  0.5104166666666667
  0.4997973397308262  0.3890882492638922  0.5104166666666667
  0.1664640063974929  0.3890882492638922  0.5104166666666667
  0.8331306730641594  0.0557549159305590  0.5104166666666667
  0.4997973397308261  0.0557549159305590  0.5104166666666667
  0.1664640063974929  0.0557549159305590  0.5104166666666667
  0.7220195619530484  0.9446438048194478  0.5052083333333334
  0.3886862286197151  0.9446438048194478  0.5052083333333334
  0.0553528952863819  0.9446438048194478  0.5052083333333334
  0.7220195619530483  0.6113104714861146  0.5052083333333334
  0.3886862286197151  0.6113104714861146  0.5052083333333334
  0.0553528952863818  0.6113104714861146  0.5052083333333334
  0.7220195619530484  0.2779771381527811  0.5052083333333334
  0.3886862286197151  0.2779771381527811  0.5052083333333334
  0.0553528952863819  0.2779771381527811  0.5052083333333334
  0.9442417841752705  0.8335326937083368  0.5000000000000000
  0.6109084508419372  0.8335326937083368  0.5000000000000000
  0.2775751175086040  0.8335326937083368  0.5000000000000000
  0.9442417841752706  0.5001993603750033  0.5000000000000000
  0.6109084508419373  0.5001993603750033  0.5000000000000000
  0.2775751175086040  0.5001993603750033  0.5000000000000000
  0.9442417841752706  0.1668660270416701  0.5000000000000000
  0.4997973397308261  0.7224215825972257  0.5104166666666667
  0.8331306730641594  0.7224215825972257  0.5260416666666667
  0.8331306730641594  0.7224215825972257  0.5104166666666667
  0.6109084508419373  0.1668660270416701  0.5156250000000001
  0.1664640063974930  0.7224215825972257  0.5260416666666667
  0.8331306730641594  0.3890882492638922  0.5260416666666667
  0.4997973397308262  0.3890882492638922  0.5260416666666667
  0.1664640063974929  0.3890882492638922  0.5260416666666667
  0.8331306730641594  0.0557549159305590  0.5260416666666667
  0.4997973397308261  0.0557549159305590  0.5260416666666667
  0.1664640063974929  0.0557549159305590  0.5260416666666667
  0.7220195619530484  0.9446438048194478  0.5208333333333334
  0.3886862286197151  0.9446438048194478  0.5208333333333334
  0.0553528952863819  0.9446438048194478  0.5208333333333334
  0.7220195619530483  0.6113104714861146  0.5208333333333334
  0.3886862286197151  0.6113104714861146  0.5208333333333334
  0.0553528952863818  0.6113104714861146  0.5208333333333334
  0.7220195619530484  0.2779771381527811  0.5208333333333334
  0.3886862286197151  0.2779771381527811  0.5208333333333334
  0.0553528952863819  0.2779771381527811  0.5208333333333334
  0.9442417841752705  0.8335326937083368  0.5156250000000001
  0.6109084508419372  0.8335326937083368  0.5156250000000001
  0.2775751175086040  0.8335326937083368  0.5156250000000001
  0.9442417841752706  0.5001993603750033  0.5156250000000001
  0.6109084508419373  0.5001993603750033  0.5156250000000001
  0.2775751175086040  0.5001993603750033  0.5156250000000001
  0.9442417841752706  0.1668660270416701  0.5156250000000001
  0.2775751175086040  0.1668660270416701  0.5156250000000001
  0.8331306730641594  0.7224215825972257  0.6197916666666667
  0.8331306730641594  0.7224215825972257  0.5572916666666667
  0.6109084508419373  0.1668660270416701  0.5625000000000001
  0.1664640063974930  0.7224215825972257  0.6041666666666667
  0.8331306730641594  0.3890882492638922  0.6041666666666667
  0.4997973397308262  0.3890882492638922  0.6041666666666667
  0.1664640063974929  0.3890882492638922  0.6041666666666667
  0.8331306730641594  0.0557549159305590  0.6041666666666667
  0.4997973397308261  0.0557549159305590  0.6041666666666667
  0.1664640063974929  0.0557549159305590  0.6041666666666667
  0.7220195619530484  0.9446438048194478  0.5989583333333334
  0.3886862286197151  0.9446438048194478  0.5989583333333334
  0.0553528952863819  0.9446438048194478  0.5989583333333334
  0.7220195619530483  0.6113104714861146  0.5989583333333334
  0.3886862286197151  0.6113104714861146  0.5989583333333334
  0.0553528952863818  0.6113104714861146  0.5989583333333334
  0.7220195619530484  0.2779771381527811  0.5989583333333334
  0.3886862286197151  0.2779771381527811  0.5989583333333334
  0.0553528952863819  0.2779771381527811  0.5989583333333334
  0.9442417841752705  0.8335326937083368  0.5937500000000001
  0.6109084508419372  0.8335326937083368  0.5937500000000001
  0.2775751175086040  0.8335326937083368  0.5937500000000001
  0.9442417841752706  0.5001993603750033  0.5937500000000001
  0.6109084508419373  0.5001993603750033  0.5937500000000001
  0.2775751175086040  0.5001993603750033  0.5937500000000001
  0.9442417841752706  0.1668660270416701  0.5937500000000001
  0.4997973397308261  0.7224215825972257  0.6041666666666667
  0.6109084508419373  0.1668660270416701  0.5937500000000001
  0.8331306730641594  0.7224215825972257  0.6041666666666667
  0.6109084508419373  0.1668660270416701  0.6093750000000001
  0.1664640063974930  0.7224215825972257  0.6197916666666667
  0.8331306730641594  0.3890882492638922  0.6197916666666667
  0.4997973397308262  0.3890882492638922  0.6197916666666667
  0.1664640063974929  0.3890882492638922  0.6197916666666667
  0.8331306730641594  0.0557549159305590  0.6197916666666667
  0.4997973397308261  0.0557549159305590  0.6197916666666667
  0.1664640063974929  0.0557549159305590  0.6197916666666667
  0.7220195619530484  0.9446438048194478  0.6145833333333335
  0.3886862286197151  0.9446438048194478  0.6145833333333335
  0.0553528952863819  0.9446438048194478  0.6145833333333335
  0.7220195619530483  0.6113104714861146  0.6145833333333335
  0.3886862286197151  0.6113104714861146  0.6145833333333335
  0.0553528952863818  0.6113104714861146  0.6145833333333335
  0.7220195619530484  0.2779771381527811  0.6145833333333335
  0.3886862286197151  0.2779771381527811  0.6145833333333335
  0.0553528952863819  0.2779771381527811  0.6145833333333335
  0.9442417841752705  0.8335326937083368  0.6093750000000001
  0.6109084508419372  0.8335326937083368  0.6093750000000001
  0.2775751175086040  0.8335326937083368  0.6093750000000001
  0.9442417841752706  0.5001993603750033  0.6093750000000001
  0.6109084508419373  0.5001993603750033  0.6093750000000001
  0.2775751175086040  0.5001993603750033  0.6093750000000001
  0.9442417841752706  0.1668660270416701  0.6093750000000001
  0.2775751175086040  0.1668660270416701  0.6093750000000001
  0.2775751175086040  0.1668660270416701  0.5625000000000001
  0.2775751175086040  0.1668660270416701  0.5937500000000001
  0.4997973397308261  0.7224215825972257  0.5885416666666667
  0.1664640063974930  0.7224215825972257  0.5729166666666667
  0.8331306730641594  0.3890882492638922  0.5729166666666667
  0.4997973397308262  0.3890882492638922  0.5729166666666667
  0.1664640063974929  0.3890882492638922  0.5729166666666667
  0.8331306730641594  0.0557549159305590  0.5729166666666667
  0.4997973397308261  0.0557549159305590  0.5729166666666667
  0.1664640063974929  0.0557549159305590  0.5729166666666667
  0.7220195619530484  0.9446438048194478  0.5677083333333334
  0.3886862286197151  0.9446438048194478  0.5677083333333334
  0.0553528952863819  0.9446438048194478  0.5677083333333334
  0.7220195619530483  0.6113104714861146  0.5677083333333334
  0.3886862286197151  0.6113104714861146  0.5677083333333334
  0.0553528952863818  0.6113104714861146  0.5677083333333334
  0.7220195619530484  0.2779771381527811  0.5677083333333334
  0.3886862286197151  0.2779771381527811  0.5677083333333334
  0.0553528952863819  0.2779771381527811  0.5677083333333334
  0.9442417841752705  0.8335326937083368  0.5625000000000001
  0.6109084508419372  0.8335326937083368  0.5625000000000001
  0.2775751175086040  0.8335326937083368  0.5625000000000001
  0.9442417841752706  0.5001993603750033  0.5625000000000001
  0.6109084508419373  0.5001993603750033  0.5625000000000001
  0.2775751175086040  0.5001993603750033  0.5625000000000001
  0.9442417841752706  0.1668660270416701  0.5625000000000001
  0.4997973397308261  0.7224215825972257  0.5729166666666667
  0.8331306730641594  0.7224215825972257  0.5885416666666667
  0.8331306730641594  0.7224215825972257  0.5729166666666667
  0.6109084508419373  0.1668660270416701  0.5781250000000001
  0.1664640063974930  0.7224215825972257  0.5885416666666667
  0.8331306730641594  0.3890882492638922  0.5885416666666667
  0.4997973397308262  0.3890882492638922  0.5885416666666667
  0.1664640063974929  0.3890882492638922  0.5885416666666667
  0.8331306730641594  0.0557549159305590  0.5885416666666667
  0.4997973397308261  0.0557549159305590  0.5885416666666667
  0.1664640063974929  0.0557549159305590  0.5885416666666667
  0.7220195619530484  0.9446438048194478  0.5833333333333334
  0.3886862286197151  0.9446438048194478  0.5833333333333334
  0.0553528952863819  0.9446438048194478  0.5833333333333334
  0.7220195619530483  0.6113104714861146  0.5833333333333334
  0.3886862286197151  0.6113104714861146  0.5833333333333334
  0.0553528952863818  0.6113104714861146  0.5833333333333334
  0.7220195619530484  0.2779771381527811  0.5833333333333334
  0.3886862286197151  0.2779771381527811  0.5833333333333334
  0.0553528952863819  0.2779771381527811  0.5833333333333334
  0.9442417841752705  0.8335326937083368  0.5781250000000001
  0.6109084508419372  0.8335326937083368  0.5781250000000001
  0.2775751175086040  0.8335326937083368  0.5781250000000001
  0.9442417841752706  0.5001993603750033  0.5781250000000001
  0.6109084508419373  0.5001993603750033  0.5781250000000001
  0.2775751175086040  0.5001993603750033  0.5781250000000001
  0.9442417841752706  0.1668660270416701  0.5781250000000001
  0.2775751175086040  0.1668660270416701  0.5781250000000001
  0.6109084508419373  0.1668660270416701  0.5000000000000000
  0.8331306730641594  0.7224215825972257  0.7447916666666667
  0.6110388695418083  0.9443957715546626  0.7500000000000001
  0.0554833139862527  0.3888402159991070  0.9166666666666669
  0.3888166473195859  0.7221735493324405  0.9166666666666669
  0.7221499806529194  0.7221735493324405  0.9166666666666669
  0.0554833139862527  0.7221735493324405  0.9166666666666669
  0.3888166473195860  0.0555068826657736  0.9166666666666669
  0.7221499806529194  0.0555068826657736  0.9166666666666669
  0.0554833139862527  0.0555068826657736  0.9166666666666669
  0.4999277584306970  0.1666179937768848  0.9114583333333335
  0.8332610917640305  0.1666179937768848  0.9114583333333335
  0.1665944250973637  0.1666179937768848  0.9114583333333335
  0.4999277584306971  0.4999513271102181  0.9114583333333335
  0.8332610917640304  0.4999513271102181  0.9114583333333335
  0.1665944250973637  0.4999513271102181  0.9114583333333335
  0.4999277584306969  0.8332846604435514  0.9114583333333335
  0.8332610917640304  0.8332846604435514  0.9114583333333335
  0.1665944250973639  0.8332846604435514  0.9114583333333335
  0.2777055362084748  0.2777291048879957  0.9062500000000001
  0.6110388695418083  0.2777291048879957  0.9062500000000001
  0.9443722028751416  0.2777291048879957  0.9062500000000001
  0.2777055362084749  0.6110624382213292  0.9062500000000001
  0.6110388695418083  0.6110624382213292  0.9062500000000001
  0.9443722028751417  0.6110624382213292  0.9062500000000001
  0.2777055362084748  0.9443957715546626  0.9062500000000001
  0.7221499806529194  0.3888402159991070  0.9166666666666669
  0.6110388695418083  0.9443957715546626  0.9062500000000001
  0.3888166473195860  0.3888402159991070  0.9166666666666669
  0.6110388695418083  0.9443957715546626  0.9218750000000001
  0.0554833139862527  0.3888402159991070  0.9322916666666667
  0.3888166473195859  0.7221735493324405  0.9322916666666667
  0.7221499806529194  0.7221735493324405  0.9322916666666667
  0.0554833139862527  0.7221735493324405  0.9322916666666667
  0.3888166473195860  0.0555068826657736  0.9322916666666667
  0.7221499806529194  0.0555068826657736  0.9322916666666667
  0.0554833139862527  0.0555068826657736  0.9322916666666667
  0.4999277584306970  0.1666179937768848  0.9270833333333334
  0.8332610917640305  0.1666179937768848  0.9270833333333334
  0.1665944250973637  0.1666179937768848  0.9270833333333334
  0.4999277584306971  0.4999513271102181  0.9270833333333334
  0.8332610917640304  0.4999513271102181  0.9270833333333334
  0.1665944250973637  0.4999513271102181  0.9270833333333334
  0.4999277584306969  0.8332846604435514  0.9270833333333334
  0.8332610917640304  0.8332846604435514  0.9270833333333334
  0.1665944250973639  0.8332846604435514  0.9270833333333334
  0.2777055362084748  0.2777291048879957  0.9218750000000001
  0.6110388695418083  0.2777291048879957  0.9218750000000001
  0.9443722028751416  0.2777291048879957  0.9218750000000001
  0.2777055362084749  0.6110624382213292  0.9218750000000001
  0.6110388695418083  0.6110624382213292  0.9218750000000001
  0.9443722028751417  0.6110624382213292  0.9218750000000001
  0.2777055362084748  0.9443957715546626  0.9218750000000001
  0.9443722028751415  0.9443957715546626  0.9218750000000001
  0.7221499806529194  0.3888402159991070  0.9322916666666667
  0.9443722028751415  0.9443957715546626  0.9062500000000001
  0.7221499806529194  0.3888402159991070  0.9010416666666667
  0.0554833139862527  0.3888402159991070  0.8854166666666667
  0.3888166473195859  0.7221735493324405  0.8854166666666667
  0.7221499806529194  0.7221735493324405  0.8854166666666667
  0.0554833139862527  0.7221735493324405  0.8854166666666667
  0.3888166473195860  0.0555068826657736  0.8854166666666667
  0.7221499806529194  0.0555068826657736  0.8854166666666667
  0.0554833139862527  0.0555068826657736  0.8854166666666667
  0.4999277584306970  0.1666179937768848  0.8802083333333335
  0.8332610917640305  0.1666179937768848  0.8802083333333335
  0.1665944250973637  0.1666179937768848  0.8802083333333335
  0.4999277584306971  0.4999513271102181  0.8802083333333335
  0.8332610917640304  0.4999513271102181  0.8802083333333335
  0.1665944250973637  0.4999513271102181  0.8802083333333335
  0.4999277584306969  0.8332846604435514  0.8802083333333335
  0.8332610917640304  0.8332846604435514  0.8802083333333335
  0.1665944250973639  0.8332846604435514  0.8802083333333335
  0.2777055362084748  0.2777291048879957  0.8750000000000002
  0.6110388695418083  0.2777291048879957  0.8750000000000002
  0.9443722028751416  0.2777291048879957  0.8750000000000002
  0.2777055362084749  0.6110624382213292  0.8750000000000002
  0.6110388695418083  0.6110624382213292  0.8750000000000002
  0.9443722028751417  0.6110624382213292  0.8750000000000002
  0.2777055362084748  0.9443957715546626  0.8750000000000002
  0.7221499806529194  0.3888402159991070  0.8854166666666667
  0.3888166473195860  0.3888402159991070  0.9010416666666667
  0.3888166473195860  0.3888402159991070  0.8854166666666667
  0.6110388695418083  0.9443957715546626  0.8906250000000001
  0.0554833139862527  0.3888402159991070  0.9010416666666667
  0.3888166473195859  0.7221735493324405  0.9010416666666667
  0.7221499806529194  0.7221735493324405  0.9010416666666667
  0.0554833139862527  0.7221735493324405  0.9010416666666667
  0.3888166473195860  0.0555068826657736  0.9010416666666667
  0.7221499806529194  0.0555068826657736  0.9010416666666667
  0.0554833139862527  0.0555068826657736  0.9010416666666667
  0.4999277584306970  0.1666179937768848  0.8958333333333335
  0.8332610917640305  0.1666179937768848  0.8958333333333335
  0.1665944250973637  0.1666179937768848  0.8958333333333335
  0.4999277584306971  0.4999513271102181  0.8958333333333335
  0.8332610917640304  0.4999513271102181  0.8958333333333335
  0.1665944250973637  0.4999513271102181  0.8958333333333335
  0.4999277584306969  0.8332846604435514  0.8958333333333335
  0.8332610917640304  0.8332846604435514  0.8958333333333335
  0.1665944250973639  0.8332846604435514  0.8958333333333335
  0.2777055362084748  0.2777291048879957  0.8906250000000001
  0.6110388695418083  0.2777291048879957  0.8906250000000001
  0.9443722028751416  0.2777291048879957  0.8906250000000001
  0.2777055362084749  0.6110624382213292  0.8906250000000001
  0.6110388695418083  0.6110624382213292  0.8906250000000001
  0.9443722028751417  0.6110624382213292  0.8906250000000001
  0.2777055362084748  0.9443957715546626  0.8906250000000001
  0.9443722028751415  0.9443957715546626  0.8906250000000001
  0.6110388695418083  0.9443957715546626  0.8750000000000002
  0.3888166473195860  0.3888402159991070  0.9322916666666667
  0.6110388695418083  0.9443957715546626  0.9375000000000001
  0.0554833139862527  0.3888402159991070  0.9791666666666669
  0.3888166473195859  0.7221735493324405  0.9791666666666669
  0.7221499806529194  0.7221735493324405  0.9791666666666669
  0.0554833139862527  0.7221735493324405  0.9791666666666669
  0.3888166473195860  0.0555068826657736  0.9791666666666669
  0.7221499806529194  0.0555068826657736  0.9791666666666669
  0.0554833139862527  0.0555068826657736  0.9791666666666669
  0.4999277584306970  0.1666179937768848  0.9739583333333335
  0.8332610917640305  0.1666179937768848  0.9739583333333335
  0.1665944250973637  0.1666179937768848  0.9739583333333335
  0.4999277584306971  0.4999513271102181  0.9739583333333335
  0.8332610917640304  0.4999513271102181  0.9739583333333335
  0.1665944250973637  0.4999513271102181  0.9739583333333335
  0.4999277584306969  0.8332846604435514  0.9739583333333335
  0.8332610917640304  0.8332846604435514  0.9739583333333335
  0.1665944250973639  0.8332846604435514  0.9739583333333335
  0.2777055362084748  0.2777291048879957  0.9687500000000001
  0.6110388695418083  0.2777291048879957  0.9687500000000001
  0.9443722028751416  0.2777291048879957  0.9687500000000001
  0.2777055362084749  0.6110624382213292  0.9687500000000001
  0.6110388695418083  0.6110624382213292  0.9687500000000001
  0.9443722028751417  0.6110624382213292  0.9687500000000001
  0.2777055362084748  0.9443957715546626  0.9687500000000001
  0.7221499806529194  0.3888402159991070  0.9791666666666669
  0.6110388695418083  0.9443957715546626  0.9687500000000001
  0.3888166473195860  0.3888402159991070  0.9791666666666669
  0.6110388695418083  0.9443957715546626  0.9843750000000001
  0.0554833139862527  0.3888402159991070  0.9947916666666669
  0.3888166473195859  0.7221735493324405  0.9947916666666669
  0.7221499806529194  0.7221735493324405  0.9947916666666669
  0.0554833139862527  0.7221735493324405  0.9947916666666669
  0.3888166473195860  0.0555068826657736  0.9947916666666669
  0.7221499806529194  0.0555068826657736  0.9947916666666669
  0.0554833139862527  0.0555068826657736  0.9947916666666669
  0.4999277584306970  0.1666179937768848  0.9895833333333335
  0.8332610917640305  0.1666179937768848  0.9895833333333335
  0.1665944250973637  0.1666179937768848  0.9895833333333335
  0.4999277584306971  0.4999513271102181  0.9895833333333335
  0.8332610917640304  0.4999513271102181  0.9895833333333335
  0.1665944250973637  0.4999513271102181  0.9895833333333335
  0.4999277584306969  0.8332846604435514  0.9895833333333335
  0.8332610917640304  0.8332846604435514  0.9895833333333335
  0.1665944250973639  0.8332846604435514  0.9895833333333335
  0.2777055362084748  0.2777291048879957  0.9843750000000001
  0.6110388695418083  0.2777291048879957  0.9843750000000001
  0.9443722028751416  0.2777291048879957  0.9843750000000001
  0.2777055362084749  0.6110624382213292  0.9843750000000001
  0.6110388695418083  0.6110624382213292  0.9843750000000001
  0.9443722028751417  0.6110624382213292  0.9843750000000001
  0.2777055362084748  0.9443957715546626  0.9843750000000001
  0.9443722028751415  0.9443957715546626  0.9843750000000001
  0.9443722028751415  0.9443957715546626  0.9375000000000001
  0.9443722028751415  0.9443957715546626  0.9687500000000001
  0.7221499806529194  0.3888402159991070  0.9635416666666667
  0.0554833139862527  0.3888402159991070  0.9479166666666669
  0.3888166473195859  0.7221735493324405  0.9479166666666669
  0.7221499806529194  0.7221735493324405  0.9479166666666669
  0.0554833139862527  0.7221735493324405  0.9479166666666669
  0.3888166473195860  0.0555068826657736  0.9479166666666669
  0.7221499806529194  0.0555068826657736  0.9479166666666669
  0.0554833139862527  0.0555068826657736  0.9479166666666669
  0.4999277584306970  0.1666179937768848  0.9427083333333335
  0.8332610917640305  0.1666179937768848  0.9427083333333335
  0.1665944250973637  0.1666179937768848  0.9427083333333335
  0.4999277584306971  0.4999513271102181  0.9427083333333335
  0.8332610917640304  0.4999513271102181  0.9427083333333335
  0.1665944250973637  0.4999513271102181  0.9427083333333335
  0.4999277584306969  0.8332846604435514  0.9427083333333335
  0.8332610917640304  0.8332846604435514  0.9427083333333335
  0.1665944250973639  0.8332846604435514  0.9427083333333335
  0.2777055362084748  0.2777291048879957  0.9375000000000001
  0.6110388695418083  0.2777291048879957  0.9375000000000001
  0.9443722028751416  0.2777291048879957  0.9375000000000001
  0.2777055362084749  0.6110624382213292  0.9375000000000001
  0.6110388695418083  0.6110624382213292  0.9375000000000001
  0.9443722028751417  0.6110624382213292  0.9375000000000001
  0.2777055362084748  0.9443957715546626  0.9375000000000001
  0.7221499806529194  0.3888402159991070  0.9479166666666669
  0.3888166473195860  0.3888402159991070  0.9635416666666667
  0.3888166473195860  0.3888402159991070  0.9479166666666669
  0.6110388695418083  0.9443957715546626  0.9531250000000002
  0.0554833139862527  0.3888402159991070  0.9635416666666667
  0.3888166473195859  0.7221735493324405  0.9635416666666667
  0.7221499806529194  0.7221735493324405  0.9635416666666667
  0.0554833139862527  0.7221735493324405  0.9635416666666667
  0.3888166473195860  0.0555068826657736  0.9635416666666667
  0.7221499806529194  0.0555068826657736  0.9635416666666667
  0.0554833139862527  0.0555068826657736  0.9635416666666667
  0.4999277584306970  0.1666179937768848  0.9583333333333335
  0.8332610917640305  0.1666179937768848  0.9583333333333335
  0.1665944250973637  0.1666179937768848  0.9583333333333335
  0.4999277584306971  0.4999513271102181  0.9583333333333335
  0.8332610917640304  0.4999513271102181  0.9583333333333335
  0.1665944250973637  0.4999513271102181  0.9583333333333335
  0.4999277584306969  0.8332846604435514  0.9583333333333335
  0.8332610917640304  0.8332846604435514  0.9583333333333335
  0.1665944250973639  0.8332846604435514  0.9583333333333335
  0.2777055362084748  0.2777291048879957  0.9531250000000002
  0.6110388695418083  0.2777291048879957  0.9531250000000002
  0.9443722028751416  0.2777291048879957  0.9531250000000002
  0.2777055362084749  0.6110624382213292  0.9531250000000002
  0.6110388695418083  0.6110624382213292  0.9531250000000002
  0.9443722028751417  0.6110624382213292  0.9531250000000002
  0.2777055362084748  0.9443957715546626  0.9531250000000002
  0.9443722028751415  0.9443957715546626  0.9531250000000002
  0.9443722028751415  0.9443957715546626  0.7500000000000001
  0.9443722028751415  0.9443957715546626  0.8750000000000002
  0.7221499806529194  0.3888402159991070  0.8697916666666669
  0.0554833139862527  0.3888402159991070  0.7916666666666669
  0.3888166473195859  0.7221735493324405  0.7916666666666669
  0.7221499806529194  0.7221735493324405  0.7916666666666669
  0.0554833139862527  0.7221735493324405  0.7916666666666669
  0.3888166473195860  0.0555068826657736  0.7916666666666669
  0.7221499806529194  0.0555068826657736  0.7916666666666669
  0.0554833139862527  0.0555068826657736  0.7916666666666669
  0.4999277584306970  0.1666179937768848  0.7864583333333335
  0.8332610917640305  0.1666179937768848  0.7864583333333335
  0.1665944250973637  0.1666179937768848  0.7864583333333335
  0.4999277584306971  0.4999513271102181  0.7864583333333335
  0.8332610917640304  0.4999513271102181  0.7864583333333335
  0.1665944250973637  0.4999513271102181  0.7864583333333335
  0.4999277584306969  0.8332846604435514  0.7864583333333335
  0.8332610917640304  0.8332846604435514  0.7864583333333335
  0.1665944250973639  0.8332846604435514  0.7864583333333335
  0.2777055362084748  0.2777291048879957  0.7812500000000001
  0.6110388695418083  0.2777291048879957  0.7812500000000001
  0.9443722028751416  0.2777291048879957  0.7812500000000001
  0.2777055362084749  0.6110624382213292  0.7812500000000001
  0.6110388695418083  0.6110624382213292  0.7812500000000001
  0.9443722028751417  0.6110624382213292  0.7812500000000001
  0.2777055362084748  0.9443957715546626  0.7812500000000001
  0.7221499806529194  0.3888402159991070  0.7916666666666669
  0.6110388695418083  0.9443957715546626  0.7812500000000001
  0.3888166473195860  0.3888402159991070  0.7916666666666669
  0.6110388695418083  0.9443957715546626  0.7968750000000001
  0.0554833139862527  0.3888402159991070  0.8072916666666667
  0.3888166473195859  0.7221735493324405  0.8072916666666667
  0.7221499806529194  0.7221735493324405  0.8072916666666667
  0.0554833139862527  0.7221735493324405  0.8072916666666667
  0.3888166473195860  0.0555068826657736  0.8072916666666667
  0.7221499806529194  0.0555068826657736  0.8072916666666667
  0.0554833139862527  0.0555068826657736  0.8072916666666667
  0.4999277584306970  0.1666179937768848  0.8020833333333335
  0.8332610917640305  0.1666179937768848  0.8020833333333335
  0.1665944250973637  0.1666179937768848  0.8020833333333335
  0.4999277584306971  0.4999513271102181  0.8020833333333335
  0.8332610917640304  0.4999513271102181  0.8020833333333335
  0.1665944250973637  0.4999513271102181  0.8020833333333335
  0.4999277584306969  0.8332846604435514  0.8020833333333335
  0.8332610917640304  0.8332846604435514  0.8020833333333335
  0.1665944250973639  0.8332846604435514  0.8020833333333335
  0.2777055362084748  0.2777291048879957  0.7968750000000001
  0.6110388695418083  0.2777291048879957  0.7968750000000001
  0.9443722028751416  0.2777291048879957  0.7968750000000001
  0.2777055362084749  0.6110624382213292  0.7968750000000001
  0.6110388695418083  0.6110624382213292  0.7968750000000001
  0.9443722028751417  0.6110624382213292  0.7968750000000001
  0.2777055362084748  0.9443957715546626  0.7968750000000001
  0.9443722028751415  0.9443957715546626  0.7968750000000001
  0.7221499806529194  0.3888402159991070  0.8072916666666667
  0.9443722028751415  0.9443957715546626  0.7812500000000001
  0.7221499806529194  0.3888402159991070  0.7760416666666667
  0.0554833139862527  0.3888402159991070  0.7604166666666669
  0.3888166473195859  0.7221735493324405  0.7604166666666669
  0.7221499806529194  0.7221735493324405  0.7604166666666669
  0.0554833139862527  0.7221735493324405  0.7604166666666669
  0.3888166473195860  0.0555068826657736  0.7604166666666669
  0.7221499806529194  0.0555068826657736  0.7604166666666669
  0.0554833139862527  0.0555068826657736  0.7604166666666669
  0.4999277584306970  0.1666179937768848  0.7552083333333335
  0.8332610917640305  0.1666179937768848  0.7552083333333335
  0.1665944250973637  0.1666179937768848  0.7552083333333335
  0.4999277584306971  0.4999513271102181  0.7552083333333335
  0.8332610917640304  0.4999513271102181  0.7552083333333335
  0.1665944250973637  0.4999513271102181  0.7552083333333335
  0.4999277584306969  0.8332846604435514  0.7552083333333335
  0.8332610917640304  0.8332846604435514  0.7552083333333335
  0.1665944250973639  0.8332846604435514  0.7552083333333335
  0.2777055362084748  0.2777291048879957  0.7500000000000001
  0.6110388695418083  0.2777291048879957  0.7500000000000001
  0.9443722028751416  0.2777291048879957  0.7500000000000001
  0.2777055362084749  0.6110624382213292  0.7500000000000001
  0.6110388695418083  0.6110624382213292  0.7500000000000001
  0.9443722028751417  0.6110624382213292  0.7500000000000001
  0.2777055362084748  0.9443957715546626  0.7500000000000001
  0.7221499806529194  0.3888402159991070  0.7604166666666669
  0.3888166473195860  0.3888402159991070  0.7760416666666667
  0.3888166473195860  0.3888402159991070  0.7604166666666669
  0.6110388695418083  0.9443957715546626  0.7656250000000000
  0.0554833139862527  0.3888402159991070  0.7760416666666667
  0.3888166473195859  0.7221735493324405  0.7760416666666667
  0.7221499806529194  0.7221735493324405  0.7760416666666667
  0.0554833139862527  0.7221735493324405  0.7760416666666667
  0.3888166473195860  0.0555068826657736  0.7760416666666667
  0.7221499806529194  0.0555068826657736  0.7760416666666667
  0.0554833139862527  0.0555068826657736  0.7760416666666667
  0.4999277584306970  0.1666179937768848  0.7708333333333334
  0.8332610917640305  0.1666179937768848  0.7708333333333334
  0.1665944250973637  0.1666179937768848  0.7708333333333334
  0.4999277584306971  0.4999513271102181  0.7708333333333334
  0.8332610917640304  0.4999513271102181  0.7708333333333334
  0.1665944250973637  0.4999513271102181  0.7708333333333334
  0.4999277584306969  0.8332846604435514  0.7708333333333334
  0.8332610917640304  0.8332846604435514  0.7708333333333334
  0.1665944250973639  0.8332846604435514  0.7708333333333334
  0.2777055362084748  0.2777291048879957  0.7656250000000000
  0.6110388695418083  0.2777291048879957  0.7656250000000000
  0.9443722028751416  0.2777291048879957  0.7656250000000000
  0.2777055362084749  0.6110624382213292  0.7656250000000000
  0.6110388695418083  0.6110624382213292  0.7656250000000000
  0.9443722028751417  0.6110624382213292  0.7656250000000000
  0.2777055362084748  0.9443957715546626  0.7656250000000000
  0.9443722028751415  0.9443957715546626  0.7656250000000000
  0.3888166473195860  0.3888402159991070  0.8697916666666669
  0.3888166473195860  0.3888402159991070  0.8072916666666667
  0.6110388695418083  0.9443957715546626  0.8125000000000001
  0.0554833139862527  0.3888402159991070  0.8541666666666667
  0.3888166473195859  0.7221735493324405  0.8541666666666667
  0.7221499806529194  0.7221735493324405  0.8541666666666667
  0.0554833139862527  0.7221735493324405  0.8541666666666667
  0.3888166473195860  0.0555068826657736  0.8541666666666667
  0.7221499806529194  0.0555068826657736  0.8541666666666667
  0.0554833139862527  0.0555068826657736  0.8541666666666667
  0.4999277584306970  0.1666179937768848  0.8489583333333334
  0.8332610917640305  0.1666179937768848  0.8489583333333334
  0.1665944250973637  0.1666179937768848  0.8489583333333334
  0.4999277584306971  0.4999513271102181  0.8489583333333334
  0.8332610917640304  0.4999513271102181  0.8489583333333334
  0.1665944250973637  0.4999513271102181  0.8489583333333334
  0.4999277584306969  0.8332846604435514  0.8489583333333334
  0.8332610917640304  0.8332846604435514  0.8489583333333334
  0.1665944250973639  0.8332846604435514  0.8489583333333334
  0.2777055362084748  0.2777291048879957  0.8437500000000000
  0.6110388695418083  0.2777291048879957  0.8437500000000000
  0.9443722028751416  0.2777291048879957  0.8437500000000000
  0.2777055362084749  0.6110624382213292  0.8437500000000000
  0.6110388695418083  0.6110624382213292  0.8437500000000000
  0.9443722028751417  0.6110624382213292  0.8437500000000000
  0.2777055362084748  0.9443957715546626  0.8437500000000000
  0.7221499806529194  0.3888402159991070  0.8541666666666667
  0.6110388695418083  0.9443957715546626  0.8437500000000000
  0.3888166473195860  0.3888402159991070  0.8541666666666667
  0.6110388695418083  0.9443957715546626  0.8593750000000001
  0.0554833139862527  0.3888402159991070  0.8697916666666669
  0.3888166473195859  0.7221735493324405  0.8697916666666669
  0.7221499806529194  0.7221735493324405  0.8697916666666669
  0.0554833139862527  0.7221735493324405  0.8697916666666669
  0.3888166473195860  0.0555068826657736  0.8697916666666669
  0.7221499806529194  0.0555068826657736  0.8697916666666669
  0.0554833139862527  0.0555068826657736  0.8697916666666669
  0.4999277584306970  0.1666179937768848  0.8645833333333335
  0.8332610917640305  0.1666179937768848  0.8645833333333335
  0.1665944250973637  0.1666179937768848  0.8645833333333335
  0.4999277584306971  0.4999513271102181  0.8645833333333335
  0.8332610917640304  0.4999513271102181  0.8645833333333335
  0.1665944250973637  0.4999513271102181  0.8645833333333335
  0.4999277584306969  0.8332846604435514  0.8645833333333335
  0.8332610917640304  0.8332846604435514  0.8645833333333335
  0.1665944250973639  0.8332846604435514  0.8645833333333335
  0.2777055362084748  0.2777291048879957  0.8593750000000001
  0.6110388695418083  0.2777291048879957  0.8593750000000001
  0.9443722028751416  0.2777291048879957  0.8593750000000001
  0.2777055362084749  0.6110624382213292  0.8593750000000001
  0.6110388695418083  0.6110624382213292  0.8593750000000001
  0.9443722028751417  0.6110624382213292  0.8593750000000001
  0.2777055362084748  0.9443957715546626  0.8593750000000001
  0.9443722028751415  0.9443957715546626  0.8593750000000001
  0.9443722028751415  0.9443957715546626  0.8125000000000001
  0.9443722028751415  0.9443957715546626  0.8437500000000000
  0.7221499806529194  0.3888402159991070  0.8385416666666669
  0.0554833139862527  0.3888402159991070  0.8229166666666667
  0.3888166473195859  0.7221735493324405  0.8229166666666667
  0.7221499806529194  0.7221735493324405  0.8229166666666667
  0.0554833139862527  0.7221735493324405  0.8229166666666667
  0.3888166473195860  0.0555068826657736  0.8229166666666667
  0.7221499806529194  0.0555068826657736  0.8229166666666667
  0.0554833139862527  0.0555068826657736  0.8229166666666667
  0.4999277584306970  0.1666179937768848  0.8177083333333335
  0.8332610917640305  0.1666179937768848  0.8177083333333335
  0.1665944250973637  0.1666179937768848  0.8177083333333335
  0.4999277584306971  0.4999513271102181  0.8177083333333335
  0.8332610917640304  0.4999513271102181  0.8177083333333335
  0.1665944250973637  0.4999513271102181  0.8177083333333335
  0.4999277584306969  0.8332846604435514  0.8177083333333335
  0.8332610917640304  0.8332846604435514  0.8177083333333335
  0.1665944250973639  0.8332846604435514  0.8177083333333335
  0.2777055362084748  0.2777291048879957  0.8125000000000001
  0.6110388695418083  0.2777291048879957  0.8125000000000001
  0.9443722028751416  0.2777291048879957  0.8125000000000001
  0.2777055362084749  0.6110624382213292  0.8125000000000001
  0.6110388695418083  0.6110624382213292  0.8125000000000001
  0.9443722028751417  0.6110624382213292  0.8125000000000001
  0.2777055362084748  0.9443957715546626  0.8125000000000001
  0.7221499806529194  0.3888402159991070  0.8229166666666667
  0.3888166473195860  0.3888402159991070  0.8385416666666669
  0.3888166473195860  0.3888402159991070  0.8229166666666667
  0.6110388695418083  0.9443957715546626  0.8281250000000001
  0.0554833139862527  0.3888402159991070  0.8385416666666669
  0.3888166473195859  0.7221735493324405  0.8385416666666669
  0.7221499806529194  0.7221735493324405  0.8385416666666669
  0.0554833139862527  0.7221735493324405  0.8385416666666669
  0.3888166473195860  0.0555068826657736  0.8385416666666669
  0.7221499806529194  0.0555068826657736  0.8385416666666669
  0.0554833139862527  0.0555068826657736  0.8385416666666669
  0.4999277584306970  0.1666179937768848  0.8333333333333335
  0.8332610917640305  0.1666179937768848  0.8333333333333335
  0.1665944250973637  0.1666179937768848  0.8333333333333335
  0.4999277584306971  0.4999513271102181  0.8333333333333335
  0.8332610917640304  0.4999513271102181  0.8333333333333335
  0.1665944250973637  0.4999513271102181  0.8333333333333335
  0.4999277584306969  0.8332846604435514  0.8333333333333335
  0.8332610917640304  0.8332846604435514  0.8333333333333335
  0.1665944250973639  0.8332846604435514  0.8333333333333335
  0.2777055362084748  0.2777291048879957  0.8281250000000001
  0.6110388695418083  0.2777291048879957  0.8281250000000001
  0.9443722028751416  0.2777291048879957  0.8281250000000001
  0.2777055362084749  0.6110624382213292  0.8281250000000001
  0.6110388695418083  0.6110624382213292  0.8281250000000001
  0.9443722028751417  0.6110624382213292  0.8281250000000001
  0.2777055362084748  0.9443957715546626  0.8281250000000001
  0.9443722028751415  0.9443957715546626  0.8281250000000001
  0.2775751175086040  0.1668660270416701  0.5000000000000000
  0.3889187402578415  0.3890444541684682  0.4947916666666667
  0.7222520735911749  0.3890444541684682  0.4947916666666667
  0.8334217517845816  0.3888201104524704  0.1666666666666667
  0.5000884184512483  0.3888201104524704  0.1666666666666667
  0.1667550851179151  0.3888201104524704  0.1666666666666667
  0.8334217517845816  0.0554867771191371  0.1666666666666667
  0.5000884184512483  0.0554867771191371  0.1666666666666667
  0.1667550851179151  0.0554867771191371  0.1666666666666667
  0.7223106406734705  0.9443756660080258  0.1614583333333334
  0.3889773073401372  0.9443756660080258  0.1614583333333334
  0.0556439740068041  0.9443756660080258  0.1614583333333334
  0.7223106406734704  0.6110423326746927  0.1614583333333334
  0.3889773073401373  0.6110423326746927  0.1614583333333334
  0.0556439740068041  0.6110423326746927  0.1614583333333334
  0.7223106406734706  0.2777089993413593  0.1614583333333334
  0.3889773073401372  0.2777089993413593  0.1614583333333334
  0.0556439740068041  0.2777089993413593  0.1614583333333334
  0.9445328628956927  0.8332645548969149  0.1562500000000000
  0.6111995295623593  0.8332645548969149  0.1562500000000000
  0.2778661962290262  0.8332645548969149  0.1562500000000000
  0.9445328628956927  0.4999312215635815  0.1562500000000000
  0.6111995295623593  0.4999312215635815  0.1562500000000000
  0.2778661962290261  0.4999312215635815  0.1562500000000000
  0.9445328628956927  0.1665978882302482  0.1562500000000000
  0.6111995295623593  0.1665978882302482  0.1562500000000000
  0.1667550851179151  0.7221534437858037  0.1666666666666667
  0.2778661962290262  0.1665978882302482  0.1562500000000000
  0.5000884184512483  0.7221534437858037  0.1666666666666667
  0.2778661962290262  0.1665978882302482  0.1718750000000000
  0.8334217517845816  0.3888201104524704  0.1822916666666667
  0.5000884184512483  0.3888201104524704  0.1822916666666667
  0.1667550851179151  0.3888201104524704  0.1822916666666667
  0.8334217517845816  0.0554867771191371  0.1822916666666667
  0.5000884184512483  0.0554867771191371  0.1822916666666667
  0.1667550851179151  0.0554867771191371  0.1822916666666667
  0.7223106406734705  0.9443756660080258  0.1770833333333334
  0.3889773073401372  0.9443756660080258  0.1770833333333334
  0.0556439740068041  0.9443756660080258  0.1770833333333334
  0.7223106406734704  0.6110423326746927  0.1770833333333334
  0.3889773073401373  0.6110423326746927  0.1770833333333334
  0.0556439740068041  0.6110423326746927  0.1770833333333334
  0.7223106406734706  0.2777089993413593  0.1770833333333334
  0.3889773073401372  0.2777089993413593  0.1770833333333334
  0.0556439740068041  0.2777089993413593  0.1770833333333334
  0.9445328628956927  0.8332645548969149  0.1718750000000000
  0.6111995295623593  0.8332645548969149  0.1718750000000000
  0.2778661962290262  0.8332645548969149  0.1718750000000000
  0.9445328628956927  0.4999312215635815  0.1718750000000000
  0.6111995295623593  0.4999312215635815  0.1718750000000000
  0.2778661962290261  0.4999312215635815  0.1718750000000000
  0.9445328628956927  0.1665978882302482  0.1718750000000000
  0.6111995295623593  0.1665978882302482  0.1718750000000000
  0.8334217517845816  0.7221534437858037  0.1666666666666667
  0.1667550851179151  0.7221534437858037  0.1822916666666667
  0.8334217517845816  0.7221534437858037  0.1510416666666667
  0.1667550851179151  0.7221534437858037  0.1510416666666667
  0.8334217517845816  0.3888201104524704  0.1354166666666667
  0.5000884184512483  0.3888201104524704  0.1354166666666667
  0.1667550851179151  0.3888201104524704  0.1354166666666667
  0.8334217517845816  0.0554867771191371  0.1354166666666667
  0.5000884184512483  0.0554867771191371  0.1354166666666667
  0.1667550851179151  0.0554867771191371  0.1354166666666667
  0.7223106406734705  0.9443756660080258  0.1302083333333333
  0.3889773073401372  0.9443756660080258  0.1302083333333333
  0.0556439740068041  0.9443756660080258  0.1302083333333333
  0.7223106406734704  0.6110423326746927  0.1302083333333333
  0.3889773073401373  0.6110423326746927  0.1302083333333333
  0.0556439740068041  0.6110423326746927  0.1302083333333333
  0.7223106406734706  0.2777089993413593  0.1302083333333333
  0.3889773073401372  0.2777089993413593  0.1302083333333333
  0.0556439740068041  0.2777089993413593  0.1302083333333333
  0.9445328628956927  0.8332645548969149  0.1250000000000000
  0.6111995295623593  0.8332645548969149  0.1250000000000000
  0.2778661962290262  0.8332645548969149  0.1250000000000000
  0.9445328628956927  0.4999312215635815  0.1250000000000000
  0.6111995295623593  0.4999312215635815  0.1250000000000000
  0.2778661962290261  0.4999312215635815  0.1250000000000000
  0.9445328628956927  0.1665978882302482  0.1250000000000000
  0.6111995295623593  0.1665978882302482  0.1250000000000000
  0.1667550851179151  0.7221534437858037  0.1354166666666667
  0.5000884184512483  0.7221534437858037  0.1510416666666667
  0.5000884184512483  0.7221534437858037  0.1354166666666667
  0.2778661962290262  0.1665978882302482  0.1406250000000000
  0.8334217517845816  0.3888201104524704  0.1510416666666667
  0.5000884184512483  0.3888201104524704  0.1510416666666667
  0.1667550851179151  0.3888201104524704  0.1510416666666667
  0.8334217517845816  0.0554867771191371  0.1510416666666667
  0.5000884184512483  0.0554867771191371  0.1510416666666667
  0.1667550851179151  0.0554867771191371  0.1510416666666667
  0.7223106406734705  0.9443756660080258  0.1458333333333333
  0.3889773073401372  0.9443756660080258  0.1458333333333333
  0.0556439740068041  0.9443756660080258  0.1458333333333333
  0.7223106406734704  0.6110423326746927  0.1458333333333333
  0.3889773073401373  0.6110423326746927  0.1458333333333333
  0.0556439740068041  0.6110423326746927  0.1458333333333333
  0.7223106406734706  0.2777089993413593  0.1458333333333333
  0.3889773073401372  0.2777089993413593  0.1458333333333333
  0.0556439740068041  0.2777089993413593  0.1458333333333333
  0.9445328628956927  0.8332645548969149  0.1406250000000000
  0.6111995295623593  0.8332645548969149  0.1406250000000000
  0.2778661962290262  0.8332645548969149  0.1406250000000000
  0.9445328628956927  0.4999312215635815  0.1406250000000000
  0.6111995295623593  0.4999312215635815  0.1406250000000000
  0.2778661962290261  0.4999312215635815  0.1406250000000000
  0.9445328628956927  0.1665978882302482  0.1406250000000000
  0.6111995295623593  0.1665978882302482  0.1406250000000000
  0.8334217517845816  0.7221534437858037  0.1354166666666667
  0.2778661962290262  0.1665978882302482  0.1250000000000000
  0.5000884184512483  0.7221534437858037  0.1822916666666667
  0.2778661962290262  0.1665978882302482  0.1875000000000000
  0.8334217517845816  0.3888201104524704  0.2291666666666667
  0.5000884184512483  0.3888201104524704  0.2291666666666667
  0.1667550851179151  0.3888201104524704  0.2291666666666667
  0.8334217517845816  0.0554867771191371  0.2291666666666667
  0.5000884184512483  0.0554867771191371  0.2291666666666667
  0.1667550851179151  0.0554867771191371  0.2291666666666667
  0.7223106406734705  0.9443756660080258  0.2239583333333334
  0.3889773073401372  0.9443756660080258  0.2239583333333334
  0.0556439740068041  0.9443756660080258  0.2239583333333334
  0.7223106406734704  0.6110423326746927  0.2239583333333334
  0.3889773073401373  0.6110423326746927  0.2239583333333334
  0.0556439740068041  0.6110423326746927  0.2239583333333334
  0.7223106406734706  0.2777089993413593  0.2239583333333334
  0.3889773073401372  0.2777089993413593  0.2239583333333334
  0.0556439740068041  0.2777089993413593  0.2239583333333334
  0.9445328628956927  0.8332645548969149  0.2187500000000001
  0.6111995295623593  0.8332645548969149  0.2187500000000001
  0.2778661962290262  0.8332645548969149  0.2187500000000001
  0.9445328628956927  0.4999312215635815  0.2187500000000001
  0.6111995295623593  0.4999312215635815  0.2187500000000001
  0.2778661962290261  0.4999312215635815  0.2187500000000001
  0.9445328628956927  0.1665978882302482  0.2187500000000001
  0.6111995295623593  0.1665978882302482  0.2187500000000001
  0.1667550851179151  0.7221534437858037  0.2291666666666667
  0.2778661962290262  0.1665978882302482  0.2187500000000001
  0.5000884184512483  0.7221534437858037  0.2291666666666667
  0.2778661962290262  0.1665978882302482  0.2343750000000000
  0.8334217517845816  0.3888201104524704  0.2447916666666667
  0.5000884184512483  0.3888201104524704  0.2447916666666667
  0.1667550851179151  0.3888201104524704  0.2447916666666667
  0.8334217517845816  0.0554867771191371  0.2447916666666667
  0.5000884184512483  0.0554867771191371  0.2447916666666667
  0.1667550851179151  0.0554867771191371  0.2447916666666667
  0.7223106406734705  0.9443756660080258  0.2395833333333334
  0.3889773073401372  0.9443756660080258  0.2395833333333334
  0.0556439740068041  0.9443756660080258  0.2395833333333334
  0.7223106406734704  0.6110423326746927  0.2395833333333334
  0.3889773073401373  0.6110423326746927  0.2395833333333334
  0.0556439740068041  0.6110423326746927  0.2395833333333334
  0.7223106406734706  0.2777089993413593  0.2395833333333334
  0.3889773073401372  0.2777089993413593  0.2395833333333334
  0.0556439740068041  0.2777089993413593  0.2395833333333334
  0.9445328628956927  0.8332645548969149  0.2343750000000000
  0.6111995295623593  0.8332645548969149  0.2343750000000000
  0.2778661962290262  0.8332645548969149  0.2343750000000000
  0.9445328628956927  0.4999312215635815  0.2343750000000000
  0.6111995295623593  0.4999312215635815  0.2343750000000000
  0.2778661962290261  0.4999312215635815  0.2343750000000000
  0.9445328628956927  0.1665978882302482  0.2343750000000000
  0.6111995295623593  0.1665978882302482  0.2343750000000000
  0.8334217517845816  0.7221534437858037  0.2291666666666667
  0.8334217517845816  0.7221534437858037  0.1822916666666667
  0.8334217517845816  0.7221534437858037  0.2135416666666667
  0.1667550851179151  0.7221534437858037  0.2135416666666667
  0.8334217517845816  0.3888201104524704  0.1979166666666667
  0.5000884184512483  0.3888201104524704  0.1979166666666667
  0.1667550851179151  0.3888201104524704  0.1979166666666667
  0.8334217517845816  0.0554867771191371  0.1979166666666667
  0.5000884184512483  0.0554867771191371  0.1979166666666667
  0.1667550851179151  0.0554867771191371  0.1979166666666667
  0.7223106406734705  0.9443756660080258  0.1927083333333333
  0.3889773073401372  0.9443756660080258  0.1927083333333333
  0.0556439740068041  0.9443756660080258  0.1927083333333333
  0.7223106406734704  0.6110423326746927  0.1927083333333333
  0.3889773073401373  0.6110423326746927  0.1927083333333333
  0.0556439740068041  0.6110423326746927  0.1927083333333333
  0.7223106406734706  0.2777089993413593  0.1927083333333333
  0.3889773073401372  0.2777089993413593  0.1927083333333333
  0.0556439740068041  0.2777089993413593  0.1927083333333333
  0.9445328628956927  0.8332645548969149  0.1875000000000000
  0.6111995295623593  0.8332645548969149  0.1875000000000000
  0.2778661962290262  0.8332645548969149  0.1875000000000000
  0.9445328628956927  0.4999312215635815  0.1875000000000000
  0.6111995295623593  0.4999312215635815  0.1875000000000000
  0.2778661962290261  0.4999312215635815  0.1875000000000000
  0.9445328628956927  0.1665978882302482  0.1875000000000000
  0.6111995295623593  0.1665978882302482  0.1875000000000000
  0.1667550851179151  0.7221534437858037  0.1979166666666667
  0.5000884184512483  0.7221534437858037  0.2135416666666667
  0.5000884184512483  0.7221534437858037  0.1979166666666667
  0.2778661962290262  0.1665978882302482  0.2031250000000000
  0.8334217517845816  0.3888201104524704  0.2135416666666667
  0.5000884184512483  0.3888201104524704  0.2135416666666667
  0.1667550851179151  0.3888201104524704  0.2135416666666667
  0.8334217517845816  0.0554867771191371  0.2135416666666667
  0.5000884184512483  0.0554867771191371  0.2135416666666667
  0.1667550851179151  0.0554867771191371  0.2135416666666667
  0.7223106406734705  0.9443756660080258  0.2083333333333334
  0.3889773073401372  0.9443756660080258  0.2083333333333334
  0.0556439740068041  0.9443756660080258  0.2083333333333334
  0.7223106406734704  0.6110423326746927  0.2083333333333334
  0.3889773073401373  0.6110423326746927  0.2083333333333334
  0.0556439740068041  0.6110423326746927  0.2083333333333334
  0.7223106406734706  0.2777089993413593  0.2083333333333334
  0.3889773073401372  0.2777089993413593  0.2083333333333334
  0.0556439740068041  0.2777089993413593  0.2083333333333334
  0.9445328628956927  0.8332645548969149  0.2031250000000000
  0.6111995295623593  0.8332645548969149  0.2031250000000000
  0.2778661962290262  0.8332645548969149  0.2031250000000000
  0.9445328628956927  0.4999312215635815  0.2031250000000000
  0.6111995295623593  0.4999312215635815  0.2031250000000000
  0.2778661962290261  0.4999312215635815  0.2031250000000000
  0.9445328628956927  0.1665978882302482  0.2031250000000000
  0.6111995295623593  0.1665978882302482  0.2031250000000000
  0.8334217517845816  0.7221534437858037  0.1979166666666667
  0.1667550851179151  0.7221534437858037  0.2447916666666667
  0.8334217517845816  0.7221534437858037  0.1197916666666667
  0.1667550851179151  0.7221534437858037  0.1197916666666667
  0.8334217517845816  0.3888201104524704  0.0416666666666667
  0.5000884184512483  0.3888201104524704  0.0416666666666667
  0.1667550851179151  0.3888201104524704  0.0416666666666667
  0.8334217517845816  0.0554867771191371  0.0416666666666667
  0.5000884184512483  0.0554867771191371  0.0416666666666667
  0.1667550851179151  0.0554867771191371  0.0416666666666667
  0.7223106406734705  0.9443756660080258  0.0364583333333333
  0.3889773073401372  0.9443756660080258  0.0364583333333333
  0.0556439740068041  0.9443756660080258  0.0364583333333333
  0.7223106406734704  0.6110423326746927  0.0364583333333333
  0.3889773073401373  0.6110423326746927  0.0364583333333333
  0.0556439740068041  0.6110423326746927  0.0364583333333333
  0.7223106406734706  0.2777089993413593  0.0364583333333333
  0.3889773073401372  0.2777089993413593  0.0364583333333333
  0.0556439740068041  0.2777089993413593  0.0364583333333333
  0.9445328628956927  0.8332645548969149  0.0312500000000000
  0.6111995295623593  0.8332645548969149  0.0312500000000000
  0.2778661962290262  0.8332645548969149  0.0312500000000000
  0.9445328628956927  0.4999312215635815  0.0312500000000000
  0.6111995295623593  0.4999312215635815  0.0312500000000000
  0.2778661962290261  0.4999312215635815  0.0312500000000000
  0.9445328628956927  0.1665978882302482  0.0312500000000000
  0.6111995295623593  0.1665978882302482  0.0312500000000000
  0.1667550851179151  0.7221534437858037  0.0416666666666667
  0.2778661962290262  0.1665978882302482  0.0312500000000000
  0.5000884184512483  0.7221534437858037  0.0416666666666667
  0.2778661962290262  0.1665978882302482  0.0468750000000000
  0.8334217517845816  0.3888201104524704  0.0572916666666667
  0.5000884184512483  0.3888201104524704  0.0572916666666667
  0.1667550851179151  0.3888201104524704  0.0572916666666667
  0.8334217517845816  0.0554867771191371  0.0572916666666667
  0.5000884184512483  0.0554867771191371  0.0572916666666667
  0.1667550851179151  0.0554867771191371  0.0572916666666667
  0.7223106406734705  0.9443756660080258  0.0520833333333333
  0.3889773073401372  0.9443756660080258  0.0520833333333333
  0.0556439740068041  0.9443756660080258  0.0520833333333333
  0.7223106406734704  0.6110423326746927  0.0520833333333333
  0.3889773073401373  0.6110423326746927  0.0520833333333333
  0.0556439740068041  0.6110423326746927  0.0520833333333333
  0.7223106406734706  0.2777089993413593  0.0520833333333333
  0.3889773073401372  0.2777089993413593  0.0520833333333333
  0.0556439740068041  0.2777089993413593  0.0520833333333333
  0.9445328628956927  0.8332645548969149  0.0468750000000000
  0.6111995295623593  0.8332645548969149  0.0468750000000000
  0.2778661962290262  0.8332645548969149  0.0468750000000000
  0.9445328628956927  0.4999312215635815  0.0468750000000000
  0.6111995295623593  0.4999312215635815  0.0468750000000000
  0.2778661962290261  0.4999312215635815  0.0468750000000000
  0.9445328628956927  0.1665978882302482  0.0468750000000000
  0.6111995295623593  0.1665978882302482  0.0468750000000000
  0.8334217517845816  0.7221534437858037  0.0416666666666667
  0.1667550851179151  0.7221534437858037  0.0572916666666667
  0.8334217517845816  0.7221534437858037  0.0260416666666667
  0.1667550851179151  0.7221534437858037  0.0260416666666667
  0.8334217517845816  0.3888201104524704  0.0104166666666667
  0.5000884184512483  0.3888201104524704  0.0104166666666667
  0.1667550851179151  0.3888201104524704  0.0104166666666667
  0.8334217517845816  0.0554867771191371  0.0104166666666667
  0.5000884184512483  0.0554867771191371  0.0104166666666667
  0.1667550851179151  0.0554867771191371  0.0104166666666667
  0.7223106406734705  0.9443756660080258  0.0052083333333333
  0.3889773073401372  0.9443756660080258  0.0052083333333333
  0.0556439740068041  0.9443756660080258  0.0052083333333333
  0.7223106406734704  0.6110423326746927  0.0052083333333333
  0.3889773073401373  0.6110423326746927  0.0052083333333333
  0.0556439740068041  0.6110423326746927  0.0052083333333333
  0.7223106406734706  0.2777089993413593  0.0052083333333333
  0.3889773073401372  0.2777089993413593  0.0052083333333333
  0.0556439740068041  0.2777089993413593  0.0052083333333333
  0.9445328628956927  0.8332645548969149  0.0000000000000000
  0.6111995295623593  0.8332645548969149  0.0000000000000000
  0.2778661962290262  0.8332645548969149  0.0000000000000000
  0.9445328628956927  0.4999312215635815  0.0000000000000000
  0.6111995295623593  0.4999312215635815  0.0000000000000000
  0.2778661962290261  0.4999312215635815  0.0000000000000000
  0.9445328628956927  0.1665978882302482  0.0000000000000000
  0.6111995295623593  0.1665978882302482  0.0000000000000000
  0.1667550851179151  0.7221534437858037  0.0104166666666667
  0.5000884184512483  0.7221534437858037  0.0260416666666667
  0.5000884184512483  0.7221534437858037  0.0104166666666667
  0.2778661962290262  0.1665978882302482  0.0156250000000000
  0.8334217517845816  0.3888201104524704  0.0260416666666667
  0.5000884184512483  0.3888201104524704  0.0260416666666667
  0.1667550851179151  0.3888201104524704  0.0260416666666667
  0.8334217517845816  0.0554867771191371  0.0260416666666667
  0.5000884184512483  0.0554867771191371  0.0260416666666667
  0.1667550851179151  0.0554867771191371  0.0260416666666667
  0.7223106406734705  0.9443756660080258  0.0208333333333333
  0.3889773073401372  0.9443756660080258  0.0208333333333333
  0.0556439740068041  0.9443756660080258  0.0208333333333333
  0.7223106406734704  0.6110423326746927  0.0208333333333333
  0.3889773073401373  0.6110423326746927  0.0208333333333333
  0.0556439740068041  0.6110423326746927  0.0208333333333333
  0.7223106406734706  0.2777089993413593  0.0208333333333333
  0.3889773073401372  0.2777089993413593  0.0208333333333333
  0.0556439740068041  0.2777089993413593  0.0208333333333333
  0.9445328628956927  0.8332645548969149  0.0156250000000000
  0.6111995295623593  0.8332645548969149  0.0156250000000000
  0.2778661962290262  0.8332645548969149  0.0156250000000000
  0.9445328628956927  0.4999312215635815  0.0156250000000000
  0.6111995295623593  0.4999312215635815  0.0156250000000000
  0.2778661962290261  0.4999312215635815  0.0156250000000000
  0.9445328628956927  0.1665978882302482  0.0156250000000000
  0.6111995295623593  0.1665978882302482  0.0156250000000000
  0.8334217517845816  0.7221534437858037  0.0104166666666667
  0.5000884184512483  0.7221534437858037  0.1197916666666667
  0.5000884184512483  0.7221534437858037  0.0572916666666667
  0.2778661962290262  0.1665978882302482  0.0625000000000000
  0.8334217517845816  0.3888201104524704  0.1041666666666667
  0.5000884184512483  0.3888201104524704  0.1041666666666667
  0.1667550851179151  0.3888201104524704  0.1041666666666667
  0.8334217517845816  0.0554867771191371  0.1041666666666667
  0.5000884184512483  0.0554867771191371  0.1041666666666667
  0.1667550851179151  0.0554867771191371  0.1041666666666667
  0.7223106406734705  0.9443756660080258  0.0989583333333334
  0.3889773073401372  0.9443756660080258  0.0989583333333334
  0.0556439740068041  0.9443756660080258  0.0989583333333334
  0.7223106406734704  0.6110423326746927  0.0989583333333334
  0.3889773073401373  0.6110423326746927  0.0989583333333334
  0.0556439740068041  0.6110423326746927  0.0989583333333334
  0.7223106406734706  0.2777089993413593  0.0989583333333334
  0.3889773073401372  0.2777089993413593  0.0989583333333334
  0.0556439740068041  0.2777089993413593  0.0989583333333334
  0.9445328628956927  0.8332645548969149  0.0937500000000000
  0.6111995295623593  0.8332645548969149  0.0937500000000000
  0.2778661962290262  0.8332645548969149  0.0937500000000000
  0.9445328628956927  0.4999312215635815  0.0937500000000000
  0.6111995295623593  0.4999312215635815  0.0937500000000000
  0.2778661962290261  0.4999312215635815  0.0937500000000000
  0.9445328628956927  0.1665978882302482  0.0937500000000000
  0.6111995295623593  0.1665978882302482  0.0937500000000000
  0.1667550851179151  0.7221534437858037  0.1041666666666667
  0.2778661962290262  0.1665978882302482  0.0937500000000000
  0.5000884184512483  0.7221534437858037  0.1041666666666667
  0.2778661962290262  0.1665978882302482  0.1093750000000000
  0.8334217517845816  0.3888201104524704  0.1197916666666667
  0.5000884184512483  0.3888201104524704  0.1197916666666667
  0.1667550851179151  0.3888201104524704  0.1197916666666667
  0.8334217517845816  0.0554867771191371  0.1197916666666667
  0.5000884184512483  0.0554867771191371  0.1197916666666667
  0.1667550851179151  0.0554867771191371  0.1197916666666667
  0.7223106406734705  0.9443756660080258  0.1145833333333334
  0.3889773073401372  0.9443756660080258  0.1145833333333334
  0.0556439740068041  0.9443756660080258  0.1145833333333334
  0.7223106406734704  0.6110423326746927  0.1145833333333334
  0.3889773073401373  0.6110423326746927  0.1145833333333334
  0.0556439740068041  0.6110423326746927  0.1145833333333334
  0.7223106406734706  0.2777089993413593  0.1145833333333334
  0.3889773073401372  0.2777089993413593  0.1145833333333334
  0.0556439740068041  0.2777089993413593  0.1145833333333334
  0.9445328628956927  0.8332645548969149  0.1093750000000000
  0.6111995295623593  0.8332645548969149  0.1093750000000000
  0.2778661962290262  0.8332645548969149  0.1093750000000000
  0.9445328628956927  0.4999312215635815  0.1093750000000000
  0.6111995295623593  0.4999312215635815  0.1093750000000000
  0.2778661962290261  0.4999312215635815  0.1093750000000000
  0.9445328628956927  0.1665978882302482  0.1093750000000000
  0.6111995295623593  0.1665978882302482  0.1093750000000000
  0.8334217517845816  0.7221534437858037  0.1041666666666667
  0.8334217517845816  0.7221534437858037  0.0572916666666667
  0.8334217517845816  0.7221534437858037  0.0885416666666667
  0.1667550851179151  0.7221534437858037  0.0885416666666667
  0.8334217517845816  0.3888201104524704  0.0729166666666667
  0.5000884184512483  0.3888201104524704  0.0729166666666667
  0.1667550851179151  0.3888201104524704  0.0729166666666667
  0.8334217517845816  0.0554867771191371  0.0729166666666667
  0.5000884184512483  0.0554867771191371  0.0729166666666667
  0.1667550851179151  0.0554867771191371  0.0729166666666667
  0.7223106406734705  0.9443756660080258  0.0677083333333333
  0.3889773073401372  0.9443756660080258  0.0677083333333333
  0.0556439740068041  0.9443756660080258  0.0677083333333333
  0.7223106406734704  0.6110423326746927  0.0677083333333333
  0.3889773073401373  0.6110423326746927  0.0677083333333333
  0.0556439740068041  0.6110423326746927  0.0677083333333333
  0.7223106406734706  0.2777089993413593  0.0677083333333333
  0.3889773073401372  0.2777089993413593  0.0677083333333333
  0.0556439740068041  0.2777089993413593  0.0677083333333333
  0.9445328628956927  0.8332645548969149  0.0625000000000000
  0.6111995295623593  0.8332645548969149  0.0625000000000000
  0.2778661962290262  0.8332645548969149  0.0625000000000000
  0.9445328628956927  0.4999312215635815  0.0625000000000000
  0.6111995295623593  0.4999312215635815  0.0625000000000000
  0.2778661962290261  0.4999312215635815  0.0625000000000000
  0.9445328628956927  0.1665978882302482  0.0625000000000000
  0.6111995295623593  0.1665978882302482  0.0625000000000000
  0.1667550851179151  0.7221534437858037  0.0729166666666667
  0.5000884184512483  0.7221534437858037  0.0885416666666667
  0.5000884184512483  0.7221534437858037  0.0729166666666667
  0.2778661962290262  0.1665978882302482  0.0781250000000000
  0.8334217517845816  0.3888201104524704  0.0885416666666667
  0.5000884184512483  0.3888201104524704  0.0885416666666667
  0.1667550851179151  0.3888201104524704  0.0885416666666667
  0.8334217517845816  0.0554867771191371  0.0885416666666667
  0.5000884184512483  0.0554867771191371  0.0885416666666667
  0.1667550851179151  0.0554867771191371  0.0885416666666667
  0.7223106406734705  0.9443756660080258  0.0833333333333333
  0.3889773073401372  0.9443756660080258  0.0833333333333333
  0.0556439740068041  0.9443756660080258  0.0833333333333333
  0.7223106406734704  0.6110423326746927  0.0833333333333333
  0.3889773073401373  0.6110423326746927  0.0833333333333333
  0.0556439740068041  0.6110423326746927  0.0833333333333333
  0.7223106406734706  0.2777089993413593  0.0833333333333333
  0.3889773073401372  0.2777089993413593  0.0833333333333333
  0.0556439740068041  0.2777089993413593  0.0833333333333333
  0.9445328628956927  0.8332645548969149  0.0781250000000000
  0.6111995295623593  0.8332645548969149  0.0781250000000000
  0.2778661962290262  0.8332645548969149  0.0781250000000000
  0.9445328628956927  0.4999312215635815  0.0781250000000000
  0.6111995295623593  0.4999312215635815  0.0781250000000000
  0.2778661962290261  0.4999312215635815  0.0781250000000000
  0.9445328628956927  0.1665978882302482  0.0781250000000000
  0.6111995295623593  0.1665978882302482  0.0781250000000000
  0.8334217517845816  0.7221534437858037  0.0729166666666667
  0.5000884184512483  0.7221534437858037  0.2447916666666667
  0.8334217517845816  0.7221534437858037  0.2447916666666667
  0.9444742958133969  0.9446000097240238  0.2500000000000000
  0.0555854069245083  0.3890444541684682  0.4166666666666667
  0.3889187402578414  0.7223777875018017  0.4166666666666667
  0.7222520735911749  0.7223777875018017  0.4166666666666667
  0.0555854069245083  0.7223777875018017  0.4166666666666667
  0.3889187402578415  0.0557111208351348  0.4166666666666667
  0.7222520735911749  0.0557111208351348  0.4166666666666667
  0.0555854069245082  0.0557111208351348  0.4166666666666667
  0.5000298513689526  0.1668222319462460  0.4114583333333334
  0.8333631847022860  0.1668222319462460  0.4114583333333334
  0.1666965180356192  0.1668222319462460  0.4114583333333334
  0.5000298513689526  0.5001555652795793  0.4114583333333334
  0.8333631847022860  0.5001555652795793  0.4114583333333334
  0.1666965180356192  0.5001555652795793  0.4114583333333334
  0.5000298513689525  0.8334888986129125  0.4114583333333334
  0.8333631847022860  0.8334888986129125  0.4114583333333334
  0.1666965180356194  0.8334888986129125  0.4114583333333334
  0.2778076291467303  0.2779333430573570  0.4062500000000001
  0.6111409624800639  0.2779333430573570  0.4062500000000001
  0.9444742958133970  0.2779333430573570  0.4062500000000001
  0.2778076291467304  0.6112666763906904  0.4062500000000001
  0.6111409624800639  0.6112666763906904  0.4062500000000001
  0.9444742958133971  0.6112666763906904  0.4062500000000001
  0.2778076291467304  0.9446000097240238  0.4062500000000001
  0.7222520735911749  0.3890444541684682  0.4166666666666667
  0.6111409624800639  0.9446000097240238  0.4062500000000001
  0.3889187402578415  0.3890444541684682  0.4166666666666667
  0.6111409624800639  0.9446000097240238  0.4218750000000000
  0.0555854069245083  0.3890444541684682  0.4322916666666667
  0.3889187402578414  0.7223777875018017  0.4322916666666667
  0.7222520735911749  0.7223777875018017  0.4322916666666667
  0.0555854069245083  0.7223777875018017  0.4322916666666667
  0.3889187402578415  0.0557111208351348  0.4322916666666667
  0.7222520735911749  0.0557111208351348  0.4322916666666667
  0.0555854069245082  0.0557111208351348  0.4322916666666667
  0.5000298513689526  0.1668222319462460  0.4270833333333334
  0.8333631847022860  0.1668222319462460  0.4270833333333334
  0.1666965180356192  0.1668222319462460  0.4270833333333334
  0.5000298513689526  0.5001555652795793  0.4270833333333334
  0.8333631847022860  0.5001555652795793  0.4270833333333334
  0.1666965180356192  0.5001555652795793  0.4270833333333334
  0.5000298513689525  0.8334888986129125  0.4270833333333334
  0.8333631847022860  0.8334888986129125  0.4270833333333334
  0.1666965180356194  0.8334888986129125  0.4270833333333334
  0.2778076291467303  0.2779333430573570  0.4218750000000000
  0.6111409624800639  0.2779333430573570  0.4218750000000000
  0.9444742958133970  0.2779333430573570  0.4218750000000000
  0.2778076291467304  0.6112666763906904  0.4218750000000000
  0.6111409624800639  0.6112666763906904  0.4218750000000000
  0.9444742958133971  0.6112666763906904  0.4218750000000000
  0.2778076291467304  0.9446000097240238  0.4218750000000000
  0.9444742958133969  0.9446000097240238  0.4218750000000000
  0.7222520735911749  0.3890444541684682  0.4322916666666667
  0.9444742958133969  0.9446000097240238  0.4062500000000001
  0.7222520735911749  0.3890444541684682  0.4010416666666667
  0.0555854069245083  0.3890444541684682  0.3854166666666667
  0.3889187402578414  0.7223777875018017  0.3854166666666667
  0.7222520735911749  0.7223777875018017  0.3854166666666667
  0.0555854069245083  0.7223777875018017  0.3854166666666667
  0.3889187402578415  0.0557111208351348  0.3854166666666667
  0.7222520735911749  0.0557111208351348  0.3854166666666667
  0.0555854069245082  0.0557111208351348  0.3854166666666667
  0.5000298513689526  0.1668222319462460  0.3802083333333334
  0.8333631847022860  0.1668222319462460  0.3802083333333334
  0.1666965180356192  0.1668222319462460  0.3802083333333334
  0.5000298513689526  0.5001555652795793  0.3802083333333334
  0.8333631847022860  0.5001555652795793  0.3802083333333334
  0.1666965180356192  0.5001555652795793  0.3802083333333334
  0.5000298513689525  0.8334888986129125  0.3802083333333334
  0.8333631847022860  0.8334888986129125  0.3802083333333334
  0.1666965180356194  0.8334888986129125  0.3802083333333334
  0.2778076291467303  0.2779333430573570  0.3750000000000001
  0.6111409624800639  0.2779333430573570  0.3750000000000001
  0.9444742958133970  0.2779333430573570  0.3750000000000001
  0.2778076291467304  0.6112666763906904  0.3750000000000001
  0.6111409624800639  0.6112666763906904  0.3750000000000001
  0.9444742958133971  0.6112666763906904  0.3750000000000001
  0.2778076291467304  0.9446000097240238  0.3750000000000001
  0.7222520735911749  0.3890444541684682  0.3854166666666667
  0.3889187402578415  0.3890444541684682  0.4010416666666667
  0.3889187402578415  0.3890444541684682  0.3854166666666667
  0.6111409624800639  0.9446000097240238  0.3906250000000001
  0.0555854069245083  0.3890444541684682  0.4010416666666667
  0.3889187402578414  0.7223777875018017  0.4010416666666667
  0.7222520735911749  0.7223777875018017  0.4010416666666667
  0.0555854069245083  0.7223777875018017  0.4010416666666667
  0.3889187402578415  0.0557111208351348  0.4010416666666667
  0.7222520735911749  0.0557111208351348  0.4010416666666667
  0.0555854069245082  0.0557111208351348  0.4010416666666667
  0.5000298513689526  0.1668222319462460  0.3958333333333334
  0.8333631847022860  0.1668222319462460  0.3958333333333334
  0.1666965180356192  0.1668222319462460  0.3958333333333334
  0.5000298513689526  0.5001555652795793  0.3958333333333334
  0.8333631847022860  0.5001555652795793  0.3958333333333334
  0.1666965180356192  0.5001555652795793  0.3958333333333334
  0.5000298513689525  0.8334888986129125  0.3958333333333334
  0.8333631847022860  0.8334888986129125  0.3958333333333334
  0.1666965180356194  0.8334888986129125  0.3958333333333334
  0.2778076291467303  0.2779333430573570  0.3906250000000001
  0.6111409624800639  0.2779333430573570  0.3906250000000001
  0.9444742958133970  0.2779333430573570  0.3906250000000001
  0.2778076291467304  0.6112666763906904  0.3906250000000001
  0.6111409624800639  0.6112666763906904  0.3906250000000001
  0.9444742958133971  0.6112666763906904  0.3906250000000001
  0.2778076291467304  0.9446000097240238  0.3906250000000001
  0.9444742958133969  0.9446000097240238  0.3906250000000001
  0.6111409624800639  0.9446000097240238  0.3750000000000001
  0.3889187402578415  0.3890444541684682  0.4322916666666667
  0.6111409624800639  0.9446000097240238  0.4375000000000001
  0.0555854069245083  0.3890444541684682  0.4791666666666667
  0.3889187402578414  0.7223777875018017  0.4791666666666667
  0.7222520735911749  0.7223777875018017  0.4791666666666667
  0.0555854069245083  0.7223777875018017  0.4791666666666667
  0.3889187402578415  0.0557111208351348  0.4791666666666667
  0.7222520735911749  0.0557111208351348  0.4791666666666667
  0.0555854069245082  0.0557111208351348  0.4791666666666667
  0.5000298513689526  0.1668222319462460  0.4739583333333334
  0.8333631847022860  0.1668222319462460  0.4739583333333334
  0.1666965180356192  0.1668222319462460  0.4739583333333334
  0.5000298513689526  0.5001555652795793  0.4739583333333334
  0.8333631847022860  0.5001555652795793  0.4739583333333334
  0.1666965180356192  0.5001555652795793  0.4739583333333334
  0.5000298513689525  0.8334888986129125  0.4739583333333334
  0.8333631847022860  0.8334888986129125  0.4739583333333334
  0.1666965180356194  0.8334888986129125  0.4739583333333334
  0.2778076291467303  0.2779333430573570  0.4687500000000001
  0.6111409624800639  0.2779333430573570  0.4687500000000001
  0.9444742958133970  0.2779333430573570  0.4687500000000001
  0.2778076291467304  0.6112666763906904  0.4687500000000001
  0.6111409624800639  0.6112666763906904  0.4687500000000001
  0.9444742958133971  0.6112666763906904  0.4687500000000001
  0.2778076291467304  0.9446000097240238  0.4687500000000001
  0.7222520735911749  0.3890444541684682  0.4791666666666667
  0.6111409624800639  0.9446000097240238  0.4687500000000001
  0.3889187402578415  0.3890444541684682  0.4791666666666667
  0.6111409624800639  0.9446000097240238  0.4843750000000001
  0.0555854069245083  0.3890444541684682  0.4947916666666667
  0.3889187402578414  0.7223777875018017  0.4947916666666667
  0.7222520735911749  0.7223777875018017  0.4947916666666667
  0.0555854069245083  0.7223777875018017  0.4947916666666667
  0.3889187402578415  0.0557111208351348  0.4947916666666667
  0.7222520735911749  0.0557111208351348  0.4947916666666667
  0.0555854069245082  0.0557111208351348  0.4947916666666667
  0.5000298513689526  0.1668222319462460  0.4895833333333334
  0.8333631847022860  0.1668222319462460  0.4895833333333334
  0.1666965180356192  0.1668222319462460  0.4895833333333334
  0.5000298513689526  0.5001555652795793  0.4895833333333334
  0.8333631847022860  0.5001555652795793  0.4895833333333334
  0.1666965180356192  0.5001555652795793  0.4895833333333334
  0.5000298513689525  0.8334888986129125  0.4895833333333334
  0.8333631847022860  0.8334888986129125  0.4895833333333334
  0.1666965180356194  0.8334888986129125  0.4895833333333334
  0.2778076291467303  0.2779333430573570  0.4843750000000001
  0.6111409624800639  0.2779333430573570  0.4843750000000001
  0.9444742958133970  0.2779333430573570  0.4843750000000001
  0.2778076291467304  0.6112666763906904  0.4843750000000001
  0.6111409624800639  0.6112666763906904  0.4843750000000001
  0.9444742958133971  0.6112666763906904  0.4843750000000001
  0.2778076291467304  0.9446000097240238  0.4843750000000001
  0.9444742958133969  0.9446000097240238  0.4843750000000001
  0.9444742958133969  0.9446000097240238  0.4375000000000001
  0.9444742958133969  0.9446000097240238  0.4687500000000001
  0.7222520735911749  0.3890444541684682  0.4635416666666667
  0.0555854069245083  0.3890444541684682  0.4479166666666667
  0.3889187402578414  0.7223777875018017  0.4479166666666667
  0.7222520735911749  0.7223777875018017  0.4479166666666667
  0.0555854069245083  0.7223777875018017  0.4479166666666667
  0.3889187402578415  0.0557111208351348  0.4479166666666667
  0.7222520735911749  0.0557111208351348  0.4479166666666667
  0.0555854069245082  0.0557111208351348  0.4479166666666667
  0.5000298513689526  0.1668222319462460  0.4427083333333334
  0.8333631847022860  0.1668222319462460  0.4427083333333334
  0.1666965180356192  0.1668222319462460  0.4427083333333334
  0.5000298513689526  0.5001555652795793  0.4427083333333334
  0.8333631847022860  0.5001555652795793  0.4427083333333334
  0.1666965180356192  0.5001555652795793  0.4427083333333334
  0.5000298513689525  0.8334888986129125  0.4427083333333334
  0.8333631847022860  0.8334888986129125  0.4427083333333334
  0.1666965180356194  0.8334888986129125  0.4427083333333334
  0.2778076291467303  0.2779333430573570  0.4375000000000001
  0.6111409624800639  0.2779333430573570  0.4375000000000001
  0.9444742958133970  0.2779333430573570  0.4375000000000001
  0.2778076291467304  0.6112666763906904  0.4375000000000001
  0.6111409624800639  0.6112666763906904  0.4375000000000001
  0.9444742958133971  0.6112666763906904  0.4375000000000001
  0.2778076291467304  0.9446000097240238  0.4375000000000001
  0.7222520735911749  0.3890444541684682  0.4479166666666667
  0.3889187402578415  0.3890444541684682  0.4635416666666667
  0.3889187402578415  0.3890444541684682  0.4479166666666667
  0.6111409624800639  0.9446000097240238  0.4531250000000001
  0.0555854069245083  0.3890444541684682  0.4635416666666667
  0.3889187402578414  0.7223777875018017  0.4635416666666667
  0.7222520735911749  0.7223777875018017  0.4635416666666667
  0.0555854069245083  0.7223777875018017  0.4635416666666667
  0.3889187402578415  0.0557111208351348  0.4635416666666667
  0.7222520735911749  0.0557111208351348  0.4635416666666667
  0.0555854069245082  0.0557111208351348  0.4635416666666667
  0.5000298513689526  0.1668222319462460  0.4583333333333334
  0.8333631847022860  0.1668222319462460  0.4583333333333334
  0.1666965180356192  0.1668222319462460  0.4583333333333334
  0.5000298513689526  0.5001555652795793  0.4583333333333334
  0.8333631847022860  0.5001555652795793  0.4583333333333334
  0.1666965180356192  0.5001555652795793  0.4583333333333334
  0.5000298513689525  0.8334888986129125  0.4583333333333334
  0.8333631847022860  0.8334888986129125  0.4583333333333334
  0.1666965180356194  0.8334888986129125  0.4583333333333334
  0.2778076291467303  0.2779333430573570  0.4531250000000001
  0.6111409624800639  0.2779333430573570  0.4531250000000001
  0.9444742958133970  0.2779333430573570  0.4531250000000001
  0.2778076291467304  0.6112666763906904  0.4531250000000001
  0.6111409624800639  0.6112666763906904  0.4531250000000001
  0.9444742958133971  0.6112666763906904  0.4531250000000001
  0.2778076291467304  0.9446000097240238  0.4531250000000001
  0.9444742958133969  0.9446000097240238  0.4531250000000001
  0.9444742958133969  0.9446000097240238  0.3750000000000001
  0.3889187402578415  0.3890444541684682  0.3697916666666667
  0.7222520735911749  0.3890444541684682  0.3697916666666667
  0.3889187402578414  0.7223777875018017  0.2916666666666667
  0.7222520735911749  0.7223777875018017  0.2916666666666667
  0.0555854069245083  0.7223777875018017  0.2916666666666667
  0.3889187402578415  0.0557111208351348  0.2916666666666667
  0.7222520735911749  0.0557111208351348  0.2916666666666667
  0.0555854069245082  0.0557111208351348  0.2916666666666667
  0.5000298513689526  0.1668222319462460  0.2864583333333334
  0.8333631847022860  0.1668222319462460  0.2864583333333334
  0.1666965180356192  0.1668222319462460  0.2864583333333334
  0.5000298513689526  0.5001555652795793  0.2864583333333334
  0.8333631847022860  0.5001555652795793  0.2864583333333334
  0.1666965180356192  0.5001555652795793  0.2864583333333334
  0.5000298513689525  0.8334888986129125  0.2864583333333334
  0.8333631847022860  0.8334888986129125  0.2864583333333334
  0.1666965180356194  0.8334888986129125  0.2864583333333334
  0.2778076291467303  0.2779333430573570  0.2812500000000001
  0.6111409624800639  0.2779333430573570  0.2812500000000001
  0.9444742958133970  0.2779333430573570  0.2812500000000001
  0.2778076291467304  0.6112666763906904  0.2812500000000001
  0.6111409624800639  0.6112666763906904  0.2812500000000001
  0.9444742958133971  0.6112666763906904  0.2812500000000001
  0.2778076291467304  0.9446000097240238  0.2812500000000001
  0.6111409624800639  0.9446000097240238  0.2812500000000001
  0.0555854069245083  0.3890444541684682  0.2916666666666667
  0.9444742958133969  0.9446000097240238  0.2812500000000001
  0.7222520735911749  0.3890444541684682  0.2916666666666667
  0.9444742958133969  0.9446000097240238  0.2968750000000001
  0.3889187402578414  0.7223777875018017  0.3072916666666667
  0.7222520735911749  0.7223777875018017  0.3072916666666667
  0.0555854069245083  0.7223777875018017  0.3072916666666667
  0.3889187402578415  0.0557111208351348  0.3072916666666667
  0.7222520735911749  0.0557111208351348  0.3072916666666667
  0.0555854069245082  0.0557111208351348  0.3072916666666667
  0.5000298513689526  0.1668222319462460  0.3020833333333334
  0.8333631847022860  0.1668222319462460  0.3020833333333334
  0.1666965180356192  0.1668222319462460  0.3020833333333334
  0.5000298513689526  0.5001555652795793  0.3020833333333334
  0.8333631847022860  0.5001555652795793  0.3020833333333334
  0.1666965180356192  0.5001555652795793  0.3020833333333334
  0.5000298513689525  0.8334888986129125  0.3020833333333334
  0.8333631847022860  0.8334888986129125  0.3020833333333334
  0.1666965180356194  0.8334888986129125  0.3020833333333334
  0.2778076291467303  0.2779333430573570  0.2968750000000001
  0.6111409624800639  0.2779333430573570  0.2968750000000001
  0.9444742958133970  0.2779333430573570  0.2968750000000001
  0.2778076291467304  0.6112666763906904  0.2968750000000001
  0.6111409624800639  0.6112666763906904  0.2968750000000001
  0.9444742958133971  0.6112666763906904  0.2968750000000001
  0.2778076291467304  0.9446000097240238  0.2968750000000001
  0.6111409624800639  0.9446000097240238  0.2968750000000001
  0.3889187402578415  0.3890444541684682  0.2916666666666667
  0.0555854069245083  0.3890444541684682  0.3072916666666667
  0.3889187402578415  0.3890444541684682  0.2760416666666667
  0.0555854069245083  0.3890444541684682  0.2760416666666667
  0.3889187402578414  0.7223777875018017  0.2604166666666667
  0.7222520735911749  0.7223777875018017  0.2604166666666667
  0.0555854069245083  0.7223777875018017  0.2604166666666667
  0.3889187402578415  0.0557111208351348  0.2604166666666667
  0.7222520735911749  0.0557111208351348  0.2604166666666667
  0.0555854069245082  0.0557111208351348  0.2604166666666667
  0.5000298513689526  0.1668222319462460  0.2552083333333334
  0.8333631847022860  0.1668222319462460  0.2552083333333334
  0.1666965180356192  0.1668222319462460  0.2552083333333334
  0.5000298513689526  0.5001555652795793  0.2552083333333334
  0.8333631847022860  0.5001555652795793  0.2552083333333334
  0.1666965180356192  0.5001555652795793  0.2552083333333334
  0.5000298513689525  0.8334888986129125  0.2552083333333334
  0.8333631847022860  0.8334888986129125  0.2552083333333334
  0.1666965180356194  0.8334888986129125  0.2552083333333334
  0.2778076291467303  0.2779333430573570  0.2500000000000000
  0.6111409624800639  0.2779333430573570  0.2500000000000000
  0.9444742958133970  0.2779333430573570  0.2500000000000000
  0.2778076291467304  0.6112666763906904  0.2500000000000000
  0.6111409624800639  0.6112666763906904  0.2500000000000000
  0.9444742958133971  0.6112666763906904  0.2500000000000000
  0.2778076291467304  0.9446000097240238  0.2500000000000000
  0.6111409624800639  0.9446000097240238  0.2500000000000000
  0.0555854069245083  0.3890444541684682  0.2604166666666667
  0.7222520735911749  0.3890444541684682  0.2760416666666667
  0.7222520735911749  0.3890444541684682  0.2604166666666667
  0.9444742958133969  0.9446000097240238  0.2656250000000001
  0.3889187402578414  0.7223777875018017  0.2760416666666667
  0.7222520735911749  0.7223777875018017  0.2760416666666667
  0.0555854069245083  0.7223777875018017  0.2760416666666667
  0.3889187402578415  0.0557111208351348  0.2760416666666667
  0.7222520735911749  0.0557111208351348  0.2760416666666667
  0.0555854069245082  0.0557111208351348  0.2760416666666667
  0.5000298513689526  0.1668222319462460  0.2708333333333334
  0.8333631847022860  0.1668222319462460  0.2708333333333334
  0.1666965180356192  0.1668222319462460  0.2708333333333334
  0.5000298513689526  0.5001555652795793  0.2708333333333334
  0.8333631847022860  0.5001555652795793  0.2708333333333334
  0.1666965180356192  0.5001555652795793  0.2708333333333334
  0.5000298513689525  0.8334888986129125  0.2708333333333334
  0.8333631847022860  0.8334888986129125  0.2708333333333334
  0.1666965180356194  0.8334888986129125  0.2708333333333334
  0.2778076291467303  0.2779333430573570  0.2656250000000001
  0.6111409624800639  0.2779333430573570  0.2656250000000001
  0.9444742958133970  0.2779333430573570  0.2656250000000001
  0.2778076291467304  0.6112666763906904  0.2656250000000001
  0.6111409624800639  0.6112666763906904  0.2656250000000001
  0.9444742958133971  0.6112666763906904  0.2656250000000001
  0.2778076291467304  0.9446000097240238  0.2656250000000001
  0.6111409624800639  0.9446000097240238  0.2656250000000001
  0.3889187402578415  0.3890444541684682  0.2604166666666667
  0.7222520735911749  0.3890444541684682  0.3072916666666667
  0.3889187402578415  0.3890444541684682  0.3072916666666667
  0.9444742958133969  0.9446000097240238  0.3125000000000001
  0.0555854069245083  0.3890444541684682  0.3541666666666667
  0.3889187402578414  0.7223777875018017  0.3541666666666667
  0.7222520735911749  0.7223777875018017  0.3541666666666667
  0.0555854069245083  0.7223777875018017  0.3541666666666667
  0.3889187402578415  0.0557111208351348  0.3541666666666667
  0.7222520735911749  0.0557111208351348  0.3541666666666667
  0.0555854069245082  0.0557111208351348  0.3541666666666667
  0.5000298513689526  0.1668222319462460  0.3489583333333334
  0.8333631847022860  0.1668222319462460  0.3489583333333334
  0.1666965180356192  0.1668222319462460  0.3489583333333334
  0.5000298513689526  0.5001555652795793  0.3489583333333334
  0.8333631847022860  0.5001555652795793  0.3489583333333334
  0.1666965180356192  0.5001555652795793  0.3489583333333334
  0.5000298513689525  0.8334888986129125  0.3489583333333334
  0.8333631847022860  0.8334888986129125  0.3489583333333334
  0.1666965180356194  0.8334888986129125  0.3489583333333334
  0.2778076291467303  0.2779333430573570  0.3437500000000000
  0.6111409624800639  0.2779333430573570  0.3437500000000000
  0.9444742958133970  0.2779333430573570  0.3437500000000000
  0.2778076291467304  0.6112666763906904  0.3437500000000000
  0.6111409624800639  0.6112666763906904  0.3437500000000000
  0.9444742958133971  0.6112666763906904  0.3437500000000000
  0.2778076291467304  0.9446000097240238  0.3437500000000000
  0.7222520735911749  0.3890444541684682  0.3541666666666667
  0.6111409624800639  0.9446000097240238  0.3437500000000000
  0.3889187402578415  0.3890444541684682  0.3541666666666667
  0.6111409624800639  0.9446000097240238  0.3593750000000001
  0.0555854069245083  0.3890444541684682  0.3697916666666667
  0.3889187402578414  0.7223777875018017  0.3697916666666667
  0.7222520735911749  0.7223777875018017  0.3697916666666667
  0.0555854069245083  0.7223777875018017  0.3697916666666667
  0.3889187402578415  0.0557111208351348  0.3697916666666667
  0.7222520735911749  0.0557111208351348  0.3697916666666667
  0.0555854069245082  0.0557111208351348  0.3697916666666667
  0.5000298513689526  0.1668222319462460  0.3645833333333334
  0.8333631847022860  0.1668222319462460  0.3645833333333334
  0.1666965180356192  0.1668222319462460  0.3645833333333334
  0.5000298513689526  0.5001555652795793  0.3645833333333334
  0.8333631847022860  0.5001555652795793  0.3645833333333334
  0.1666965180356192  0.5001555652795793  0.3645833333333334
  0.5000298513689525  0.8334888986129125  0.3645833333333334
  0.8333631847022860  0.8334888986129125  0.3645833333333334
  0.1666965180356194  0.8334888986129125  0.3645833333333334
  0.2778076291467303  0.2779333430573570  0.3593750000000001
  0.6111409624800639  0.2779333430573570  0.3593750000000001
  0.9444742958133970  0.2779333430573570  0.3593750000000001
  0.2778076291467304  0.6112666763906904  0.3593750000000001
  0.6111409624800639  0.6112666763906904  0.3593750000000001
  0.9444742958133971  0.6112666763906904  0.3593750000000001
  0.2778076291467304  0.9446000097240238  0.3593750000000001
  0.9444742958133969  0.9446000097240238  0.3593750000000001
  0.9444742958133969  0.9446000097240238  0.3437500000000000
  0.3889187402578415  0.3890444541684682  0.3385416666666667
  0.7222520735911749  0.3890444541684682  0.3385416666666667
  0.3889187402578414  0.7223777875018017  0.3229166666666667
  0.7222520735911749  0.7223777875018017  0.3229166666666667
  0.0555854069245083  0.7223777875018017  0.3229166666666667
  0.3889187402578415  0.0557111208351348  0.3229166666666667
  0.7222520735911749  0.0557111208351348  0.3229166666666667
  0.0555854069245082  0.0557111208351348  0.3229166666666667
  0.5000298513689526  0.1668222319462460  0.3177083333333334
  0.8333631847022860  0.1668222319462460  0.3177083333333334
  0.1666965180356192  0.1668222319462460  0.3177083333333334
  0.5000298513689526  0.5001555652795793  0.3177083333333334
  0.8333631847022860  0.5001555652795793  0.3177083333333334
  0.1666965180356192  0.5001555652795793  0.3177083333333334
  0.5000298513689525  0.8334888986129125  0.3177083333333334
  0.8333631847022860  0.8334888986129125  0.3177083333333334
  0.1666965180356194  0.8334888986129125  0.3177083333333334
  0.2778076291467303  0.2779333430573570  0.3125000000000001
  0.6111409624800639  0.2779333430573570  0.3125000000000001
  0.9444742958133970  0.2779333430573570  0.3125000000000001
  0.2778076291467304  0.6112666763906904  0.3125000000000001
  0.6111409624800639  0.6112666763906904  0.3125000000000001
  0.9444742958133971  0.6112666763906904  0.3125000000000001
  0.2778076291467304  0.9446000097240238  0.3125000000000001
  0.6111409624800639  0.9446000097240238  0.3125000000000001
  0.0555854069245083  0.3890444541684682  0.3229166666666667
  0.7222520735911749  0.3890444541684682  0.3229166666666667
  0.3889187402578415  0.3890444541684682  0.3229166666666667
  0.9444742958133969  0.9446000097240238  0.3281250000000001
  0.0555854069245083  0.3890444541684682  0.3385416666666667
  0.3889187402578414  0.7223777875018017  0.3385416666666667
  0.7222520735911749  0.7223777875018017  0.3385416666666667
  0.0555854069245083  0.7223777875018017  0.3385416666666667
  0.3889187402578415  0.0557111208351348  0.3385416666666667
  0.7222520735911749  0.0557111208351348  0.3385416666666667
  0.0555854069245082  0.0557111208351348  0.3385416666666667
  0.5000298513689526  0.1668222319462460  0.3333333333333334
  0.8333631847022860  0.1668222319462460  0.3333333333333334
  0.1666965180356192  0.1668222319462460  0.3333333333333334
  0.5000298513689526  0.5001555652795793  0.3333333333333334
  0.7221499806529194  0.3888402159991070  0.9947916666666669
  0.8333631847022860  0.5001555652795793  0.3333333333333334
  0.5000298513689525  0.8334888986129125  0.3333333333333334
  0.8333631847022860  0.8334888986129125  0.3333333333333334
  0.1666965180356194  0.8334888986129125  0.3333333333333334
  0.2778076291467303  0.2779333430573570  0.3281250000000001
  0.6111409624800639  0.2779333430573570  0.3281250000000001
  0.9444742958133970  0.2779333430573570  0.3281250000000001
  0.2778076291467304  0.6112666763906904  0.3281250000000001
  0.6111409624800639  0.6112666763906904  0.3281250000000001
  0.9444742958133971  0.6112666763906904  0.3281250000000001
  0.2778076291467304  0.9446000097240238  0.3281250000000001
  0.6111409624800639  0.9446000097240238  0.3281250000000001
  0.1666965180356192  0.5001555652795793  0.3333333333333334
  0.3888166473195860  0.3888402159991070  0.9947916666666669
