Cu
 1.0000000000000000
    13.6820249999999994    0.0000000000000000    0.0000000000000000
     0.0000000000000000   13.4336509332018821    0.0000000000000000
     0.0000000000000000    0.0000000000000000   14.6885500000000011
 Cu 
 222
Direct
  0.0414202210564592  0.1875272388070383  0.9560559074925707
  0.6725841021340041  0.7260256735192906  0.6624326431131733
  0.5809090759591505  0.6324844607657076  0.8005470247233391
  0.5783875193913178  0.6962348145793064  0.9703799898560443
  0.5807994430648969  0.8835182278904145  0.0896803973162771
  0.5746673098463128  0.8202815095757812  0.2914974589050655
  0.6604513951699402  0.9101156139455276  0.3975800878915889
  0.5696168878510307  0.8100981275093398  0.5388193524888435
  0.5763264209793505  0.8805331868022250  0.7010205227881582
  0.4887151207514966  0.7901482269698203  0.8361802220096608
  0.5616502308686029  0.9890814889168793  0.2533997569535457
  0.4896652725016948  0.9829104189365576  0.5709804575672890
  0.4103641456582633  0.9515860974924166  0.8627859795555043
  0.8774148928977984  0.0268709875219977  0.9857388918579437
  0.7653846926898612  0.0928694271426617  0.0154252802352856
  0.8541727193160370  0.1760113820403827  0.1412443706152070
  0.7658086065476418  0.0718327036633027  0.2597312192149667
  0.8611161359520978  0.1683664014978132  0.3906154794040255
  0.7720503726604796  0.0841004036965594  0.5311535175357678
  0.8669266793475379  0.1643094254552616  0.6600498347352193
  0.8660203807550415  0.0869886728791466  0.8249197504178424
  0.9647192210217418  0.1891574732167974  0.9566890537187130
  0.7611674806909066  0.2752621372244919  0.0280337405666322
  0.8485375885514023  0.3646198260589662  0.1538800630423016
  0.5826997465652928  0.6279808451588387  0.5370628823130941
  0.6696751760064755  0.7236882597993615  0.4109714709756918
  0.5774446765007374  0.6340849192045126  0.2845124263456913
  0.6657722449710479  0.7449780790318338  0.1631117435008904
  0.6660134373384055  0.1856141326732112  0.1523550656804111
  0.5835548831404707  0.0843981634061045  0.2764449179803316
  0.6832988903323884  0.1666691711534063  0.3942169240667050
  0.5985745896532128  0.0782196494330443  0.5321951451981308
  0.6801195363990341  0.1647635090123178  0.6676612054967985
  0.6797467845585721  0.0918123801737766  0.8201677497098078
  0.7796442778024453  0.1824504357592948  0.9417726732727191
  0.5767064816794297  0.2709967293852588  0.0255488118296225
  0.6702525759162110  0.3655205491803400  0.1502173461641894
  0.5834891034039184  0.2692250591134658  0.2811969186883661
  0.6827799612995881  0.3566249778576813  0.4156758155161676
  0.7719845929239273  0.2755971168977301  0.2855132058644319
  0.5922743526634399  0.2524314114951240  0.5316300792113584
  0.5898478112706269  0.2488434069951059  0.7949099809034931
  0.6884808718007750  0.3532900691107766  0.9197419078125478
  0.5687325158373853  0.4728480364858592  0.0340452257030137
  0.6769109470272129  0.5590643603846329  0.1600549407531720
  0.5859083359371147  0.4594190735853768  0.2847234750877384
  0.6803388021875414  0.5385263844187620  0.4147907724043557
  0.5741483808135123  0.4397073808134934  0.5364773922545114
  0.6791328403507518  0.5423228207154617  0.6665174574753807
  0.5885979962761361  0.4407197638259466  0.7889597679825442
  0.6728472210802127  0.5342237566158363  0.9309683392846810
  0.5857329233063088  0.6661610839152550  0.0379189913231736
  0.6837666573478703  0.3559699064966821  0.6641346490974263
  0.8712023622234281  0.3522627981128459  0.4072338658342724
  0.7828967203319684  0.2552601287358022  0.5315211508283665
  0.8701571952982106  0.3539674724499917  0.6736114184177473
  0.9647923096179107  0.0967179713885317  0.0110885689874085
  0.9601365660419418  0.0837728680160598  0.2533384847381124
  0.9614156164749001  0.0703811250792704  0.5237327714444243
  0.9395840527992019  0.2830038896726636  0.0245684563826926
  0.9548230251004511  0.2685402117815122  0.2806046206058462
  0.9610794089325227  0.2538234381372472  0.5361233750097867
  0.9581558650857603  0.2611111070283626  0.7987905545475896
  0.9449414468983938  0.4669970581932988  0.0307841822371850
  0.9539313442271886  0.4497269950396848  0.2842673374839589
  0.9615033227903034  0.4422085623736719  0.5381589741669531
  0.9672553953088083  0.4541412827336904  0.8085124127296430
  0.5838472375251468  0.9506481544073497  0.8601512742918807
  0.9501599726648650  0.6636896783260308  0.0363939939612830
  0.9619857075250191  0.6272811098414078  0.5532523632353090
  0.9514244053785896  0.6331023121630140  0.7974902219756207
  0.9672553953088083  0.7049368420907610  0.9622716333470631
  0.9422006245420543  0.8708857722129651  0.0637554421641347
  0.9488370690742047  0.8119889016649507  0.2884270401094731
  0.9445321507598474  0.8121303375269852  0.5313305261581301
  0.9532662380020499  0.8814934618655080  0.6937223211276813
  0.8620955231407630  0.7806869121990260  0.8251376071838267
  0.8559780076414125  0.8616180012533752  0.9864265022755820
  0.9307403326627453  0.9795010702622666  0.2416218755425145
  0.8517754133616917  0.9750570065973065  0.5628993331540553
  0.9480550210951958  0.6282711608756453  0.2923961180647514
  0.5889561303973644  0.1000231041644820  0.0132807526951267
  0.6591577270177474  0.9666825147663518  0.5618849375874406
  0.6650998298862926  0.8553054954110196  0.9838530692273917
  0.7797173663986142  0.2558333161766764  0.7887759513362451
  0.8645366822528097  0.3566026458794654  0.9164264001552231
  0.7536174287066422  0.4707786065045211  0.0180804095707204
  0.8591281261362993  0.5450026581013674  0.1480387785043453
  0.7712683246814707  0.4517145411008982  0.2782898924672622
  0.8644855202354912  0.5351393677226871  0.4170238042556958
  0.7726350814298323  0.4459528907212011  0.5402422294916789
  0.8584118578938426  0.5383105086293420  0.6685802887282952
  0.7761579517651807  0.4485061802305502  0.7973132133532583
  0.8648875075144213  0.5391367918233295  0.9324184483832644
  0.7665760368074169  0.6644340775998934  0.0427186481987673
  0.7388096791227906  0.9769180047819631  0.2476878248703925
  0.8600709690268797  0.7322935154052139  0.1705665297119185
  0.8511907045923390  0.7121351830690128  0.4183309448516020
  0.7710125145948787  0.6333628519088657  0.5454163276838081
  0.8577613693879377  0.7173013140296198  0.6592192558149037
  0.7595814581540378  0.6314199698040841  0.7928267255787673
  0.7634478448913812  0.6978054970471569  0.9569545666522562
  0.7645953358512356  0.8764464347887193  0.0854526144513925
  0.7632285791028740  0.8054828520113915  0.2867386501730942
  0.8481209835532383  0.8959571397566595  0.3998675839344250
  0.7546625956318597  0.8087730968018642  0.5354766127357703
  0.7741772508089992  0.8782851009951602  0.6946073642394928
  0.6749960258075832  0.7899100192021843  0.8278403926868207
  0.7622345741949744  0.6239536450872418  0.2842196813163997
  0.6837081864709352  0.0163377377968410  0.9861746053899124
  0.2191643780799991  0.9629158544406065  0.8578093140575481
  0.2970987481750690  0.9818087080112408  0.5731590252271326
  0.2199244994801572  0.0760534475461039  0.2724349918814318
  0.3159921502847712  0.1741354958702489  0.4053616592515938
  0.2166355126525493  0.0713414001425534  0.5276678092800174
  0.3138652721362515  0.1552724182705690  0.6547123439686016
  0.3170957880869243  0.0991968209704942  0.8076954498572015
  0.4064246703247510  0.1839169023288043  0.9481858318213846
  0.2111977210975713  0.2722770961363027  0.0244527199757635
  0.3036913395495185  0.3526126657715616  0.1550033869919087
  0.2161750544966845  0.2681159041954104  0.2855744780798651
  0.3028654384128077  0.3561411183296707  0.4155668871331752
  0.2234035166578047  0.2600540600594777  0.5422846366727826
  0.3096992221546154  0.1777756083194373  0.1478413458101721
  0.3119138066185377  0.3492628690391795  0.6676135493292393
  0.3134779025765556  0.3519352624323466  0.9186117758390040
  0.2096628605780210  0.4623594507171344  0.0394439886850646
  0.3059790126096097  0.5450622100432763  0.1638197779903394
  0.2125060069689973  0.4485434001942432  0.2931926568653817
  0.2991890820255039  0.5420548369768713  0.4215307161019980
  0.2122794323208735  0.4544911503924058  0.5381317420712052
  0.3102108423277987  0.5198791826085025  0.6687232572309724
  0.2205749879860621  0.4510743577253762  0.8040940051945221
  0.3059205417326746  0.5366281662704127  0.9405948851316160
  0.2170740442295636  0.6491664484929699  0.0439236684356183
  0.3021930233280524  0.7369906748232872  0.1595988031493921
  0.2078064102353270  0.2582302818385142  0.7899469314534109
  0.2087565619855246  0.6379260194576439  0.2858808391570307
  0.2148082977483228  0.0869067889590217  0.0188701403474134
  0.1120384226750062  0.9149690972111121  0.4142052823457730
  0.2164674088813606  0.0087076452397487  0.6958123844763437
  0.1262833900683560  0.0275856108249058  0.9889182390365285
  0.0327446046911913  0.0988469533117788  0.0230162269250541
  0.1288634175131238  0.1816315965580459  0.1542885444785224
  0.1144795817870524  0.1695797723142094  0.4069002726613589
  0.0342063766145728  0.0825371652214480  0.5448512616970362
  0.1248947067411440  0.1774704046171535  0.6621739382035670
  0.1369031630917205  0.0857157501208415  0.8241095955693382
  0.2192813198338693  0.1764356896264845  0.9416160887221680
  0.0335120349509665  0.2803687162431898  0.0244799520715114
  0.1214960870192825  0.3705675762571290  0.1559565103430906
  0.3123742647744030  0.0250099893373412  0.9878493792784174
  0.1201878011478565  0.3596844588732568  0.4202439995779025
  0.1298208781229387  0.3563644381118294  0.9404655326768129
  0.1183313508051620  0.5519627913119832  0.1600413247052980
  0.1082597422530655  0.5330773817340873  0.4175003659312865
  0.1307052501365840  0.5361666387206178  0.6820806001953905
  0.0369545078305293  0.4495260072357420  0.7938479291693192
  0.1097726761937649  0.5438488392268801  0.9281225852790098
  0.0345352752973336  0.6555906142264049  0.0355838391127783
  0.1198808290439461  0.7388070090515121  0.1594626426706517
  0.1141068299465902  0.7166387986758823  0.4183037127558540
  0.0332123717066733  0.6226137263942889  0.5521290392857024
  0.1198808290439461  0.7307377209228412  0.6661225920870339
  0.1234987145543148  0.3588209557155760  0.6621875542514409
  0.7763333643959864  0.9530674520474034  0.8477947108462036
  0.2910323946930370  0.7301422015037508  0.4115637690582122
  0.3030627776224645  0.7165196947920640  0.6746598541040472
  0.5027408223563398  0.3496946206180199  0.9199121084109729
  0.3883133161940572  0.4644809886476428  0.0365233464160862
  0.4899503180267542  0.5569279344686475  0.1567462411197841
  0.3933271938912551  0.4579674950013445  0.2849753719734080
  0.4885762524187754  0.5471986359592622  0.4125100843854568
  0.3941457861683487  0.4550271178695870  0.5366475928529366
  0.4973176485205956  0.5307250800286815  0.6719162204574312
  0.4061907868170100  0.4332608831018426  0.7985590817337312
  0.4949349602854840  0.5347001721511083  0.9272647742629464
  0.3994739448290731  0.6591190667845142  0.0439168604116816
  0.4860327692720923  0.7491094950017717  0.1645958927191589
  0.4083395915443800  0.2542254137451331  0.7858689251151406
  0.3915438321447300  0.6351345221806589  0.2826946839545087
  0.4042393212992957  0.6402634331775726  0.5394252666192374
  0.4827584001637182  0.7151053361717251  0.6747619744631024
  0.3848196812971764  0.6239015371380713  0.8011869789734182
  0.3934002824874240  0.6872126953800912  0.9725721735637625
  0.3853970812069120  0.8714366276756232  0.0711285320879189
  0.3802224085981425  0.8184875073257724  0.2832052857497846
  0.4721313182807371  0.9047559391737163  0.4149405489309701
  0.3785559886054877  0.8108574147686796  0.5460426658860132
  0.3847392838413904  0.8813371380179970  0.7117703925847003
  0.3106639916240468  0.7857562712540308  0.8351522103951717
  0.3790749176382881  0.9885157454687434  0.2570216256880359
  0.4862666527798333  0.7239115795815203  0.4069275047571068
  0.2199975880763266  0.6381195632688483  0.5405962467364036
  0.5032597513891401  0.3427642633783585  0.6696627645342803
  0.4874945411954733  0.3523446820329709  0.4049804099111216
  0.2049705727039673  0.6325737886785715  0.8039033805242862
  0.2129737739844798  0.7022570047048553  0.9618223037672199
  0.1971208574754102  0.8879474035698973  0.0966450058038405
  0.2023028389437968  0.8169912647853079  0.2903332868118365
  0.2958708597594290  0.9084779355430299  0.4010045239319061
  0.1938611060862699  0.8245692493932302  0.5303842108308855
  0.2092389467202404  0.8872551122452054  0.6983109292612274
  0.1273943367301258  0.8011355602520336  0.8294811264556405
  0.1986995711526619  0.9912923547602512  0.2538422785094511
  0.1148523336275150  0.9805655612238902  0.5755690657008351
  0.0331319742508872  0.9618364754935057  0.8720244680380298
  0.4072505714614613  0.2702821060823507  0.5367360971641177
  0.4967987194877951  0.0091617287968049  0.1354643582926839
  0.4008260838582010  0.1003283078667655  0.0110817609634718
  0.4860985490086446  0.1865446317655394  0.1490735981427711
  0.4051748553302601  0.0783089773459078  0.2686293065006419
  0.4980119901842013  0.1708899150362076  0.4000514005807246
  0.4147202259899390  0.0813610143687448  0.5249854478488346
  0.4935608946775057  0.1620911156191510  0.6674161166350662
  0.5069287989168267  0.0922143557816625  0.8250218707768976
  0.5878598014548284  0.1874453548869133  0.9457621752998087
  0.3935830039778470  0.2767137158085242  0.0253309550636382
  0.4876480272474287  0.3745724443505101  0.1582508144098634
  0.3998320789503014  0.2676320446673997  0.2786371016880497
  0.4984651394804495  0.0313522711506508  0.9869030639511728
  0.9573445816682838  0.9551517700142187  0.8547252792140818
