Cu
 1.0000000000000000
     7.6685730419681093    0.0000000000000000    0.0000000000000000
     3.8342865209840546    6.6411790651208911    0.0000000000000000
     0.0000000000000000    0.0000000000000000   25.0450909090909093
 Cu 
 108
Direct
  0.1104102427432710  0.1088905244215696  0.0004237314677515
  0.3303314238351618  0.9360875486337981  0.6662928721431648
 -0.0007459949990132  0.6026821275920120  0.6671133410562291
  0.6650301727625567  0.5990967822433788  0.6674403496613431
  0.3332231905495031  0.6022489720644494  0.6669095024541593
  0.0021872660576958  0.2656181225538574  0.6663259332430884
  0.6684923971988395  0.2671603940553569  0.6670058745290659
  0.3366995841818052  0.2646464993309856  0.6661653297699930
  0.8897745066556960  0.1527606006654200  0.5826492857979014
  0.5552779821380083  0.1585368286090258  0.5825464442512726
  0.2241624168307743  0.1528833844629491  0.5833926623276251
  0.8899878892202423  0.8210806150432022  0.5838581476562382
  0.5573246729515471  0.8197481571384045  0.5839892464202999
  0.2220817520559609  0.8208431619433654  0.5828208801492406
  0.8892647799474671  0.4891812319294162  0.5835768915658804
  0.5576810514303433  0.4895923132018647  0.5836448436113595
  0.2209196074665381  0.4869699973992526  0.5826787674645796
  0.1088625657564019  0.0472425061831894  0.5005318330427460
  0.7763223873922818  0.0453427251956447  0.5000422238069984
  0.4456833222091033  0.0429640087786925  0.4999169404085522
  0.1128103125767124  0.7102086220524910  0.5001450504501151
  0.7792750443334413  0.7110827470325566  0.4994824006595370
  0.4446066392773313  0.7110854540834824  0.5005619004355849
  0.1127361096746850  0.3754630730115452  0.4993629028428223
  0.6679112257893285  0.9325005520899557  0.6671193019979299
  0.7784115683701448  0.3749585437975026  0.5003853390839443
  0.0003041877107800  0.9350957574547160  0.6662803900943171
  0.7769945130601085  0.3788741843330707  0.7506249199367850
  0.3357567617345489  0.9316272726881053  0.9171607219733222
  0.0003478403958752  0.6009406017665246  0.9163564472549628
  0.6661065250016347  0.5981434161322474  0.9163927741422713
  0.3341779651289579  0.6022515795792411  0.9160125333019138
  0.0003064647481930  0.2680264531173366  0.9159211963584529
  0.6649451065877483  0.2684884942323215  0.9167487396199564
  0.3346850199496960  0.2660199923999890  0.9170426670373408
  0.8898877513802681  0.1570162755914533  0.8337691766794401
  0.5527126927019520  0.1567422470381604  0.8341355356010811
  0.2225329643879736  0.1572438940511889  0.8333351662506785
  0.8900924405085038  0.8198769435710418  0.8337402282141589
  0.5550320338282207  0.8199893870428219  0.8334860862561855
  0.2202707643846244  0.8211817412718565  0.8328534427388258
  0.8868671810398157  0.4903011580377884  0.8327555414131408
  0.5560813262886303  0.4863749420428417  0.8335325593473563
  0.2201504921932716  0.4904150503761412  0.8326967377310047
  0.1120979698402004  0.0466316394793958  0.7496548301128204
  0.7767062379303717  0.0434935605067827  0.7500144459849981
  0.4439316042235565  0.0446226486794681  0.7507531060735323
  0.1147258812736402  0.7083420278180392  0.7500591962090950
  0.7787354677219203  0.7124046859857870  0.7501465269225823
  0.4452592823530965  0.7089708766535424  0.7507184599552590
  0.1134904449787280  0.3751870931957156  0.7495987171136699
  0.4427225123591635  0.3804464654312896  0.7492783314367422
  0.4443551787539830  0.3751877183951882  0.5000812539019651
  0.6679772827028324  0.6641513344370182  0.4160905648187881
  0.3327553216928891  0.6660128880541472  0.4173068699556525
  0.6669401874388063  0.3329619113522740  0.1672139932995144
  0.3314052592594633  0.3350844512525448  0.1669769964015070
  0.0038392375521347  0.3308179393602658  0.1664406926555496
  0.6659993919915029 -0.0013325468109300  0.1668897804630084
  0.3356960051921263  0.0001823036879772  0.1661905090668669
 -0.0021319422467965 -0.0001845048775796  0.1669909452919445
  0.5537948302657854  0.8890091516887222  0.0838275685183195
  0.2248654650836119  0.8873021280010868  0.0840152975475752
  0.8903956218710658  0.8908645014707496  0.0829183440273090
  0.5554896060115508  0.5563971590250669  0.0827030723534428
  0.2221542029207557  0.5562552940478185  0.0832462331395211
  0.8923861470907681  0.5536554129800206  0.0829978044477254
  0.5573941418830783  0.2233659425788145  0.0831878085453465
  0.2226598765818252  0.2199056057004947  0.0836450929206989
  0.8897893973848785  0.2236242958415856  0.0827810065929411
  0.7774545544523769  0.7762683559100539 -0.0007528855676607
  0.4432395568682976  0.7806971203199519 -0.0001978715601445
  0.1093072670373952  0.7768775735886708  0.0003425669396938
  0.7807494043092592  0.4426875765228437  0.0001902992167186
  0.4470239002897375  0.4429541722230090  0.0005854580290954
  0.1105997929144903  0.4442872714842117  0.0006528164583548
  0.7808653750654461  0.1094314875728265 -0.0000460904508827
  0.4425450441865323  0.1120070203537849  0.0007856016448832
  0.0025644378301893  0.6639519557844971  0.1667312945986307
  0.3338936957130257  0.6681383753965860  0.1666135817964232
  0.6680127611348221  0.6666581261930912  0.1669741206722829
  0.1121885887764011  0.1108457765564772  0.2495253573753229
 -0.0012792421067531  0.6644152187706913  0.4162306924330045
  0.6672347550893908  0.3304536101280275  0.4161897665453117
  0.3327044722058548  0.3309688630582919  0.4160877656488418
 -0.0003395003314407  0.3332116540909689  0.4174584319682779
  0.6704115243240802 -0.0029651105708955  0.4162997499382935
  0.3327374382664748  0.0027297793776224  0.4164491445980935
 -0.0009730953289919 -0.0003612097732236  0.4162312084117210
  0.5540709036666135  0.8875398730257226  0.3333354722920560
  0.2219306663529554  0.8874072401299011  0.3325655183731542
  0.8894966945493232  0.8862831222349821  0.3340671191964055
  0.5565349714227478  0.5573749802598292  0.3334726304179601
  0.6637496590435442  0.9340992518053557  0.9168023632875892
  0.2247812886452044  0.5546543934634712  0.3340292988274378
  0.5534062750018185  0.2215956947772194  0.3332938646741463
  0.2220661858655471  0.2210726119981388  0.3329926170026530
  0.8874785714404372  0.2198558519516782  0.3339080405549948
  0.7753483919256385  0.7800968333832684  0.2507382850877527
  0.4427004611587728  0.7768556660398610  0.2499282507072143
  0.1075936918034133  0.7799371816786954  0.2504636567282681
  0.7754508123579250  0.4470745886071191  0.2504323137506635
  0.4436679808988118  0.4456362586932316  0.2497530838343415
  0.1113393646310430  0.4427926589554792  0.2493633186581561
  0.7785062026140308  0.1123464902604912  0.2500766973632100
  0.4467923219393387  0.1113319929501710  0.2504726049042468
  0.8894099263889252  0.5555501826036567  0.3340768659473530
  0.0018676543985044  0.9309054151261813  0.9172398546694456
