Cu
 1.0000000000000000
    10.0000000000000000    0.0000000000000000    0.0000000000000000
     0.0000000000000000   37.5681820200000018    0.0000000000000000
     0.0000000000000000    0.0000000000000000   10.0000000000000000
 Cu 
 312
Cartesian
  6.2706528499310021  1.0435606116670000  5.5984447701300013
  6.3285870612420014  3.1306818316670002  7.0731247784980011
  6.2706528499310021  7.3049242816669997  5.5984447701300013
  6.3285870612420014  9.3920455016670008  7.0731247784980011
  6.2706528499310021 13.5662879516670003  5.5984447701300013
  6.3285870612420014 15.6534091716670005  7.0731247784980011
  6.2706528499310021 19.8276516216669982  5.5984447701300013
  6.3285870612420014 36.5246214116669989  7.0731247784980011
  6.2706528499310021 32.3503789616669977  5.5984447701300013
  6.3285870612420014 30.2632577416670046  7.0731247784980011
  6.2706528499310021 26.0890152916669997  5.5984447701300013
  6.3285870612420014 24.0018940716669995  7.0731247784980011
  6.3865212725539999  5.2178030616670004  8.5478047868659992
  6.3865212725539999 11.4791667316670001  8.5478047868659992
  6.3865212725539999 17.7405303916670007  8.5478047868659992
  6.3865212725539999 34.4375001816669979  8.5478047868659992
  6.3865212725539999 28.1761365116670000  8.5478047868659992
  6.3865212725539999 21.9147728516669993  8.5478047868659992
  4.9066411900329996  1.0435606116670000  3.4365972510520004
  5.0225096126570001  5.2178030616670004  6.3859572677890020
  4.9645754013449999  3.1306818316670002  4.9112772594210004
  3.7164321544710011  1.0435606116670000  5.6987897674639996
  3.7743663657830000  3.1306818316670002  7.1734697758320021
  3.6584979431590003  5.2178030616670004  4.2241097590959997
  4.9066411900329996  7.3049242816669997  3.4365972510520004
  5.0225096126570001 11.4791667316670001  6.3859572677890020
  4.9645754013449999  9.3920455016670008  4.9112772594210004
  3.7164321544710011  7.3049242816669997  5.6987897674639996
  3.7743663657830000  9.3920455016670008  7.1734697758320021
  3.6584979431590003 11.4791667316670001  4.2241097590959997
  4.9066411900329996 13.5662879516670003  3.4365972510520004
  5.0225096126570001 17.7405303916670007  6.3859572677890020
  4.9645754013449999 15.6534091716670005  4.9112772594210004
  3.7164321544710011 13.5662879516670003  5.6987897674639996
  3.7743663657830000 15.6534091716670005  7.1734697758320021
  3.6584979431590003 17.7405303916670007  4.2241097590959997
  4.9066411900329996 19.8276516216669982  3.4365972510520004
  5.0225096126570001 34.4375001816669979  6.3859572677890020
  4.9645754013449999 36.5246214116669989  4.9112772594210004
  3.7164321544710011 19.8276516216669982  5.6987897674639996
  3.7743663657830000 36.5246214116669989  7.1734697758320021
  3.6584979431590003 34.4375001816669979  4.2241097590959997
  4.9066411900329996 32.3503789616669977  3.4365972510520004
  5.0225096126570001 28.1761365116670000  6.3859572677890020
  4.9645754013449999 30.2632577416670046  4.9112772594210004
  3.7164321544710011 32.3503789616669977  5.6987897674639996
  3.7743663657830000 30.2632577416670046  7.1734697758320021
  3.6584979431590003 28.1761365116670000  4.2241097590959997
  4.9066411900329996 26.0890152916669997  3.4365972510520004
  5.0225096126570001 21.9147728516669993  6.3859572677890020
  4.9645754013449999 24.0018940716669995  4.9112772594210004
  3.7164321544710011 26.0890152916669997  5.6987897674639996
  3.7743663657830000 24.0018940716669995  7.1734697758320021
  3.6584979431590003 21.9147728516669993  4.2241097590959997
  5.0804438239680003  1.0435606116670000  7.8606372761570009
  5.1963122465920000  5.2178030616670004  0.8099972928930000
  5.1383780352800015  3.1306818316670002  9.3353172845250008
  3.8902347884060000  1.0435606116670000  0.1228297925680000
  3.8323005770950003  5.2178030616670004  8.6481497841999992
  5.0804438239680003  7.3049242816669997  7.8606372761570009
  5.1963122465920000 11.4791667316670001  0.8099972928930000
  5.1383780352800015  9.3920455016670008  9.3353172845250008
  3.8902347884060000  7.3049242816669997  0.1228297925680000
  3.8323005770950003 11.4791667316670001  8.6481497841999992
  5.0804438239680003 13.5662879516670003  7.8606372761570009
  5.1963122465920000 17.7405303916670007  0.8099972928930000
  5.1383780352800015 15.6534091716670005  9.3353172845250008
  3.8902347884060000 13.5662879516670003  0.1228297925680000
  3.8323005770950003 17.7405303916670007  8.6481497841999992
  5.0804438239680003 19.8276516216669982  7.8606372761570009
  5.1963122465920000 34.4375001816669979  0.8099972928930000
  5.1383780352800015 36.5246214116669989  9.3353172845250008
  3.8902347884060000 19.8276516216669982  0.1228297925680000
  3.8323005770950003 34.4375001816669979  8.6481497841999992
  5.0804438239680003 32.3503789616669977  7.8606372761570009
  5.1963122465920000 28.1761365116670000  0.8099972928930000
  5.1383780352800015 30.2632577416670046  9.3353172845250008
  3.8902347884060000 32.3503789616669977  0.1228297925680000
  3.8323005770950003 28.1761365116670000  8.6481497841999992
  5.0804438239680003 26.0890152916669997  7.8606372761570009
  5.1963122465920000 21.9147728516669993  0.8099972928930000
  5.1383780352800015 24.0018940716669995  9.3353172845250008
  3.8902347884060000 26.0890152916669997  0.1228297925680000
  3.8323005770950003 21.9147728516669993  8.6481497841999992
  2.4682889171970004  5.2178030616670004  6.4863022651220001
  2.4103547058850001  3.1306818316670002  5.0116222567540003
  1.1622114590110000  1.0435606116670000  5.7991347647979996
  1.2201456703230003  3.1306818316670002  7.2738147731660003
  2.4682889171970004 11.4791667316670001  6.4863022651220001
  2.4103547058850001  9.3920455016670008  5.0116222567540003
  1.1622114590110000  7.3049242816669997  5.7991347647979996
  1.2201456703230003  9.3920455016670008  7.2738147731660003
  2.4682889171970004 17.7405303916670007  6.4863022651220001
  2.4103547058850001 15.6534091716670005  5.0116222567540003
  1.1622114590110000 13.5662879516670003  5.7991347647979996
  1.2201456703230003 15.6534091716670005  7.2738147731660003
  2.4682889171970004 34.4375001816669979  6.4863022651220001
  2.4103547058850001 36.5246214116669989  5.0116222567540003
  1.1622114590110000 19.8276516216669982  5.7991347647979996
  1.2201456703230003 36.5246214116669989  7.2738147731660003
  2.4682889171970004 28.1761365116670000  6.4863022651220001
  2.4103547058850001 30.2632577416670046  5.0116222567540003
  1.1622114590110000 32.3503789616669977  5.7991347647979996
  1.2201456703230003 30.2632577416670046  7.2738147731660003
  2.4682889171970004 21.9147728516669993  6.4863022651220001
  2.4103547058850001 24.0018940716669995  5.0116222567540003
  1.1622114590110000 26.0890152916669997  5.7991347647979996
  1.2201456703230003 24.0018940716669995  7.2738147731660003
  2.5262231285090002  1.0435606116670000  7.9609822734900000
  2.5841573398200000  3.1306818316670002  9.4356622818580007
  1.2780798816350001  5.2178030616670004  8.7484947815339993
  2.5262231285090002  7.3049242816669997  7.9609822734900000
  2.5841573398200000  9.3920455016670008  9.4356622818580007
  1.2780798816350001 11.4791667316670001  8.7484947815339993
  2.5262231285090002 13.5662879516670003  7.9609822734900000
  2.5841573398200000 15.6534091716670005  9.4356622818580007
  1.2780798816350001 17.7405303916670007  8.7484947815339993
  2.5262231285090002 19.8276516216669982  7.9609822734900000
  2.5841573398200000 36.5246214116669989  9.4356622818580007
  1.2780798816350001 34.4375001816669979  8.7484947815339993
  2.5262231285090002 32.3503789616669977  7.9609822734900000
  2.5841573398200000 30.2632577416670046  9.4356622818580007
  1.2780798816350001 28.1761365116670000  8.7484947815339993
  2.5262231285090002 26.0890152916669997  7.9609822734900000
  2.5841573398200000 24.0018940716669995  9.4356622818580007
  1.2780798816350001 21.9147728516669993  8.7484947815339993
  9.9140682217370006  5.2178030616670004  6.5866472624560002
  9.8561340104250004  3.1306818316670002  5.1119672540880003
  8.6079907635509993  1.0435606116670000  5.8994797621310004
  8.6659249748629996  3.1306818316670002  7.3741597704990003
  9.9140682217370006 11.4791667316670001  6.5866472624560002
  9.8561340104250004  9.3920455016670008  5.1119672540880003
  8.6079907635509993  7.3049242816669997  5.8994797621310004
  8.6659249748629996  9.3920455016670008  7.3741597704990003
  9.9140682217370006 17.7405303916670007  6.5866472624560002
  9.8561340104250004 15.6534091716670005  5.1119672540880003
  8.6079907635509993 13.5662879516670003  5.8994797621310004
  8.6659249748629996 15.6534091716670005  7.3741597704990003
  9.9140682217370006 34.4375001816669979  6.5866472624560002
  9.8561340104250004 36.5246214116669989  5.1119672540880003
  8.6079907635509993 19.8276516216669982  5.8994797621310004
  8.6659249748629996 36.5246214116669989  7.3741597704990003
  9.9140682217370006 28.1761365116670000  6.5866472624560002
  9.8561340104250004 30.2632577416670046  5.1119672540880003
  8.6079907635509993 32.3503789616669977  5.8994797621310004
  8.6659249748629996 30.2632577416670046  7.3741597704990003
  9.9140682217370006 21.9147728516669993  6.5866472624560002
  9.8561340104250004 24.0018940716669995  5.1119672540880003
  8.6079907635509993 26.0890152916669997  5.8994797621310004
  8.6659249748629996 24.0018940716669995  7.3741597704990003
  9.9720024330489991  1.0435606116670000  8.0613272708240000
  9.9720024330489991  7.3049242816669997  8.0613272708240000
  9.9720024330489991 13.5662879516670003  8.0613272708240000
  9.9720024330489991 19.8276516216669982  8.0613272708240000
  9.9720024330489991 32.3503789616669977  8.0613272708240000
  9.9720024330489991 26.0890152916669997  8.0613272708240000
  7.3598475262770000  5.2178030616670004  6.6869922597900011
  7.3598475262770000 11.4791667316670001  6.6869922597900011
  7.3598475262770000 17.7405303916670007  6.6869922597900011
  7.3598475262770000 34.4375001816669979  6.6869922597900011
  7.3598475262770000 28.1761365116670000  6.6869922597900011
  7.3598475262770000 21.9147728516669993  6.6869922597900011
  6.5653304948270019  3.1306818316670002  0.5467993620220000
  6.5653304948270019  9.3920455016670008  0.5467993620220000
  6.5653304948270019 15.6534091716670005  0.5467993620220000
  6.5653304948270019 36.5246214116669989  0.5467993620220000
  6.5653304948270019 30.2632577416670046  0.5467993620220000
  6.5653304948270019 24.0018940716669995  0.5467993620220000
  7.4267380217919996  1.0435606116670000  9.3484611072820005
  0.3637282892110000  5.2178030616670004  9.6421244668749999
  8.8952331555009998  3.1306818316670002  9.4952927870790003
  9.5023207622460006  1.0435606116670000  0.8404627216140003
  0.9708158959560000  3.1306818316670002  0.9872944014110002
  8.0338256285360004  5.2178030616670004  0.6936310418180002
  7.4267380217919996  7.3049242816669997  9.3484611072820005
  0.3637282892110000 11.4791667316670001  9.6421244668749999
  8.8952331555009998  9.3920455016670008  9.4952927870790003
  9.5023207622460006  7.3049242816669997  0.8404627216140003
  0.9708158959560000  9.3920455016670008  0.9872944014110002
  8.0338256285360004 11.4791667316670001  0.6936310418180002
  7.4267380217919996 13.5662879516670003  9.3484611072820005
  0.3637282892110000 17.7405303916670007  9.6421244668749999
  8.8952331555009998 15.6534091716670005  9.4952927870790003
  9.5023207622460006 13.5662879516670003  0.8404627216140003
  0.9708158959560000 15.6534091716670005  0.9872944014110002
  8.0338256285360004 17.7405303916670007  0.6936310418180002
  7.4267380217919996 19.8276516216669982  9.3484611072820005
  0.3637282892110000 34.4375001816669979  9.6421244668749999
  8.8952331555009998 36.5246214116669989  9.4952927870790003
  9.5023207622460006 19.8276516216669982  0.8404627216140003
  0.9708158959560000 36.5246214116669989  0.9872944014110002
  8.0338256285360004 34.4375001816669979  0.6936310418180002
  7.4267380217919996 32.3503789616669977  9.3484611072820005
  0.3637282892110000 28.1761365116670000  9.6421244668749999
  8.8952331555009998 30.2632577416670046  9.4952927870790003
  9.5023207622460006 32.3503789616669977  0.8404627216140003
  0.9708158959560000 30.2632577416670046  0.9872944014110002
  8.0338256285360004 28.1761365116670000  0.6936310418180002
  7.4267380217919996 26.0890152916669997  9.3484611072820005
  0.3637282892110000 21.9147728516669993  9.6421244668749999
  8.8952331555009998 24.0018940716669995  9.4952927870790003
  9.5023207622460006 26.0890152916669997  0.8404627216140003
  0.9708158959560000 24.0018940716669995  0.9872944014110002
  8.0338256285360004 21.9147728516669993  0.6936310418180002
  3.9078061633750005  1.0435606116670000  1.2809577610039999
  2.4393110296650002  5.2178030616670004  1.1341260812070000
  3.9078061633750005  7.3049242816669997  1.2809577610039999
  2.4393110296650002 11.4791667316670001  1.1341260812070000
  3.9078061633750005 13.5662879516670003  1.2809577610039999
  2.4393110296650002 17.7405303916670007  1.1341260812070000
  3.9078061633750005 19.8276516216669982  1.2809577610039999
  2.4393110296650002 34.4375001816669979  1.1341260812070000
  3.9078061633750005 32.3503789616669977  1.2809577610039999
  2.4393110296650002 28.1761365116670000  1.1341260812070000
  3.9078061633750005 26.0890152916669997  1.2809577610039999
  2.4393110296650002 21.9147728516669993  1.1341260812070000
  5.7039229589060003  5.2178030616670004  1.7451376058150003
  6.3110105656510020  3.1306818316670002  3.0903075403510005
  5.7039229589060003 11.4791667316670001  1.7451376058150003
  6.3110105656510020  9.3920455016670008  3.0903075403510005
  5.7039229589060003 17.7405303916670007  1.7451376058150003
  6.3110105656510020 15.6534091716670005  3.0903075403510005
  5.7039229589060003 34.4375001816669979  1.7451376058150003
  6.3110105656510020 36.5246214116669989  3.0903075403510005
  5.7039229589060003 28.1761365116670000  1.7451376058150003
  6.3110105656510020 30.2632577416670046  3.0903075403510005
  5.7039229589060003 21.9147728516669993  1.7451376058150003
  6.3110105656510020 24.0018940716669995  3.0903075403510005
  7.1724180926159997  1.0435606116670000  1.8919692856120005
  0.1094083600350000  5.2178030616670004  2.1856326452050001
  8.6409132263250008  3.1306818316670002  2.0388009654079999
  9.2480008330699999  1.0435606116670000  3.3839708999439999
  0.7164959667800002  3.1306818316670002  3.5308025797400000
  7.7795056993599996  5.2178030616670004  3.2371392201470006
  7.1724180926159997  7.3049242816669997  1.8919692856120005
  0.1094083600350000 11.4791667316670001  2.1856326452050001
  8.6409132263250008  9.3920455016670008  2.0388009654079999
  9.2480008330699999  7.3049242816669997  3.3839708999439999
  0.7164959667800002  9.3920455016670008  3.5308025797400000
  7.7795056993599996 11.4791667316670001  3.2371392201470006
  7.1724180926159997 13.5662879516670003  1.8919692856120005
  0.1094083600350000 17.7405303916670007  2.1856326452050001
  8.6409132263250008 15.6534091716670005  2.0388009654079999
  9.2480008330699999 13.5662879516670003  3.3839708999439999
  0.7164959667800002 15.6534091716670005  3.5308025797400000
  7.7795056993599996 17.7405303916670007  3.2371392201470006
  7.1724180926159997 19.8276516216669982  1.8919692856120005
  0.1094083600350000 34.4375001816669979  2.1856326452050001
  8.6409132263250008 36.5246214116669989  2.0388009654079999
  9.2480008330699999 19.8276516216669982  3.3839708999439999
  0.7164959667800002 36.5246214116669989  3.5308025797400000
  7.7795056993599996 34.4375001816669979  3.2371392201470006
  7.1724180926159997 32.3503789616669977  1.8919692856120005
  0.1094083600350000 28.1761365116670000  2.1856326452050001
  8.6409132263250008 30.2632577416670046  2.0388009654079999
  9.2480008330699999 32.3503789616669977  3.3839708999439999
  0.7164959667800002 30.2632577416670046  3.5308025797400000
  7.7795056993599996 28.1761365116670000  3.2371392201470006
  7.1724180926159997 26.0890152916669997  1.8919692856120005
  0.1094083600350000 21.9147728516669993  2.1856326452050001
  8.6409132263250008 24.0018940716669995  2.0388009654079999
  9.2480008330699999 26.0890152916669997  3.3839708999439999
  0.7164959667800002 24.0018940716669995  3.5308025797400000
  7.7795056993599996 21.9147728516669993  3.2371392201470006
  1.5779034937450001  1.0435606116670000  2.3324643250010002
  4.5148937611640001  5.2178030616670004  2.6261276845940000
  3.0463986274539998  3.1306818316670002  2.4792960047979999
  2.1849911004889999  5.2178030616670004  3.6776342595370002
  1.5779034937450001  7.3049242816669997  2.3324643250010002
  4.5148937611640001 11.4791667316670001  2.6261276845940000
  3.0463986274539998  9.3920455016670008  2.4792960047979999
  2.1849911004889999 11.4791667316670001  3.6776342595370002
  1.5779034937450001 13.5662879516670003  2.3324643250010002
  4.5148937611640001 17.7405303916670007  2.6261276845940000
  3.0463986274539998 15.6534091716670005  2.4792960047979999
  2.1849911004889999 17.7405303916670007  3.6776342595370002
  1.5779034937450001 19.8276516216669982  2.3324643250010002
  4.5148937611640001 34.4375001816669979  2.6261276845940000
  3.0463986274539998 36.5246214116669989  2.4792960047979999
  2.1849911004889999 34.4375001816669979  3.6776342595370002
  1.5779034937450001 32.3503789616669977  2.3324643250010002
  4.5148937611640001 28.1761365116670000  2.6261276845940000
  3.0463986274539998 30.2632577416670046  2.4792960047979999
  2.1849911004889999 28.1761365116670000  3.6776342595370002
  1.5779034937450001 26.0890152916669997  2.3324643250010002
  4.5148937611640001 21.9147728516669993  2.6261276845940000
  3.0463986274539998 24.0018940716669995  2.4792960047979999
  2.1849911004889999 21.9147728516669993  3.6776342595370002
  6.9180981634400007  1.0435606116670000  4.4354774639410000
  9.8550884308590003  5.2178030616670004  4.7291408235340002
  8.3865932971500001  3.1306818316670002  4.5823091437379997
  7.5251857701849998  5.2178030616670004  5.7806473984769999
  6.9180981634400007  7.3049242816669997  4.4354774639410000
  9.8550884308590003 11.4791667316670001  4.7291408235340002
  8.3865932971500001  9.3920455016670008  4.5823091437379997
  7.5251857701849998 11.4791667316670001  5.7806473984769999
  6.9180981634400007 13.5662879516670003  4.4354774639410000
  9.8550884308590003 17.7405303916670007  4.7291408235340002
  8.3865932971500001 15.6534091716670005  4.5823091437379997
  7.5251857701849998 17.7405303916670007  5.7806473984769999
  6.9180981634400007 19.8276516216669982  4.4354774639410000
  9.8550884308590003 34.4375001816669979  4.7291408235340002
  8.3865932971500001 36.5246214116669989  4.5823091437379997
  7.5251857701849998 34.4375001816669979  5.7806473984769999
  6.9180981634400007 32.3503789616669977  4.4354774639410000
  9.8550884308590003 28.1761365116670000  4.7291408235340002
  8.3865932971500001 30.2632577416670046  4.5823091437379997
  7.5251857701849998 28.1761365116670000  5.7806473984769999
  6.9180981634400007 26.0890152916669997  4.4354774639410000
  9.8550884308590003 21.9147728516669993  4.7291408235340002
  8.3865932971500001 24.0018940716669995  4.5823091437379997
  7.5251857701849998 21.9147728516669993  5.7806473984769999
