Cu
 1.0000000000000000
     7.6685730419681093    0.0000000000000000    0.0000000000000000
     3.8342865209840546    6.6411790651208911    0.0000000000000000
     0.0000000000000000    0.0000000000000000   25.0450909090909093
 Cu 
 108
Direct
  0.1112870677621295  0.1110646718175808  0.0000328527350722
  0.3020370161138831  0.6676843236316791  0.6667468620625269
  0.9700288705024851  0.3305769601066775  0.6665293916697030
  0.6322657442654980  0.3351899474746995  0.6659244879287355
  0.2995171103815946  0.3330786728989626  0.6670063562859382
  0.9662153744299953 -0.0012481393967902  0.6662338609905277
  0.6306752538255417  0.0020620339445851  0.6667054685006276
  0.2988298281224385  0.0016091508589527  0.6660822478641142
  0.8550863235542755  0.8900867087855865  0.5838560855756617
  0.5222627925320645  0.8899239354481492  0.5831640121954167
  0.1898099401691340  0.8903150400696083  0.5829478267855349
  0.8562930528968400  0.5542988367377496  0.5837679846897966
  0.5244705651821653  0.5551732804877719  0.5836892850886347
  0.1919723371214898  0.5532162152218550  0.5836357549241942
  0.8577389079145241  0.2192261942944581  0.5836338799335994
  0.5223559525882343  0.2206398689825358  0.5830341130394191
  0.1863979431533325  0.2250000536042226  0.5838007931819370
  0.0758929317145229  0.7799979390786177  0.5006001444600632
  0.7449395762609846  0.7792281978234925  0.4997221254111619
  0.4122833597408489  0.7768538752362830  0.4999042032309843
  0.0761208457832753  0.4472412052518105  0.4992800347318568
  0.7443737975471988  0.4421690556929851  0.4993065567015746
  0.4125071429713409  0.4444978690911260  0.5004102388894992
  0.0782822301117696  0.1139993358396596  0.5001900917059835
  0.6329664627806915  0.6670249927747524  0.6665978351253756
  0.7459968090099030  0.1103878589168782  0.4998909575656964
  0.9663255857943889  0.6641383114155173  0.6671984540686774
  0.7452993017733505  0.1093909489028282  0.7504951514288751
  0.2998981208039964  0.6662416519267759  0.9162020954467814
  0.9672982271788269  0.3319375896398314  0.9170138440207892
  0.6334611517505722  0.3347097786390530  0.9169324688952112
  0.2967571400692881  0.3351140297612011  0.9173969403117905
  0.9673137632618048  0.0022365996089711  0.9166440737832092
  0.6342034501390159 -0.0027482894929697  0.9161098951548211
  0.2987917885230233  0.0016922215106938  0.9165724647524515
  0.8556853642788386  0.8866971271880816  0.8329526607686139
  0.5214729292900567  0.8859327780928257  0.8341133365988261
  0.1890577334580456  0.8882993489179075  0.8330408504327448
  0.8541366794395726  0.5552582033624252  0.8336536281509903
  0.5225697463717351  0.5573999566026752  0.8338631692911779
  0.1898222780766947  0.5568923267100997  0.8327276690137324
  0.8572060212788580  0.2193701287269224  0.8341144093320835
  0.5198364382006037  0.2241419961183077  0.8326130406509912
  0.1903025407413002  0.2218133397568952  0.8325517775249768
  0.0782517399073762  0.7759768053219613  0.7493494975694468
  0.7452381707961161  0.7804563166320380  0.7504411369444786
  0.4114673596213054  0.7797305973790942  0.7500561184652399
  0.0744026397046346  0.4469628559891479  0.7492298204215015
  0.7417553732355788  0.4467352074112520  0.7500703108422633
  0.4098219301074064  0.4438771196534138  0.7501140664802118
  0.0783908419429967  0.1090917803115244  0.7506236423835159
  0.4087828885521982  0.1113318661303876  0.7507444826162217
  0.4135342192918577  0.1084760228805186  0.5007839105249225
  0.6646895511606784  0.6669484277321094  0.4164773682510730
  0.3344451911666482  0.6653685478791205  0.4173563775249736
  0.6671330685337450  0.3345069123999119  0.1674392253233736
  0.3321803848062008  0.3312445379300289  0.1672147263177316
 -0.0014165261577154  0.3339385436570503  0.1666127937275257
  0.6678253781281871 -0.0022348500134020  0.1661729420763599
  0.3315231182001712 -0.0004572731442077  0.1664829616936563
 -0.0020422782673949 -0.0000977106211356  0.1674593837247590
  0.5551966707865027  0.8887125582209364  0.0841229757422190
  0.2254569931608154  0.8859409560131686  0.0833215808180082
  0.8864977015582630  0.8892519753451098  0.0833246136269615
  0.5561923083523170  0.5539616185374072  0.0838940372310141
  0.2203902834128010  0.5556831722820303  0.0833995614108344
  0.8896284983964232  0.5534802664049420  0.0826138519982507
  0.5552589851222942  0.2221874239337787  0.0832087006245839
  0.2236660391351348  0.2238151755231161  0.0839475690938667
  0.8922084032497323  0.2199861166783650  0.0827622197421656
  0.7779302635809007  0.7778340722715134  0.0007020446544128
  0.4446328029239038  0.7787544294131583 -0.0003872789274244
  0.1117536622149913  0.7771505718587801  0.0000384438177165
  0.7766312564514958  0.4437062082990497 -0.0003788000775073
  0.4454682587932322  0.4443856900788244 -0.0000189199866365
  0.1128408712465101  0.4434946912745193 -0.0004916669865662
  0.7757443845113760  0.1100231958109548  0.0004366407816073
  0.4452369656509406  0.1095306950891253  0.0005495366658769
 -0.0030778833709054  0.6693682399075607  0.1665411059912712
  0.3361480588294986  0.6654816737959389  0.1671233078123155
  0.6678992900940863  0.6648429689123134  0.1665408666893603
  0.1082174392290526  0.1141020574597229  0.2505133303526784
  0.0003387028541794  0.6684968351445264  0.4170529006910806
  0.6677116242135938  0.3353016141430935  0.4160475822943477
  0.3306196469317783  0.3346961408189797  0.4172159933019005
 -0.0008064665996187  0.3306286278466077  0.4169805699796404
  0.6680065879059377  0.0023383147250445  0.4172025504615349
  0.3334568017040661  0.0007072397318780  0.4168408881077914
 -0.0011651115006189 -0.0023538061888822  0.4162670007078539
  0.5529294296752513  0.8906952230531763  0.3340728196388694
  0.2240527020714025  0.8872511737933779  0.3337853566764630
  0.8892631576726868  0.8911249324743820  0.3326167153374658
  0.5564322533093079  0.5560637219309134  0.3336850218788270
  0.6328468554076130  0.6658214693011494  0.9160218523139203
  0.2252700353681125  0.5529447314234964  0.3332003778700900
  0.5523904574807320  0.2242593500746290  0.3331748576427662
  0.2209198739023233  0.2201148137337043  0.3331064358210015
  0.8902034278464831  0.2237972914021004  0.3338650983409523
  0.7765779791011717  0.7790574539360648  0.2494507720950177
  0.4454220648010084  0.7805800884351778  0.2497399587482790
  0.1100272956765264  0.7799012208971660  0.2495121147177335
  0.7799620501611796  0.4436892347955437  0.2497417363335675
  0.4465339224933574  0.4428732147938504  0.2493365221542184
  0.1125802171519287  0.4419955546606881  0.2495569589488065
  0.7782142449831073  0.1117546103108742  0.2502465463211930
  0.4413363955807808  0.1129725625374113  0.2502716870563035
  0.8906910006941452  0.5563840550126696  0.3337906358787154
  0.9695886954273969  0.6643225163794246  0.9165871462216340
