Cu
 1.0000000000000000
     7.6685730419681093    0.0000000000000000    0.0000000000000000
     3.8342865209840546    6.6411790651208911    0.0000000000000000
     0.0000000000000000    0.0000000000000000   25.0450909090909093
 Cu 
 108
Direct
  0.1131568914235414  0.1081941620125802 -0.0004987970285302
 -0.0006928004741292  0.6833905085994109  0.6662153473619582
  0.6684095391855283  0.3515678168141523  0.6664985219530078
  0.3327790125001327  0.3522273297730865  0.6673567889966525
  0.0007057673861347  0.3520414442987484  0.6664438639286530
  0.6659416337383103  0.0164564400359798  0.6668868564256624
  0.3329833376474717  0.0170001402783005  0.6668618020555633
  0.0025754781894014  0.0138374875993542  0.6665213364178327
  0.5534968985416205  0.9049803491442731  0.5835895896857149
  0.2237365392401608  0.9032214020364526  0.5830002679236324
  0.8882331353441421  0.9032668755817043  0.5830666823397745
  0.5531056063879976  0.5726192592145585  0.5828530877502087
  0.2185702207743313  0.5743132805401353  0.5831766432395670
  0.8894162712200218  0.5730371206238073  0.5839363887821903
  0.5533405743674442  0.2414097120737567  0.5828388581197641
  0.2239005846615152  0.2358960902296319  0.5830447400200739
  0.8892157386862451  0.2359811538380767  0.5835379131931623
  0.7775155484481037  0.7934979457347855  0.5002741219132533
  0.4437407822909410  0.7924216686436965  0.4994817484826329
  0.1103728140468626  0.7950835259782632  0.5002546478435723
  0.7784101269401976  0.4625251898953313  0.4994159665140918
  0.4462568233978818  0.4581748243047334  0.5001864453360142
  0.1129574500209978  0.4621358687093218  0.4993801598647238
  0.7781933493016246  0.1257749264018502  0.4998744812136629
  0.3342069695440577  0.6811405146865147  0.6670250789696998
  0.4464883297216835  0.1266777523123873  0.5005799496945517
  0.6652353178725464  0.6830140014667351  0.6662860401329171
  0.4443312550544017  0.1274683210906976  0.7500926553332071
  0.0008245227136073  0.6825453501518978  0.9160225254211064
  0.6671211564412209  0.3529213006030578  0.9170849498844658
  0.3337463685298347  0.3495932923391863  0.9164223373497276
 -0.0008346357513360  0.3477499674238975  0.9174663021356511
  0.6647418327292878  0.0158227463534554  0.9174134969764514
  0.3335806066341500  0.0140800270571525  0.9171796537382504
 -0.0007682457078986  0.0194135817104238  0.9166131770719453
  0.5541728329943836  0.9043974610914586  0.8328482129584697
  0.2242703361248669  0.9046301205520707  0.8339966328451854
  0.8888019966931889  0.9076491494511690  0.8338926850645135
  0.5527998817449529  0.5740483813202391  0.8335619450852640
  0.2230083132787569  0.5715072459802265  0.8333325593655069
  0.8912255917373954  0.5700526269345193  0.8338733855412356
  0.5572389851258013  0.2393301641400345  0.8334548573029233
  0.2214604022775006  0.2386537466722979  0.8326163886092300
  0.8914885550224081  0.2383365945124462  0.8336115072484906
  0.7781785056930529  0.7962967200873717  0.7499794991490334
  0.4449819401530261  0.7925470715526651  0.7503332937878546
  0.1081663323096645  0.7969336525041057  0.7503611974403582
  0.7752466845484572  0.4635291616122938  0.7500445154375365
  0.4445281998970338  0.4582564488796814  0.7494526322261261
  0.1126151423992734  0.4596253066601907  0.7493491752159327
  0.7790568569877021  0.1297893425582910  0.7507479978328573
  0.1076210368766027  0.1298805542394146  0.7498034472067489
  0.1126499765282449  0.1271323867313643  0.4992425447298193
  0.6688335676100799  0.6666419744855319  0.4167814876153751
  0.3339264161141552  0.6676630421613448  0.4170596324923852
  0.6688981149539744  0.3322029517807598  0.1667647240363188
  0.3321883698897772  0.3358960317197293  0.1669231918582985
  0.0006093496703487  0.3324893344854111  0.1667558778970563
  0.6653529052289546 -0.0023344329716914  0.1662812629303191
  0.3313869432136357  0.0028635975663097  0.1670600603330764
 -0.0022405739692123  0.0009064364541962  0.1669506048462233
  0.5536684334377872  0.8884938850837695  0.0827026882280101
  0.2235103054534671  0.8883129558488957  0.0835329120671033
  0.8907912903647867  0.8882479459227229  0.0837909453679845
  0.5543436871546122  0.5551672152453602  0.0833527567822478
  0.2242498248971729  0.5537752614904756  0.0838564883501673
  0.8874238381059116  0.5541767185524132  0.0831750007441020
  0.5536110451147808  0.2213681248458091  0.0827345671976170
  0.2220147035513627  0.2214850625811236  0.0831570556323556
  0.8870404704382971  0.2214431441134522  0.0840976263301994
  0.7801693569883990  0.7770552454061261 -0.0002730413998722
  0.4459697192628506  0.7794877613442304 -0.0006252336586235
  0.1097303439225375  0.7759780119382584 -0.0003736348431750
  0.7766909080202851  0.4436041445697532  0.0006598104136003
  0.4465699432810040  0.4429595750690394 -0.0000149794085309
  0.1105516915281380  0.4422275392330483  0.0007731926090525
  0.7796653323862672  0.1086932400521158 -0.0005554710849358
  0.4475875162719242  0.1085585440950644 -0.0004773945626942
  0.0017407208173366  0.6680196282874215  0.1661746231756367
  0.3345127281378821  0.6644198185355926  0.1664804618583747
  0.6682342380346766  0.6652341309420381  0.1669342714946830
  0.1097750768485589  0.1119945536694756  0.2499623749147009
  0.0033147846450826  0.6637561090054740  0.4167621880320110
  0.6657275634557291  0.3306693724390279  0.4161472398631116
  0.3330400705903390  0.3313365042390006  0.4164916598073515
 -0.0012665109391271  0.3354103866210769  0.4169381231238816
  0.6699595754255406 -0.0029404953822029  0.4170362775331284
  0.3333897801319650  0.0015272978808817  0.4162152240660281
  0.0026301161234518 -0.0006788122602706  0.4174359373508540
  0.5553314011788799  0.8905777258639501  0.3334118802916290
  0.2207454192203993  0.8884819205026852  0.3337183369211948
  0.8865100346569760  0.8915320521501591  0.3331924930807497
  0.5546901587348798  0.5539859465852517  0.3332552091070798
  0.3359737014299224  0.6826418579067988  0.9169127544790496
  0.2208295308956367  0.5578252772539030  0.3337028464084079
  0.5537041379624873  0.2215196319679525  0.3332970529945566
  0.2218427813478423  0.2213355268496828  0.3326814028237888
  0.8858067600530667  0.2234561211405633  0.3330053092150848
  0.7807078008291027  0.7754427333783480  0.2494637711321544
  0.4432884741171462  0.7773298883337874  0.2496997663441073
  0.1122347665590526  0.7760275981733521  0.2493056465261652
  0.7807978100652238  0.4415199658328189  0.2497449565319088
  0.4474079982050966  0.4415933542755806  0.2496291828750771
  0.1083224382555608  0.4458580828472139  0.2503042658008090
  0.7780144214077497  0.1106431188966241  0.2505212319493683
  0.4433075350823518  0.1139170895126712  0.2504478328272119
  0.8893158865953762  0.5532172259197862  0.3335966142791563
  0.6656261980026783  0.6853022259075690  0.9164386643730746
