Cu
 1.0000000000000000
     7.6685730419681093    0.0000000000000000    0.0000000000000000
     3.8342865209840546    6.6411790651208911    0.0000000000000000
     0.0000000000000000    0.0000000000000000   25.0450909090909093
 Cu 
 108
Direct
  0.1116052032109693  0.1093266358978054 -0.0000397678648849
  0.0009665652581896  0.7322872918099178  0.6672894975940631
  0.6681270590011781  0.3975540984793315  0.6667014577901295
  0.3333980038190992  0.4020310399935205  0.6670036241437508
  0.0009493418550175  0.3984909802273867  0.6672509143482929
  0.6689236724030969  0.0667133463589839  0.6664723799208174
  0.3321201262729007  0.0654883916377329  0.6670399084510207
  0.0001916291113986  0.0659577155632200  0.6671681153193902
  0.5523445473537305  0.9568563212682735  0.5840024709661518
  0.2202621723567950  0.9550781043743286  0.5836598101707096
  0.8875587897099969  0.9547719439240980  0.5833647142784499
  0.5556285844571354  0.6242564976968278  0.5832390766862487
  0.2218133634678489  0.6219513706812381  0.5837572728845528
  0.8883600368591280  0.6221296794898307  0.5832148597182797
  0.5545216094424741  0.2866906867409438  0.5830206559673442
  0.2227717728457528  0.2871631059696664  0.5827939723610355
  0.8886787370134871  0.2899338192071102  0.5839233526473162
  0.7806199150125034  0.8417580592053036  0.5002960596300645
  0.4433985366091848  0.8464642744800847  0.4992583490639982
  0.1109058618410155  0.8470831801894935  0.5005948156170807
  0.7795067467586787  0.5119549369110938  0.5001285914217952
  0.4432921986479058  0.5088714278713596  0.5004860441216241
  0.1122739641004721  0.5114825454257379  0.4997827467744163
  0.7783726237433677  0.1756191992383070  0.4995815541401920
  0.3332540404007954  0.7317122337335544  0.6668884335080447
  0.4446273367250066  0.1778262097041040  0.5006591838223013
  0.6656578985604419  0.7361956685565997  0.6670457340631117
  0.4459928748857317  0.1751877578633603  0.7499131409027268
  0.0024150576229417  0.7305534859391984  0.9171145794368679
  0.6686725860024062  0.3981201726227272  0.9172450212573844
  0.3344826393793649  0.3996022336050578  0.9167932431936793
 -0.0000723746756190  0.4020270943583407  0.9169433802458067
  0.6687361107917397  0.0659948584969830  0.9166824218678480
  0.3335239463018211  0.0674878081197617  0.9164401282452048
  0.0011888020533865  0.0689152057570323  0.9166753504479731
  0.5541562257090636  0.9532636553408272  0.8332324258099423
  0.2206474409407796  0.9570739494713173  0.8337330623904700
  0.8898660177822975  0.9577419816633024  0.8326724868793776
  0.5580832389553076  0.6221538230313901  0.8338092635727058
  0.2197547804511646  0.6245525055265082  0.8338482546592303
  0.8876079731922979  0.6231047980153306  0.8334747303181518
  0.5566388170349732  0.2879866351848938  0.8331281012231169
  0.2240906400004972  0.2900997240685379  0.8336835918084975
  0.8866870883240465  0.2915012657543847  0.8331908221976156
  0.7790338647547501  0.8421621673312389  0.7501752897031357
  0.4428341655523341  0.8448158026328175  0.7503822075306122
  0.1129616278791102  0.8432364937120675  0.7494341441543426
  0.7746616613911151  0.5126045090899430  0.7508019925316133
  0.4451501112521044  0.5134598429952316  0.7493878077667573
  0.1099335961101357  0.5102916435710826  0.7506914935495989
  0.7787561639897614  0.1763754204649738  0.7501132477969144
  0.1125283595031964  0.1773206784569999  0.7501529869165625
  0.1129762429430163  0.1773420527120045  0.4999257279935396
  0.6655739482358997  0.6695347666980168  0.4165605598819419
  0.3315349932473425  0.6667631905233439  0.4174126520277679
  0.6668625368147751  0.3310213119567453  0.1666878931066109
  0.3366307668497163  0.3306888174774198  0.1670464647129836
 -0.0029794839583800  0.3352104203797753  0.1673094804256869
  0.6654314111562233 -0.0001583066181317  0.1658827265368628
  0.3332587039425579  0.0009152878124700  0.1671605304313390
  0.0007139688314231  0.0018631311431629  0.1666668912081891
  0.5530967944294327  0.8912308952899995  0.0840971653557266
  0.2221298794471894  0.8895021721319767  0.0826267200317797
  0.8865233053165275  0.8917327242217734  0.0838437371968667
  0.5555068621763090  0.5569507755984930  0.0838153670406949
  0.2222078490409088  0.5553640697329292  0.0834013684577148
  0.8897489071355055  0.5572480782207133  0.0837768185141465
  0.5543952467650268  0.2198893464496123  0.0834553200150038
  0.2222308488891741  0.2192530698868085  0.0840643883272805
  0.8883628817488474  0.2201467926306736  0.0836734420823019
  0.7771381019484548  0.7799807720290578 -0.0007053859243312
  0.4452379451725223  0.7798750000340487 -0.0003922550148612
  0.1127239448437173  0.7781206650921005 -0.0001560094903788
  0.7765080996728462  0.4442822567085755  0.0003709509006868
  0.4423178821764788  0.4445301595865803 -0.0005386044486829
  0.1101545283861166  0.4473898706630423 -0.0000773948243717
  0.7795257489833052  0.1128154408747479 -0.0004470257866164
  0.4470599006710338  0.1107014184392272 -0.0002597123725990
  0.0023779091772572  0.6667912330926460  0.1672893412380848
  0.3353082919832694  0.6669472683242205  0.1666154012436671
  0.6654465970955427  0.6683521332083125  0.1660220110025964
  0.1073761439029033  0.1137954435863823  0.2506619816601727
 -0.0007073709195858  0.6692407765871623  0.4167220975470449
  0.6678334918027038  0.3340116221194299  0.4161097361947996
  0.3303499515209440  0.3356674234199583  0.4166954941390381
  0.0006078936032985  0.3322785893976034  0.4169978707414568
  0.6686370231586590  0.0007957169599338  0.4162758700088132
  0.3320910488836634  0.0014815374242949  0.4173855592639834
 -0.0009003198048746 -0.0005524347125463  0.4168196628850424
  0.5548872281482624  0.8869364823558586  0.3341322424899835
  0.2227383849962080  0.8895903021993830  0.3339113351183270
  0.8925601327886120  0.8867260775288573  0.3334910365610159
  0.5533032488446556  0.5566576154362088  0.3325759947664368
  0.3317271675099674  0.7329382681140306  0.9159049522269569
  0.2237314556658158  0.5556289848591754  0.3335009201786325
  0.5546292560999223  0.2226025594858976  0.3335313160658916
  0.2212510382822247  0.2245801577414222  0.3339230750666836
  0.8903687800270927  0.2213131581676494  0.3330470912762052
  0.7754228481659922  0.7799862089877294  0.2497392212690884
  0.4468009065661070  0.7781628541639771  0.2492604243039301
  0.1110613299641456  0.7787355055236266  0.2498700691870352
  0.7760924942012656  0.4428686111528105  0.2496842944816815
  0.4474602828475464  0.4416388947361971  0.2494818552321731
  0.1121867887404595  0.4457303240749073  0.2502771409068572
  0.7752190730156495  0.1112660680504365  0.2499602090027796
  0.4451733558097244  0.1126538667775339  0.2499019163188037
  0.8877715525824126  0.5579495982956855  0.3335156803710514
  0.6636814058517825  0.7354713533850431  0.9167730897964704
