Cu
 1.0000000000000000
     7.6685730419681093    0.0000000000000000    0.0000000000000000
     3.8342865209840546    6.6411790651208911    0.0000000000000000
     0.0000000000000000    0.0000000000000000   25.0450909090909093
 Cu 
 108
Direct
  0.1144552738268035  0.1089308970348239 -0.0005333810147141
  0.0665051647459565 -0.0025842397842774  0.6667918897729529
  0.7341826395985754  0.6641053523128602  0.6662343472225518
  0.3964214350612358  0.6691943900865701  0.6662608347795850
  0.0655339461869112  0.6676244618486877  0.6660792086728595
  0.7343202769410385  0.3335278741313826  0.6663351451620534
  0.4006148238947836  0.3358074960924287  0.6669604959205607
  0.0667905462745392  0.3347232578276150  0.6669639634810464
  0.6191033560834593  0.2246923823784082  0.5836612487878204
  0.2886675543557386  0.2248239583614576  0.5825920167407742
  0.9526631181450195  0.2245496927177303  0.5838387261304765
  0.6225971346233897  0.8890957538890985  0.5838656237512607
  0.2899030819273111  0.8870791202661891  0.5830133143668143
  0.9547796506274353  0.8886536256636590  0.5831290066789611
  0.6193109506464387  0.5578362142665610  0.5839623890492754
  0.2862092770494844  0.5568988489607561  0.5838050223105357
  0.9569314795822662  0.5551336565987820  0.5836885903716403
  0.8451510188847032  0.1107671899310926  0.5007588670084682
  0.5091030838732407  0.1112050825022018  0.5007938348175673
  0.1768529509585511  0.1128066771287077  0.5001787319596138
  0.8472000949030004  0.7764376165968373  0.5007845818988155
  0.5125582457141490  0.7773260881037680  0.4995319049653813
  0.1793595435645916  0.7795341331037715  0.5007755465026951
  0.8449689380208485  0.4463453584166439  0.4997639403698919
  0.3998562565005502  0.0021989924645477  0.6659675136879041
  0.5107856597645867  0.4430638787225643  0.4993155285792018
  0.7317661485281304 -0.0016903417292377  0.6673287348856571
  0.5103999815709998  0.4431958310869874  0.7496926805537919
  0.0683566897937492 -0.0012746577974528  0.9169390497255321
  0.7328430248127790  0.6641405148121566  0.9161478822122699
  0.4011812765822276  0.6691438672921449  0.9163084709368963
  0.0635986242125265  0.6679361479498989  0.9164833925724498
  0.7308216501119733  0.3342114255985315  0.9173838165477947
  0.3981471812085447  0.3318321643895444  0.9173243267633319
  0.0664611868440077  0.3320138947366673  0.9168714800438346
  0.6218665338760069  0.2206155350314123  0.8338527686998664
  0.2909103027223362  0.2229562022613695  0.8327913858516829
  0.9526789057843235  0.2249108052491027  0.8330090332859954
  0.6240961362126667  0.8892478265084006  0.8329095493874069
  0.2891249868024336  0.8917679678996944  0.8333923709024715
  0.9532547530009672  0.8889561539085971  0.8331550292557380
  0.6199023138616714  0.5585525252248724  0.8330781329504783
  0.2903654419944136  0.5575629853665828  0.8331366578623821
  0.9557149049030103  0.5528168444122468  0.8335976407162259
  0.8425809434636481  0.1129736694969538  0.7500790261866299
  0.5116070469165382  0.1112184832384296  0.7507324609034016
  0.1790359246853252  0.1132595139389275  0.7503181743276639
  0.8435928779806018  0.7779569220336977  0.7498279879812682
  0.5100154703372554  0.7777224237136966  0.7498417147461490
  0.1763593158114504  0.7800106932147235  0.7506946617654765
  0.8422117717293951  0.4459047921302739  0.7501673558325813
  0.1808374520452923  0.4416445631938303  0.7498261692486978
  0.1760059855515825  0.4458210497444478  0.5002747948480389
  0.6681671976688833  0.6679278399954078  0.4164629796777786
  0.3320652219584889  0.6680382602499387  0.4170693136530959
  0.6666642591480288  0.3342484760765860  0.1671995172786349
  0.3365419658517848  0.3310728689124698  0.1667420350243239
 -0.0005475568778044  0.3336902121617762  0.1664843999798954
  0.6661663642838759 -0.0025660377349614  0.1671138819007890
  0.3341666535534429 -0.0022324589372727  0.1662284372370019
 -0.0017223240752372 -0.0000758649610740  0.1659694389497375
  0.5571728957222349  0.8866628368687347  0.0829252965759897
  0.2215933682548726  0.8887739212738246  0.0830741378643036
  0.8915830327141782  0.8876122218179028  0.0834944773941832
  0.5545797339137540  0.5576343352120274  0.0839588819387315
  0.2219526956659217  0.5575178307229607  0.0826933155541500
  0.8874834908105667  0.5567390460558990  0.0827498371134381
  0.5548193603026249  0.2252104810956571  0.0832888271463537
  0.2234379513532473  0.2194115366483763  0.0828620074551800
  0.8912879537773338  0.2201917038767134  0.0833248985317065
  0.7747198194716173  0.7799228857370545  0.0000421391237631
  0.4472374277485484  0.7762057999644193  0.0000440028390914
  0.1121285415879407  0.7775684284409191  0.0003206579826278
  0.7770045676084678  0.4425798680300697 -0.0002996448215921
  0.4470522225375941  0.4431787212473263 -0.0002940837480813
  0.1109675453830525  0.4424487008552984  0.0006827784701615
  0.7757598813390032  0.1122999198578449  0.0006040381945041
  0.4458988171011574  0.1107394859435199 -0.0002265843162953
  0.0037528566913256  0.6642148407928034  0.1674464764985535
  0.3347614230433831  0.6653820511326645  0.1663301229195060
  0.6669827466242518  0.6676452029438874  0.1674274265832048
  0.1146211555148016  0.1082776604132264  0.2503545043251527
  0.0017300944232149  0.6674891216343430  0.4161812390744596
  0.6667753029494571  0.3333466040315151  0.4166509219812913
  0.3352951912993926  0.3335509765135378  0.4169834553529343
  0.0000450962183816  0.3356626759880859  0.4166900909400719
  0.6670744083194704 -0.0020108596519443  0.4174507432822827
  0.3343203495701532  0.0008868783777717  0.4173598023432978
  0.0008069433753920  0.0025076471145922  0.4166356727513890
  0.5550939210985599  0.8870302612349019  0.3331695272255884
  0.2199343918597821  0.8901444634058412  0.3336173208774359
  0.8908697397838609  0.8873617023176011  0.3326193542801060
  0.5579864713978326  0.5553201872388953  0.3340080052156724
  0.4003370441472964 -0.0000533135306069  0.9171988954080097
  0.2186062779779628  0.5579834789479905  0.3331128341258785
  0.5551351687241868  0.2234574647892021  0.3334184075035853
  0.2243856663396626  0.2218161265376722  0.3331129165206685
  0.8916100743837682  0.2203984411890955  0.3333240840551280
  0.7775377865970762  0.7750504527687813  0.2503770597568755
  0.4450888598520768  0.7760195191592805  0.2501469977884061
  0.1127730110852606  0.7761294874386877  0.2495804796592473
  0.7792460263682394  0.4440647065800896  0.2500199404420121
  0.4449339416063178  0.4454493610011062  0.2503488814878665
  0.1141008110828017  0.4423326744289905  0.2507158215401866
  0.7804213757463417  0.1107075294970994  0.2494576998050758
  0.4407657315471766  0.1134550780348545  0.2507262737481646
  0.8908766510681656  0.5548426660892641  0.3338739037699390
  0.7333381804274750  0.0017285724314668  0.9162787591948010
