Generated generic
1.0
   30.67429217    0.00000000    0.00000000
   15.33714608   26.56471626    0.00000000
    0.00000000    0.00000000   25.04509091
 Cu
 1418
Selective dynamics
Direct
    0.02777778    0.02777778    0.00000000 T T T
    0.11111111    0.02777778    0.00000000 T T T
    0.19444444    0.02777778    0.00000000 T T T
    0.27777778    0.02777778    0.00000000 T T T
    0.36111111    0.02777778    0.00000000 T T T
    0.44444444    0.02777778    0.00000000 T T T
    0.52777778    0.02777778    0.00000000 T T T
    0.61111111    0.02777778    0.00000000 T T T
    0.69444444    0.02777778    0.00000000 T T T
    0.77777778    0.02777778    0.00000000 T T T
    0.86111111    0.02777778    0.00000000 T T T
    0.94444444    0.02777778    0.00000000 T T T
    0.02777778    0.11111111    0.00000000 T T T
    0.11111111    0.11111111    0.00000000 T T T
    0.19444444    0.11111111    0.00000000 T T T
    0.27777778    0.11111111    0.00000000 T T T
    0.36111111    0.11111111    0.00000000 T T T
    0.44444444    0.11111111    0.00000000 T T T
    0.52777778    0.11111111    0.00000000 T T T
    0.61111111    0.11111111    0.00000000 T T T
    0.69444444    0.11111111    0.00000000 T T T
    0.77777778    0.11111111    0.00000000 T T T
    0.86111111    0.11111111    0.00000000 T T T
    0.94444444    0.11111111    0.00000000 T T T
    0.02777778    0.19444444    0.00000000 T T T
    0.11111111    0.19444444    0.00000000 T T T
    0.19444444    0.19444444    0.00000000 T T T
    0.27777778    0.19444444    0.00000000 T T T
    0.36111111    0.19444444    0.00000000 T T T
    0.44444444    0.19444444    0.00000000 T T T
    0.52777778    0.19444444    0.00000000 T T T
    0.61111111    0.19444444    0.00000000 T T T
    0.69444444    0.19444444    0.00000000 T T T
    0.77777778    0.19444444    0.00000000 T T T
    0.86111111    0.19444444    0.00000000 T T T
    0.94444444    0.19444444    0.00000000 T T T
    0.02777778    0.27777778    0.00000000 T T T
    0.11111111    0.27777778    0.00000000 T T T
    0.19444444    0.27777778    0.00000000 T T T
    0.27777778    0.27777778    0.00000000 T T T
    0.36111111    0.27777778    0.00000000 T T T
    0.44444444    0.27777778    0.00000000 T T T
    0.52777778    0.27777778    0.00000000 T T T
    0.61111111    0.27777778    0.00000000 T T T
    0.69444444    0.27777778    0.00000000 T T T
    0.77777778    0.27777778    0.00000000 T T T
    0.86111111    0.27777778    0.00000000 T T T
    0.94444444    0.27777778    0.00000000 T T T
    0.02777778    0.36111111    0.00000000 T T T
    0.11111111    0.36111111    0.00000000 T T T
    0.19444444    0.36111111    0.00000000 T T T
    0.27777778    0.36111111    0.00000000 T T T
    0.36111111    0.36111111    0.00000000 T T T
    0.44444444    0.36111111    0.00000000 T T T
    0.52777778    0.36111111    0.00000000 T T T
    0.61111111    0.36111111    0.00000000 T T T
    0.69444444    0.36111111    0.00000000 T T T
    0.77777778    0.36111111    0.00000000 T T T
    0.86111111    0.36111111    0.00000000 T T T
    0.94444444    0.36111111    0.00000000 T T T
    0.02777778    0.44444444    0.00000000 T T T
    0.11111111    0.44444444    0.00000000 T T T
    0.19444444    0.44444444    0.00000000 T T T
    0.27777778    0.44444444    0.00000000 T T T
    0.36111111    0.44444444    0.00000000 T T T
    0.44444444    0.44444444    0.00000000 T T T
    0.52777778    0.44444444    0.00000000 T T T
    0.61111111    0.44444444    0.00000000 T T T
    0.69444444    0.44444444    0.00000000 T T T
    0.77777778    0.44444444    0.00000000 T T T
    0.86111111    0.44444444    0.00000000 T T T
    0.94444444    0.44444444    0.00000000 T T T
    0.03085976    0.29939709    0.68519847 T T T
    0.05863837    0.32717319    0.60186329 T T T
    0.08641699    0.35494930    0.51852812 T T T
    0.11419560    0.38272540    0.43519295 T T T
    0.14197422    0.41050151    0.35185778 T T T
    0.16975283    0.43827761    0.26852261 T T T
    0.19753145    0.46605371    0.18518744 T T T
    0.22531006    0.49382982    0.10185227 T T T
    0.25308868    0.52160592    0.01851709 T T T
    0.28086729    0.54938203    0.93518192 T T T
    0.30864591    0.57715813    0.85184675 T T T
    0.33642452    0.60493423    0.76851158 T T T
    0.98456486    0.39198940    0.65741924 T T T
    0.01234347    0.41976551    0.57408407 T T T
    0.04012209    0.44754161    0.49074889 T T T
    0.06790070    0.47531771    0.40741372 T T T
    0.09567932    0.50309382    0.32407855 T T T
    0.12345793    0.53086992    0.24074338 T T T
    0.15123655    0.55864603    0.15740821 T T T
    0.17901516    0.58642213    0.07407304 T T T
    0.20679378    0.61419823    0.99073787 T T T
    0.23457239    0.64197434    0.90740270 T T T
    0.26235101    0.66975044    0.82406752 T T T
    0.29012962    0.69752655    0.74073235 T T T
    0.93826996    0.48458172    0.62964001 T T T
    0.96604857    0.51235782    0.54630484 T T T
    0.99382719    0.54013392    0.46296967 T T T
    0.02160580    0.56791003    0.37963450 T T T
    0.04938442    0.59568613    0.29629932 T T T
    0.07716303    0.62346224    0.21296415 T T T
    0.10494165    0.65123834    0.12962898 T T T
    0.13272026    0.67901444    0.04629381 T T T
    0.16049887    0.70679055    0.96295864 T T T
    0.18827749    0.73456665    0.87962347 T T T
    0.21605610    0.76234276    0.79628830 T T T
    0.24383472    0.79011886    0.71295313 T T T
    0.89197506    0.57717403    0.60186078 T T T
    0.91975367    0.60495013    0.51852561 T T T
    0.94753229    0.63272624    0.43519044 T T T
    0.97531090    0.66050234    0.35185527 T T T
    0.00308951    0.68827845    0.26852010 T T T
    0.03086813    0.71605455    0.18518493 T T T
    0.05864674    0.74383065    0.10184975 T T T
    0.08642536    0.77160676    0.01851458 T T T
    0.11420397    0.79938286    0.93517941 T T T
    0.14198259    0.82715897    0.85184424 T T T
    0.16976120    0.85493507    0.76850907 T T T
    0.19753982    0.88271117    0.68517390 F F F
    0.02777778    0.86111111    0.00000000 T T T
    0.11111111    0.86111111    0.00000000 T T T
    0.19444444    0.86111111    0.00000000 T T T
    0.27777778    0.86111111    0.00000000 T T T
    0.36111111    0.86111111    0.00000000 T T T
    0.44444444    0.86111111    0.00000000 T T T
    0.52777778    0.86111111    0.00000000 T T T
    0.61111111    0.86111111    0.00000000 T T T
    0.69444444    0.86111111    0.00000000 T T T
    0.77777778    0.86111111    0.00000000 T T T
    0.86111111    0.86111111    0.00000000 T T T
    0.94444444    0.86111111    0.00000000 T T T
    0.02777778    0.94444444    0.00000000 T T T
    0.11111111    0.94444444    0.00000000 T T T
    0.19444444    0.94444444    0.00000000 T T T
    0.27777778    0.94444444    0.00000000 T T T
    0.36111111    0.94444444    0.00000000 T T T
    0.44444444    0.94444444    0.00000000 T T T
    0.52777778    0.94444444    0.00000000 T T T
    0.61111111    0.94444444    0.00000000 T T T
    0.69444444    0.94444444    0.00000000 T T T
    0.77777778    0.94444444    0.00000000 T T T
    0.86111111    0.94444444    0.00000000 T T T
    0.94444444    0.94444444    0.00000000 T T T
    0.97222222    0.05555556    0.08333454 T T T
    0.05555556    0.05555556    0.08333454 T T T
    0.13888889    0.05555556    0.08333454 T T T
    0.22222222    0.05555556    0.08333454 T T T
    0.30555556    0.05555556    0.08333454 T T T
    0.38888889    0.05555556    0.08333454 T T T
    0.47222222    0.05555556    0.08333454 T T T
    0.55555556    0.05555556    0.08333454 T T T
    0.63888889    0.05555556    0.08333454 T T T
    0.72222222    0.05555556    0.08333454 T T T
    0.80555556    0.05555556    0.08333454 T T T
    0.88888889    0.05555556    0.08333454 T T T
    0.97222222    0.13888889    0.08333454 T T T
    0.05555556    0.13888889    0.08333454 T T T
    0.13888889    0.13888889    0.08333454 T T T
    0.22222222    0.13888889    0.08333454 T T T
    0.30555556    0.13888889    0.08333454 T T T
    0.38888889    0.13888889    0.08333454 T T T
    0.47222222    0.13888889    0.08333454 T T T
    0.55555556    0.13888889    0.08333454 T T T
    0.63888889    0.13888889    0.08333454 T T T
    0.72222222    0.13888889    0.08333454 T T T
    0.80555556    0.13888889    0.08333454 T T T
    0.88888889    0.13888889    0.08333454 T T T
    0.97222222    0.22222222    0.08333454 T T T
    0.05555556    0.22222222    0.08333454 T T T
    0.13888889    0.22222222    0.08333454 T T T
    0.22222222    0.22222222    0.08333454 T T T
    0.30555556    0.22222222    0.08333454 T T T
    0.38888889    0.22222222    0.08333454 T T T
    0.47222222    0.22222222    0.08333454 T T T
    0.55555556    0.22222222    0.08333454 T T T
    0.63888889    0.22222222    0.08333454 T T T
    0.72222222    0.22222222    0.08333454 T T T
    0.80555556    0.22222222    0.08333454 T T T
    0.88888889    0.22222222    0.08333454 T T T
    0.97222222    0.30555556    0.08333454 T T T
    0.05555556    0.30555556    0.08333454 T T T
    0.13888889    0.30555556    0.08333454 T T T
    0.22222222    0.30555556    0.08333454 T T T
    0.30555556    0.30555556    0.08333454 T T T
    0.38888889    0.30555556    0.08333454 T T T
    0.47222222    0.30555556    0.08333454 T T T
    0.55555556    0.30555556    0.08333454 T T T
    0.63888889    0.30555556    0.08333454 T T T
    0.72222222    0.30555556    0.08333454 T T T
    0.80555556    0.30555556    0.08333454 T T T
    0.88888889    0.30555556    0.08333454 T T T
    0.97222222    0.38888889    0.08333454 T T T
    0.05555556    0.38888889    0.08333454 T T T
    0.13888889    0.38888889    0.08333454 T T T
    0.22222222    0.38888889    0.08333454 T T T
    0.30555556    0.38888889    0.08333454 T T T
    0.38888889    0.38888889    0.08333454 T T T
    0.47222222    0.38888889    0.08333454 T T T
    0.55555556    0.38888889    0.08333454 T T T
    0.63888889    0.38888889    0.08333454 T T T
    0.72222222    0.38888889    0.08333454 T T T
    0.80555556    0.38888889    0.08333454 T T T
    0.88888889    0.38888889    0.08333454 T T T
    0.97222222    0.47222222    0.08333454 T T T
    0.05555556    0.47222222    0.08333454 T T T
    0.13888889    0.47222222    0.08333454 T T T
    0.30555556    0.47222222    0.08333454 T T T
    0.38888889    0.47222222    0.08333454 T T T
    0.47222222    0.47222222    0.08333454 T T T
    0.55555556    0.47222222    0.08333454 T T T
    0.63888889    0.47222222    0.08333454 T T T
    0.72222222    0.47222222    0.08333454 T T T
    0.80555556    0.47222222    0.08333454 T T T
    0.88888889    0.47222222    0.08333454 T T T
    0.04629251    0.32408882    0.77779191 T T T
    0.07407112    0.35186492    0.69445674 T T T
    0.10184974    0.37964103    0.61112157 T T T
    0.12962835    0.40741713    0.52778640 T T T
    0.15740697    0.43519324    0.44445123 T T T
    0.18518558    0.46296934    0.36111606 T T T
    0.21296420    0.49074544    0.27778089 T T T
    0.24074281    0.51852155    0.19444571 T T T
    0.26852143    0.54629765    0.11111054 T T T
    0.29630004    0.57407376    0.02777537 T T T
    0.32407866    0.60184986    0.94444020 T T T
    0.35185727    0.62962596    0.86110503 T T T
    0.99999761    0.41668113    0.75001269 T T T
    0.02777622    0.44445724    0.66667752 T T T
    0.05555484    0.47223334    0.58334234 T T T
    0.08333345    0.50000944    0.50000717 T T T
    0.11111207    0.52778555    0.41667200 T T T
    0.13889068    0.55556165    0.33333683 T T T
    0.16666930    0.58333776    0.25000166 T T T
    0.19444791    0.61111386    0.16666649 T T T
    0.22222653    0.63888996    0.08333132 T T T
    0.25000514    0.66666607    0.99999614 T T T
    0.27778376    0.69444217    0.91666097 T T T
    0.30556237    0.72221828    0.83332580 T T T
    0.95370271    0.50927345    0.72223346 T T T
    0.98148132    0.53704955    0.63889829 T T T
    0.00925994    0.56482565    0.55556312 T T T
    0.03703855    0.59260176    0.47222795 T T T
    0.06481717    0.62037786    0.38889277 T T T
    0.09259578    0.64815397    0.30555760 T T T
    0.12037440    0.67593007    0.22222243 T T T
    0.14815301    0.70370617    0.13888726 T T T
    0.17593162    0.73148228    0.05555209 T T T
    0.20371024    0.75925838    0.97221692 T T T
    0.23148885    0.78703449    0.88888175 T T T
    0.25926747    0.81481059    0.80554657 T T T
    0.97222222    0.80555556    0.08333454 T T T
    0.05555556    0.80555556    0.08333454 T T T
    0.13888889    0.80555556    0.08333454 T T T
    0.22222222    0.80555556    0.08333454 T T T
    0.30555556    0.80555556    0.08333454 T T T
    0.38888889    0.80555556    0.08333454 T T T
    0.47222222    0.80555556    0.08333454 T T T
    0.55555556    0.80555556    0.08333454 T T T
    0.63888889    0.80555556    0.08333454 T T T
    0.72222222    0.80555556    0.08333454 T T T
    0.80555556    0.80555556    0.08333454 T T T
    0.88888889    0.80555556    0.08333454 T T T
    0.97222222    0.88888889    0.08333454 T T T
    0.05555556    0.88888889    0.08333454 T T T
    0.13888889    0.88888889    0.08333454 T T T
    0.22222222    0.88888889    0.08333454 T T T
    0.30555556    0.88888889    0.08333454 T T T
    0.38888889    0.88888889    0.08333454 T T T
    0.47222222    0.88888889    0.08333454 T T T
    0.55555556    0.88888889    0.08333454 T T T
    0.63888889    0.88888889    0.08333454 T T T
    0.72222222    0.88888889    0.08333454 T T T
    0.80555556    0.88888889    0.08333454 T T T
    0.88888889    0.88888889    0.08333454 T T T
    0.97222222    0.97222222    0.08333454 T T T
    0.05555556    0.97222222    0.08333454 T T T
    0.13888889    0.97222222    0.08333454 T T T
    0.22222222    0.97222222    0.08333454 T T T
    0.30555556    0.97222222    0.08333454 T T T
    0.38888889    0.97222222    0.08333454 T T T
    0.47222222    0.97222222    0.08333454 T T T
    0.55555556    0.97222222    0.08333454 T T T
    0.63888889    0.97222222    0.08333454 T T T
    0.72222222    0.97222222    0.08333454 T T T
    0.80555556    0.97222222    0.08333454 T T T
    0.88888889    0.97222222    0.08333454 T T T
    0.00000000    0.00000000    0.16666909 T T T
    0.08333333    0.00000000    0.16666909 T T T
    0.16666667    0.00000000    0.16666909 T T T
    0.25000000    0.00000000    0.16666909 T T T
    0.33333333    0.00000000    0.16666909 T T T
    0.41666667    0.00000000    0.16666909 T T T
    0.50000000    0.00000000    0.16666909 T T T
    0.58333333    0.00000000    0.16666909 T T T
    0.66666667    0.00000000    0.16666909 T T T
    0.75000000    0.00000000    0.16666909 T T T
    0.83333333    0.00000000    0.16666909 T T T
    0.91666667    0.00000000    0.16666909 T T T
    0.00000000    0.08333333    0.16666909 T T T
    0.08333333    0.08333333    0.16666909 T T T
    0.16666667    0.08333333    0.16666909 T T T
    0.25000000    0.08333333    0.16666909 T T T
    0.33333333    0.08333333    0.16666909 T T T
    0.41666667    0.08333333    0.16666909 T T T
    0.50000000    0.08333333    0.16666909 T T T
    0.58333333    0.08333333    0.16666909 T T T
    0.66666667    0.08333333    0.16666909 T T T
    0.75000000    0.08333333    0.16666909 T T T
    0.83333333    0.08333333    0.16666909 T T T
    0.91666667    0.08333333    0.16666909 T T T
    0.00000000    0.16666667    0.16666909 T T T
    0.08333333    0.16666667    0.16666909 T T T
    0.16666667    0.16666667    0.16666909 T T T
    0.25000000    0.16666667    0.16666909 T T T
    0.33333333    0.16666667    0.16666909 T T T
    0.41666667    0.16666667    0.16666909 T T T
    0.50000000    0.16666667    0.16666909 T T T
    0.58333333    0.16666667    0.16666909 T T T
    0.66666667    0.16666667    0.16666909 T T T
    0.75000000    0.16666667    0.16666909 T T T
    0.83333333    0.16666667    0.16666909 T T T
    0.91666667    0.16666667    0.16666909 T T T
    0.00000000    0.25000000    0.16666909 T T T
    0.08333333    0.25000000    0.16666909 T T T
    0.16666667    0.25000000    0.16666909 T T T
    0.25000000    0.25000000    0.16666909 T T T
    0.33333333    0.25000000    0.16666909 T T T
    0.41666667    0.25000000    0.16666909 T T T
    0.50000000    0.25000000    0.16666909 T T T
    0.58333333    0.25000000    0.16666909 T T T
    0.66666667    0.25000000    0.16666909 T T T
    0.75000000    0.25000000    0.16666909 T T T
    0.83333333    0.25000000    0.16666909 T T T
    0.91666667    0.25000000    0.16666909 T T T
    0.00000000    0.33333333    0.16666909 T T T
    0.08333333    0.33333333    0.16666909 T T T
    0.16666667    0.33333333    0.16666909 T T T
    0.25000000    0.33333333    0.16666909 T T T
    0.33333333    0.33333333    0.16666909 T T T
    0.41666667    0.33333333    0.16666909 T T T
    0.50000000    0.33333333    0.16666909 T T T
    0.58333333    0.33333333    0.16666909 T T T
    0.66666667    0.33333333    0.16666909 T T T
    0.75000000    0.33333333    0.16666909 T T T
    0.83333333    0.33333333    0.16666909 T T T
    0.91666667    0.33333333    0.16666909 T T T
    0.00000000    0.41666667    0.16666909 T T T
    0.08333333    0.41666667    0.16666909 T T T
    0.16666667    0.41666667    0.16666909 T T T
    0.33333333    0.41666667    0.16666909 T T T
    0.41666667    0.41666667    0.16666909 T T T
    0.50000000    0.41666667    0.16666909 T T T
    0.58333333    0.41666667    0.16666909 T T T
    0.66666667    0.41666667    0.16666909 T T T
    0.75000000    0.41666667    0.16666909 T T T
    0.83333333    0.41666667    0.16666909 T T T
    0.91666667    0.41666667    0.16666909 T T T
    0.13579878    0.28396434    0.81482942 T T T
    0.16357739    0.31174044    0.73149425 T T T
    0.19135601    0.33951655    0.64815908 T T T
    0.21913462    0.36729265    0.56482391 T T T
    0.24691323    0.39506876    0.48148873 T T T
    0.27469185    0.42284486    0.39815356 T T T
    0.30247046    0.45062096    0.31481839 T T T
    0.33024908    0.47839707    0.23148322 T T T
    0.35802769    0.50617317    0.14814805 T T T
    0.38580631    0.53394928    0.06481288 T T T
    0.41358492    0.56172538    0.98147771 T T T
    0.44136354    0.58950148    0.89814253 T T T
    0.08950387    0.37655665    0.78705019 T T T
    0.11728249    0.40433276    0.70371502 T T T
    0.14506110    0.43210886    0.62037985 T T T
    0.17283972    0.45988497    0.53704468 T T T
    0.20061833    0.48766107    0.45370951 T T T
    0.22839695    0.51543717    0.37037434 T T T
    0.25617556    0.54321328    0.28703916 T T T
    0.28395418    0.57098938    0.20370399 T T T
    0.31173279    0.59876549    0.12036882 T T T
    0.33951141    0.62654159    0.03703365 T T T
    0.36729002    0.65431769    0.95369848 T T T
    0.39506864    0.68209380    0.87036331 T T T
    0.04320897    0.46914897    0.75927096 T T T
    0.07098759    0.49692507    0.67593579 T T T
    0.09876620    0.52470117    0.59260062 T T T
    0.12654482    0.55247728    0.50926545 T T T
    0.15432343    0.58025338    0.42593028 T T T
    0.18210205    0.60802949    0.34259511 T T T
    0.20988066    0.63580559    0.25925994 T T T
    0.23765928    0.66358169    0.17592477 T T T
    0.26543789    0.69135780    0.09258959 T T T
    0.29321650    0.71913390    0.00925442 T T T
    0.32099512    0.74691001    0.92591925 T T T
    0.34877373    0.77468611    0.84258408 T T T
    0.99691407    0.56174128    0.73149174 T T T
    0.02469269    0.58951738    0.64815657 T T T
    0.05247130    0.61729349    0.56482139 T T T
    0.08024992    0.64506959    0.48148622 T T T
    0.10802853    0.67284570    0.39815105 T T T
    0.13580714    0.70062180    0.31481588 T T T
    0.16358576    0.72839790    0.23148071 T T T
    0.19136437    0.75617401    0.14814554 T T T
    0.27470022    0.83950232    0.89814002 T T T
    0.30247883    0.86727842    0.81480485 T T T
    0.00000000    0.83333333    0.16666909 T T T
    0.08333333    0.83333333    0.16666909 T T T
    0.16666667    0.83333333    0.16666909 T T T
    0.25000000    0.83333333    0.16666909 T T T
    0.33333333    0.83333333    0.16666909 T T T
    0.41666667    0.83333333    0.16666909 T T T
    0.50000000    0.83333333    0.16666909 T T T
    0.58333333    0.83333333    0.16666909 T T T
    0.66666667    0.83333333    0.16666909 T T T
    0.75000000    0.83333333    0.16666909 T T T
    0.83333333    0.83333333    0.16666909 T T T
    0.91666667    0.83333333    0.16666909 T T T
    0.00000000    0.91666667    0.16666909 T T T
    0.08333333    0.91666667    0.16666909 T T T
    0.16666667    0.91666667    0.16666909 T T T
    0.25000000    0.91666667    0.16666909 T T T
    0.33333333    0.91666667    0.16666909 T T T
    0.41666667    0.91666667    0.16666909 T T T
    0.50000000    0.91666667    0.16666909 T T T
    0.58333333    0.91666667    0.16666909 T T T
    0.66666667    0.91666667    0.16666909 T T T
    0.75000000    0.91666667    0.16666909 T T T
    0.83333333    0.91666667    0.16666909 T T T
    0.91666667    0.91666667    0.16666909 T T T
    0.02777778    0.02777778    0.25000363 T T T
    0.11111111    0.02777778    0.25000363 T T T
    0.19444444    0.02777778    0.25000363 T T T
    0.27777778    0.02777778    0.25000363 T T T
    0.36111111    0.02777778    0.25000363 T T T
    0.44444444    0.02777778    0.25000363 T T T
    0.52777778    0.02777778    0.25000363 T T T
    0.61111111    0.02777778    0.25000363 T T T
    0.69444444    0.02777778    0.25000363 T T T
    0.77777778    0.02777778    0.25000363 T T T
    0.86111111    0.02777778    0.25000363 T T T
    0.94444444    0.02777778    0.25000363 T T T
    0.02777778    0.11111111    0.25000363 T T T
    0.11111111    0.11111111    0.25000363 T T T
    0.19444444    0.11111111    0.25000363 T T T
    0.27777778    0.11111111    0.25000363 T T T
    0.36111111    0.11111111    0.25000363 T T T
    0.44444444    0.11111111    0.25000363 T T T
    0.52777778    0.11111111    0.25000363 T T T
    0.61111111    0.11111111    0.25000363 T T T
    0.69444444    0.11111111    0.25000363 T T T
    0.77777778    0.11111111    0.25000363 T T T
    0.86111111    0.11111111    0.25000363 T T T
    0.94444444    0.11111111    0.25000363 T T T
    0.02777778    0.19444444    0.25000363 T T T
    0.11111111    0.19444444    0.25000363 T T T
    0.19444444    0.19444444    0.25000363 T T T
    0.27777778    0.19444444    0.25000363 T T T
    0.36111111    0.19444444    0.25000363 T T T
    0.44444444    0.19444444    0.25000363 T T T
    0.52777778    0.19444444    0.25000363 T T T
    0.61111111    0.19444444    0.25000363 T T T
    0.69444444    0.19444444    0.25000363 T T T
    0.77777778    0.19444444    0.25000363 T T T
    0.86111111    0.19444444    0.25000363 T T T
    0.94444444    0.19444444    0.25000363 T T T
    0.02777778    0.27777778    0.25000363 T T T
    0.11111111    0.27777778    0.25000363 T T T
    0.19444444    0.27777778    0.25000363 T T T
    0.27777778    0.27777778    0.25000363 T T T
    0.36111111    0.27777778    0.25000363 T T T
    0.44444444    0.27777778    0.25000363 T T T
    0.52777778    0.27777778    0.25000363 T T T
    0.61111111    0.27777778    0.25000363 T T T
    0.69444444    0.27777778    0.25000363 T T T
    0.77777778    0.27777778    0.25000363 T T T
    0.86111111    0.27777778    0.25000363 T T T
    0.94444444    0.27777778    0.25000363 T T T
    0.02777778    0.36111111    0.25000363 T T T
    0.11111111    0.36111111    0.25000363 T T T
    0.19444444    0.36111111    0.25000363 T T T
    0.27777778    0.36111111    0.25000363 T T T
    0.36111111    0.36111111    0.25000363 T T T
    0.44444444    0.36111111    0.25000363 T T T
    0.52777778    0.36111111    0.25000363 T T T
    0.61111111    0.36111111    0.25000363 T T T
    0.69444444    0.36111111    0.25000363 T T T
    0.77777778    0.36111111    0.25000363 T T T
    0.86111111    0.36111111    0.25000363 T T T
    0.94444444    0.36111111    0.25000363 T T T
    0.22530504    0.24383986    0.85186692 T T T
    0.25308366    0.27161596    0.76853175 T T T
    0.28086227    0.29939207    0.68519658 T T T
    0.30864089    0.32716817    0.60186141 T T T
    0.33641950    0.35494428    0.51852624 T T T
    0.36419811    0.38272038    0.43519107 T T T
    0.39197673    0.41049648    0.35185590 T T T
    0.41975534    0.43827259    0.26852073 T T T
    0.50309119    0.52160090    0.01851521 T T T
    0.53086980    0.54937700    0.93518004 T T T
    0.17901014    0.33643217    0.82408770 T T T
    0.20678875    0.36420828    0.74075253 T T T
    0.23456737    0.39198438    0.65741735 T T T
    0.26234598    0.41976049    0.57408218 T T T
    0.29012460    0.44753659    0.49074701 T T T
    0.31790321    0.47531269    0.40741184 T T T
    0.34568183    0.50308880    0.32407667 T T T
    0.37346044    0.53086490    0.24074150 T T T
    0.40123906    0.55864101    0.15740633 T T T
    0.42901767    0.58641711    0.07407116 T T T
    0.45679629    0.61419321    0.99073598 T T T
    0.48457490    0.64196932    0.90740081 T T T
    0.13271524    0.42902449    0.79630847 T T T
    0.16049385    0.45680059    0.71297330 T T T
    0.18827247    0.48457670    0.62963813 T T T
    0.21605108    0.51235280    0.54630296 T T T
    0.24382970    0.54012890    0.46296778 T T T
    0.27160831    0.56790501    0.37963261 T T T
    0.29938693    0.59568111    0.29629744 T T T
    0.32716554    0.62345722    0.21296227 T T T
    0.35494416    0.65123332    0.12962710 T T T
    0.38272277    0.67900942    0.04629193 T T T
    0.41050139    0.70678553    0.96295676 T T T
    0.43828000    0.73456163    0.87962158 T T T
    0.08642034    0.52161680    0.76852924 T T T
    0.11419895    0.54939290    0.68519407 T T T
    0.14197757    0.57716901    0.60185890 T T T
    0.16975618    0.60494511    0.51852373 T T T
    0.19753480    0.63272122    0.43518856 T T T
    0.22531341    0.66049732    0.35185339 T T T
    0.25309203    0.68827342    0.26851821 T T T
    0.28087064    0.71604953    0.18518304 T T T
    0.30864925    0.74382563    0.10184787 T T T
    0.33642787    0.77160174    0.01851270 T T T
    0.36420648    0.79937784    0.93517753 T T T
    0.39198510    0.82715394    0.85184236 T T T
    0.02777778    0.77777778    0.25000363 T T T
    0.19444444    0.77777778    0.25000363 T T T
    0.27777778    0.77777778    0.25000363 T T T
    0.36111111    0.77777778    0.25000363 T T T
    0.44444444    0.77777778    0.25000363 T T T
    0.52777778    0.77777778    0.25000363 T T T
    0.61111111    0.77777778    0.25000363 T T T
    0.69444444    0.77777778    0.25000363 T T T
    0.77777778    0.77777778    0.25000363 T T T
    0.86111111    0.77777778    0.25000363 T T T
    0.94444444    0.77777778    0.25000363 T T T
    0.02777778    0.86111111    0.25000363 T T T
    0.11111111    0.86111111    0.25000363 T T T
    0.19444444    0.86111111    0.25000363 T T T
    0.27777778    0.86111111    0.25000363 T T T
    0.36111111    0.86111111    0.25000363 T T T
    0.44444444    0.86111111    0.25000363 T T T
    0.52777778    0.86111111    0.25000363 T T T
    0.61111111    0.86111111    0.25000363 T T T
    0.69444444    0.86111111    0.25000363 T T T
    0.77777778    0.86111111    0.25000363 T T T
    0.86111111    0.86111111    0.25000363 T T T
    0.94444444    0.86111111    0.25000363 T T T
    0.02777778    0.94444444    0.25000363 T T T
    0.11111111    0.94444444    0.25000363 T T T
    0.19444444    0.94444444    0.25000363 T T T
    0.27777778    0.94444444    0.25000363 T T T
    0.36111111    0.94444444    0.25000363 T T T
    0.44444444    0.94444444    0.25000363 T T T
    0.52777778    0.94444444    0.25000363 T T T
    0.61111111    0.94444444    0.25000363 T T T
    0.69444444    0.94444444    0.25000363 T T T
    0.77777778    0.94444444    0.25000363 T T T
    0.86111111    0.94444444    0.25000363 T T T
    0.94444444    0.94444444    0.25000363 T T T
    0.97222222    0.05555556    0.33333817 T T T
    0.05555556    0.05555556    0.33333817 T T T
    0.13888889    0.05555556    0.33333817 T T T
    0.22222222    0.05555556    0.33333817 T T T
    0.30555556    0.05555556    0.33333817 T T T
    0.38888889    0.05555556    0.33333817 T T T
    0.47222222    0.05555556    0.33333817 T T T
    0.55555556    0.05555556    0.33333817 T T T
    0.63888889    0.05555556    0.33333817 T T T
    0.72222222    0.05555556    0.33333817 T T T
    0.80555556    0.05555556    0.33333817 T T T
    0.88888889    0.05555556    0.33333817 T T T
    0.97222222    0.13888889    0.33333817 T T T
    0.05555556    0.13888889    0.33333817 T T T
    0.13888889    0.13888889    0.33333817 T T T
    0.22222222    0.13888889    0.33333817 T T T
    0.30555556    0.13888889    0.33333817 T T T
    0.38888889    0.13888889    0.33333817 T T T
    0.47222222    0.13888889    0.33333817 T T T
    0.55555556    0.13888889    0.33333817 T T T
    0.63888889    0.13888889    0.33333817 T T T
    0.72222222    0.13888889    0.33333817 T T T
    0.80555556    0.13888889    0.33333817 T T T
    0.88888889    0.13888889    0.33333817 T T T
    0.97222222    0.22222222    0.33333817 T T T
    0.05555556    0.22222222    0.33333817 T T T
    0.13888889    0.22222222    0.33333817 T T T
    0.22222222    0.22222222    0.33333817 T T T
    0.30555556    0.22222222    0.33333817 T T T
    0.38888889    0.22222222    0.33333817 T T T
    0.47222222    0.22222222    0.33333817 T T T
    0.55555556    0.22222222    0.33333817 T T T
    0.63888889    0.22222222    0.33333817 T T T
    0.72222222    0.22222222    0.33333817 T T T
    0.80555556    0.22222222    0.33333817 T T T
    0.88888889    0.22222222    0.33333817 T T T
    0.97222222    0.30555556    0.33333817 T T T
    0.05555556    0.30555556    0.33333817 T T T
    0.13888889    0.30555556    0.33333817 T T T
    0.22222222    0.30555556    0.33333817 T T T
    0.30555556    0.30555556    0.33333817 T T T
    0.38888889    0.30555556    0.33333817 T T T
    0.47222222    0.30555556    0.33333817 T T T
    0.55555556    0.30555556    0.33333817 T T T
    0.63888889    0.30555556    0.33333817 T T T
    0.72222222    0.30555556    0.33333817 T T T
    0.80555556    0.30555556    0.33333817 T T T
    0.88888889    0.30555556    0.33333817 T T T
    0.97222222    0.38888889    0.33333817 T T T
    0.05555556    0.38888889    0.33333817 T T T
    0.22222222    0.38888889    0.33333817 T T T
    0.30555556    0.38888889    0.33333817 T T T
    0.47222222    0.38888889    0.33333817 T T T
    0.55555556    0.38888889    0.33333817 T T T
    0.63888889    0.38888889    0.33333817 T T T
    0.72222222    0.38888889    0.33333817 T T T
    0.80555556    0.38888889    0.33333817 T T T
    0.88888889    0.38888889    0.33333817 T T T
    0.24073779    0.26853159    0.94446037 F F F
    0.26851641    0.29630769    0.86112520 T T T
    0.29629502    0.32408380    0.77779003 T T T
    0.32407364    0.35185990    0.69445486 T T T
    0.35185225    0.37963601    0.61111969 T T T
    0.37963086    0.40741211    0.52778452 T T T
    0.40740948    0.43518821    0.44444935 T T T
    0.43518809    0.46296432    0.36111417 T T T
    0.46296671    0.49074042    0.27777900 T T T
    0.49074532    0.51851653    0.19444383 T T T
    0.51852394    0.54629263    0.11110866 T T T
    0.54630255    0.57406873    0.02777349 T T T
    0.19444289    0.36112390    0.91668115 T T T
    0.22222150    0.38890001    0.83334598 T T T
    0.25000012    0.41667611    0.75001080 T T T
    0.27777873    0.44445222    0.66667563 T T T
    0.30555735    0.47222832    0.58334046 T T T
    0.33333596    0.50000442    0.50000529 T T T
    0.36111458    0.52778053    0.41667012 T T T
    0.38889319    0.55555663    0.33333495 T T T
    0.41667181    0.58333274    0.24999978 T T T
    0.44445042    0.61110884    0.16666460 T T T
    0.47222904    0.63888494    0.08332943 T T T
    0.50000765    0.66666105    0.99999426 T T T
    0.14814799    0.45371622    0.88890192 T T T
    0.17592660    0.48149232    0.80556675 T T T
    0.20370522    0.50926843    0.72223158 T T T
    0.23148383    0.53704453    0.63889641 T T T
    0.25926245    0.56482063    0.55556123 T T T
    0.28704106    0.59259674    0.47222606 T T T
    0.31481968    0.62037284    0.38889089 T T T
    0.34259829    0.64814894    0.30555572 T T T
    0.37037691    0.67592505    0.22222055 T T T
    0.39815552    0.70370115    0.13888538 T T T
    0.42593414    0.73147726    0.05555021 T T T
    0.45371275    0.75925336    0.97221503 T T T
    0.97222222    0.72222222    0.33333817 T T T
    0.05555556    0.72222222    0.33333817 T T T
    0.22222222    0.72222222    0.33333817 T T T
    0.30555556    0.72222222    0.33333817 T T T
    0.38888889    0.72222222    0.33333817 T T T
    0.47222222    0.72222222    0.33333817 T T T
    0.55555556    0.72222222    0.33333817 T T T
    0.63888889    0.72222222    0.33333817 T T T
    0.72222222    0.72222222    0.33333817 T T T
    0.80555556    0.72222222    0.33333817 T T T
    0.88888889    0.72222222    0.33333817 T T T
    0.97222222    0.80555556    0.33333817 T T T
    0.05555556    0.80555556    0.33333817 T T T
    0.13888889    0.80555556    0.33333817 T T T
    0.22222222    0.80555556    0.33333817 T T T
    0.30555556    0.80555556    0.33333817 T T T
    0.38888889    0.80555556    0.33333817 T T T
    0.47222222    0.80555556    0.33333817 T T T
    0.55555556    0.80555556    0.33333817 T T T
    0.63888889    0.80555556    0.33333817 T T T
    0.72222222    0.80555556    0.33333817 T T T
    0.80555556    0.80555556    0.33333817 T T T
    0.88888889    0.80555556    0.33333817 T T T
    0.97222222    0.88888889    0.33333817 T T T
    0.05555556    0.88888889    0.33333817 T T T
    0.13888889    0.88888889    0.33333817 T T T
    0.22222222    0.88888889    0.33333817 T T T
    0.30555556    0.88888889    0.33333817 T T T
    0.38888889    0.88888889    0.33333817 T T T
    0.47222222    0.88888889    0.33333817 T T T
    0.55555556    0.88888889    0.33333817 T T T
    0.63888889    0.88888889    0.33333817 T T T
    0.72222222    0.88888889    0.33333817 T T T
    0.80555556    0.88888889    0.33333817 T T T
    0.88888889    0.88888889    0.33333817 T T T
    0.97222222    0.97222222    0.33333817 T T T
    0.05555556    0.97222222    0.33333817 T T T
    0.13888889    0.97222222    0.33333817 T T T
    0.22222222    0.97222222    0.33333817 T T T
    0.30555556    0.97222222    0.33333817 T T T
    0.38888889    0.97222222    0.33333817 T T T
    0.47222222    0.97222222    0.33333817 T T T
    0.55555556    0.97222222    0.33333817 T T T
    0.63888889    0.97222222    0.33333817 T T T
    0.72222222    0.97222222    0.33333817 T T T
    0.80555556    0.97222222    0.33333817 T T T
    0.88888889    0.97222222    0.33333817 T T T
    1.00000000    0.66666667    0.41667272 T T T
    1.00000000    0.75000000    0.41667272 T T T
    1.00000000    0.83333333    0.41667272 T T T
    1.00000000    0.91666667    0.41667272 T T T
    1.00000000    1.00000000    0.41667272 T T T
    1.00000000    0.08333333    0.41667272 T T T
    1.00000000    0.16666667    0.41667272 T T T
    1.00000000    0.25000000    0.41667272 T T T
    1.00000000    0.33333333    0.41667272 T T T
    1.00000000    0.41666667    0.41667272 T T T
    0.91666667    0.58333333    0.41667272 T T T
    0.91666667    0.75000000    0.41667272 T T T
    0.91666667    0.83333333    0.41667272 T T T
    0.91666667    0.91666667    0.41667272 T T T
    0.91666667    1.00000000    0.41667272 T T T
    0.91666667    0.08333333    0.41667272 T T T
    0.91666667    0.16666667    0.41667272 T T T
    0.91666667    0.25000000    0.41667272 T T T
    0.91666667    0.33333333    0.41667272 T T T
    0.91666667    0.41666667    0.41667272 T T T
    0.91666667    0.50000000    0.41667272 T T T
    0.83333333    0.66666667    0.41667272 T T T
    0.83333333    0.75000000    0.41667272 T T T
    0.83333333    0.83333333    0.41667272 T T T
    0.83333333    0.91666667    0.41667272 T T T
    0.83333333    1.00000000    0.41667272 T T T
    0.83333333    0.08333333    0.41667272 T T T
    0.83333333    0.16666667    0.41667272 T T T
    0.83333333    0.25000000    0.41667272 T T T
    0.83333333    0.33333333    0.41667272 T T T
    0.83333333    0.41666667    0.41667272 T T T
    0.83333333    0.50000000    0.41667272 T T T
    0.83333333    0.58333333    0.41667272 T T T
    0.75000000    0.75000000    0.41667272 T T T
    0.75000000    0.83333333    0.41667272 T T T
    0.75000000    0.91666667    0.41667272 T T T
    0.75000000    1.00000000    0.41667272 T T T
    0.75000000    0.08333333    0.41667272 T T T
    0.75000000    0.16666667    0.41667272 T T T
    0.75000000    0.25000000    0.41667272 T T T
    0.75000000    0.33333333    0.41667272 T T T
    0.75000000    0.41666667    0.41667272 T T T
    0.75000000    0.50000000    0.41667272 T T T
    0.75000000    0.58333333    0.41667272 T T T
    0.75000000    0.66666667    0.41667272 T T T
    0.66666667    0.83333333    0.41667272 T T T
    0.66666667    0.91666667    0.41667272 T T T
    0.66666667    1.00000000    0.41667272 T T T
    0.66666667    0.08333333    0.41667272 T T T
    0.66666667    0.16666667    0.41667272 T T T
    0.66666667    0.25000000    0.41667272 T T T
    0.66666667    0.33333333    0.41667272 T T T
    0.66666667    0.41666667    0.41667272 T T T
    0.66666667    0.50000000    0.41667272 T T T
    0.66666667    0.58333333    0.41667272 T T T
    0.66666667    0.66666667    0.41667272 T T T
    0.66666667    0.75000000    0.41667272 T T T
    0.80246377    0.86728596    0.56482704 T T T
    0.75616887    0.95987827    0.53704782 T T T
    0.70987397    0.05247058    0.50926859 T T T
    0.61728416    0.23765521    0.45371013 T T T
    0.57098926    0.33024752    0.42593091 T T T
    0.52469436    0.42283984    0.39815168 T T T
    0.47839946    0.51543215    0.37037245 T T T
    0.43210456    0.60802447    0.34259322 T T T
    0.72839025    0.93210217    0.62038299 T T T
    0.68209535    0.02469448    0.59260376 T T T
    0.63580045    0.11728679    0.56482453 T T T
    0.58950555    0.20987911    0.53704531 T T T
    0.54321065    0.30247142    0.50926608 T T T
    0.49691575    0.39506373    0.48148685 T T T
    0.45062084    0.48765605    0.45370762 T T T
    0.40432594    0.58024836    0.42592840 T T T
    0.35803104    0.67284067    0.39814917 T T T
    0.65431674    0.99691838    0.67593893 T T T
    0.60802183    0.08951069    0.64815970 T T T
    0.56172693    0.18210300    0.62038048 T T T
    0.51543203    0.27469532    0.59260125 T T T
    0.46913713    0.36728763    0.56482202 T T T
    0.42284223    0.45987994    0.53704280 T T T
    0.37654733    0.55247226    0.50926357 T T T
    0.33025243    0.64506457    0.48148434 T T T
    0.28395752    0.73765688    0.45370511 T T T
    0.23766262    0.83024920    0.42592589 T T T
    0.19136772    0.92284151    0.39814666 T T T
    0.58024322    0.06173459    0.73149488 T T T
    0.53394832    0.15432690    0.70371565 T T T
    0.48765342    0.24691921    0.67593642 T T T
    0.44135852    0.33951153    0.64815719 T T T
    0.39506361    0.43210384    0.62037797 T T T
    0.34876871    0.52469615    0.59259874 T T T
    0.30247381    0.61728847    0.56481951 T T T
    0.25617891    0.70988078    0.53704028 T T T
    0.20988401    0.80247309    0.50926106 T T T
    0.16358911    0.89506541    0.48148183 T T T
    0.11729421    0.98765772    0.45370260 T T T
    0.07099930    0.08025004    0.42592337 T T T
    0.25000000    0.25000000    0.41667272 T T T
    0.25000000    0.33333333    0.41667272 T T T
    0.25000000    0.66666667    0.41667272 T T T
    0.25000000    1.00000000    0.41667272 T T T
    0.25000000    0.08333333    0.41667272 T T T
    0.25000000    0.16666667    0.41667272 T T T
    0.16666667    0.75000000    0.41667272 T T T
    0.16666667    0.83333333    0.41667272 T T T
    0.16666667    0.00000000    0.41667272 T T T
    0.16666667    0.08333333    0.41667272 T T T
    0.16666667    0.16666667    0.41667272 T T T
    0.16666667    0.25000000    0.41667272 T T T
    0.08333333    0.75000000    0.41667272 T T T
    0.08333333    0.83333333    0.41667272 T T T
    0.08333333    0.91666667    0.41667272 T T T
    0.08333333    0.16666667    0.41667272 T T T
    0.08333333    0.25000000    0.41667272 T T T
    0.08333333    0.33333333    0.41667272 T T T
    0.97222222    0.63888889    0.50000726 T T T
    0.97222222    0.72222222    0.50000726 T T T
    0.97222222    0.80555556    0.50000726 T T T
    0.97222222    0.88888889    0.50000726 T T T
    0.97222222    0.97222222    0.50000726 T T T
    0.97222222    0.05555556    0.50000726 T T T
    0.97222222    0.13888889    0.50000726 T T T
    0.97222222    0.22222222    0.50000726 T T T
    0.97222222    0.30555556    0.50000726 T T T
    0.97222222    0.38888889    0.50000726 T T T
    0.88888889    0.72222222    0.50000726 T T T
    0.88888889    0.80555556    0.50000726 T T T
    0.88888889    0.88888889    0.50000726 T T T
    0.88888889    0.97222222    0.50000726 T T T
    0.88888889    0.05555556    0.50000726 T T T
    0.88888889    0.13888889    0.50000726 T T T
    0.88888889    0.22222222    0.50000726 T T T
    0.88888889    0.30555556    0.50000726 T T T
    0.88888889    0.38888889    0.50000726 T T T
    0.88888889    0.47222222    0.50000726 T T T
    0.88888889    0.55555556    0.50000726 T T T
    0.80555556    0.72222222    0.50000726 T T T
    0.80555556    0.80555556    0.50000726 T T T
    0.80555556    0.97222222    0.50000726 T T T
    0.80555556    0.05555556    0.50000726 T T T
    0.80555556    0.13888889    0.50000726 T T T
    0.80555556    0.22222222    0.50000726 T T T
    0.80555556    0.30555556    0.50000726 T T T
    0.80555556    0.38888889    0.50000726 T T T
    0.80555556    0.47222222    0.50000726 T T T
    0.80555556    0.55555556    0.50000726 T T T
    0.80555556    0.63888889    0.50000726 T T T
    0.72222222    0.80555556    0.50000726 T T T
    0.72222222    0.88888889    0.50000726 T T T
    0.72222222    0.13888889    0.50000726 T T T
    0.72222222    0.22222222    0.50000726 T T T
    0.72222222    0.30555556    0.50000726 T T T
    0.72222222    0.38888889    0.50000726 T T T
    0.72222222    0.47222222    0.50000726 T T T
    0.72222222    0.55555556    0.50000726 T T T
    0.72222222    0.63888889    0.50000726 T T T
    0.72222222    0.72222222    0.50000726 T T T
    0.56173363    0.51543048    0.37037182 T T T
    0.51543873    0.60802279    0.34259260 T T T
    0.81172442    0.93210049    0.62038236 T T T
    0.76542952    0.02469281    0.59260313 T T T
    0.67283972    0.20987743    0.53704468 T T T
    0.62654482    0.30246975    0.50926545 T T T
    0.58024992    0.39506206    0.48148622 T T T
    0.53395501    0.48765437    0.45370700 T T T
    0.48766011    0.58024669    0.42592777 T T T
    0.44136521    0.67283900    0.39814854 T T T
    0.73765091    0.99691670    0.67593830 T T T
    0.69135600    0.08950902    0.64815908 T T T
    0.64506110    0.18210133    0.62037985 T T T
    0.59876620    0.27469364    0.59260062 T T T
    0.55247130    0.36728596    0.56482139 T T T
    0.50617640    0.45987827    0.53704217 T T T
    0.45988150    0.55247058    0.50926294 T T T
    0.41358660    0.64506290    0.48148371 T T T
    0.36729169    0.73765521    0.45370449 T T T
    0.32099679    0.83024752    0.42592526 T T T
    0.27470189    0.92283984    0.39814603 T T T
    0.66357739    0.06173291    0.73149425 T T T
    0.61728249    0.15432523    0.70371502 T T T
    0.57098759    0.24691754    0.67593579 T T T
    0.52469269    0.33950985    0.64815657 T T T
    0.47839778    0.43210217    0.62037734 T T T
    0.43210288    0.52469448    0.59259811 T T T
    0.38580798    0.61728679    0.56481888 T T T
    0.33951308    0.70987911    0.53703966 T T T
    0.29321818    0.80247142    0.50926043 T T T
    0.24692328    0.89506373    0.48148120 T T T
    0.30555556    0.22222222    0.50000726 T T T
    0.30555556    0.30555556    0.50000726 T T T
    0.30555556    0.97222222    0.50000726 T T T
    0.30555556    0.05555556    0.50000726 T T T
    0.30555556    0.13888889    0.50000726 T T T
    0.22222222    0.30555556    0.50000726 T T T
    0.22222222    0.63888889    0.50000726 T T T
    0.22222222    0.97222222    0.50000726 T T T
    0.22222222    0.05555556    0.50000726 T T T
    0.22222222    0.13888889    0.50000726 T T T
    0.22222222    0.22222222    0.50000726 T T T
    0.13888889    0.72222222    0.50000726 T T T
    0.13888889    0.80555556    0.50000726 T T T
    0.13888889    0.05555556    0.50000726 T T T
    0.13888889    0.13888889    0.50000726 T T T
    0.13888889    0.22222222    0.50000726 T T T
    0.05555556    0.72222222    0.50000726 T T T
    0.05555556    0.80555556    0.50000726 T T T
    0.05555556    0.88888889    0.50000726 T T T
    0.05555556    0.97222222    0.50000726 T T T
    0.05555556    0.05555556    0.50000726 T T T
    0.05555556    0.13888889    0.50000726 T T T
    0.05555556    0.22222222    0.50000726 T T T
    0.05555556    0.30555556    0.50000726 T T T
    0.94444444    0.61111111    0.58334181 T T T
    0.94444444    0.69444444    0.58334181 T T T
    0.94444444    0.77777778    0.58334181 T T T
    0.94444444    0.86111111    0.58334181 T T T
    0.94444444    0.94444444    0.58334181 T T T
    0.94444444    0.02777778    0.58334181 T T T
    0.94444444    0.11111111    0.58334181 T T T
    0.94444444    0.19444444    0.58334181 T T T
    0.94444444    0.27777778    0.58334181 T T T
    0.94444444    0.36111111    0.58334181 T T T
    0.86111111    0.69444444    0.58334181 T T T
    0.86111111    0.77777778    0.58334181 T T T
    0.86111111    0.94444444    0.58334181 T T T
    0.86111111    0.02777778    0.58334181 T T T
    0.86111111    0.11111111    0.58334181 T T T
    0.86111111    0.19444444    0.58334181 T T T
    0.86111111    0.27777778    0.58334181 T T T
    0.86111111    0.36111111    0.58334181 T T T
    0.86111111    0.44444444    0.58334181 T T T
    0.86111111    0.52777778    0.58334181 T T T
    0.77777778    0.69444444    0.58334181 T T T
    0.77777778    0.77777778    0.58334181 T T T
    0.77777778    0.11111111    0.58334181 T T T
    0.77777778    0.19444444    0.58334181 T T T
    0.77777778    0.27777778    0.58334181 T T T
    0.77777778    0.36111111    0.58334181 T T T
    0.77777778    0.44444444    0.58334181 T T T
    0.77777778    0.52777778    0.58334181 T T T
    0.77777778    0.61111111    0.58334181 T T T
    0.69444444    0.77777778    0.58334181 T T T
    0.69444444    0.86111111    0.58334181 T T T
    0.69444444    0.27777778    0.58334181 T T T
    0.69444444    0.36111111    0.58334181 T T T
    0.69444444    0.44444444    0.58334181 T T T
    0.69444444    0.52777778    0.58334181 T T T
    0.69444444    0.61111111    0.58334181 T T T
    0.69444444    0.69444444    0.58334181 T T T
    0.61728918    0.48765270    0.45370637 T T T
    0.57099428    0.58024501    0.42592714 T T T
    0.52469938    0.67283733    0.39814791 T T T
    0.86727998    0.90432271    0.70371690 T T T
    0.82098508    0.99691503    0.67593768 T T T
    0.72839527    0.18209966    0.62037922 T T T
    0.58951057    0.45987660    0.53704154 T T T
    0.54321567    0.55246891    0.50926231 T T T
    0.49692077    0.64506122    0.48148309 T T T
    0.45062587    0.73765354    0.45370386 T T T
    0.40433096    0.83024585    0.42592463 T T T
    0.35803606    0.92283816    0.39814540 T T T
    0.79320646    0.96913892    0.75927285 T T T
    0.74691156    0.06173124    0.73149362 T T T
    0.70061666    0.15432355    0.70371439 T T T
    0.65432176    0.24691586    0.67593517 T T T
    0.60802686    0.33950818    0.64815594 T T T
    0.56173195    0.43210049    0.62037671 T T T
    0.51543705    0.52469281    0.59259748 T T T
    0.46914215    0.61728512    0.56481826 T T T
    0.42284725    0.70987743    0.53703903 T T T
    0.37655235    0.80246975    0.50925980 T T T
    0.33025745    0.89506206    0.48148057 T T T
    0.36111111    0.11111111    0.58334181 T T T
    0.36111111    0.19444444    0.58334181 T T T
    0.36111111    0.77777778    0.58334181 T T T
    0.36111111    0.86111111    0.58334181 T T T
    0.36111111    0.94444444    0.58334181 T T T
    0.36111111    0.02777778    0.58334181 T T T
    0.27777778    0.19444444    0.58334181 T T T
    0.27777778    0.27777778    0.58334181 T T T
    0.27777778    0.77777778    0.58334181 T T T
    0.27777778    0.86111111    0.58334181 T T T
    0.27777778    0.94444444    0.58334181 T T T
    0.27777778    0.02777778    0.58334181 T T T
    0.27777778    0.11111111    0.58334181 T T T
    0.19444444    0.27777778    0.58334181 T T T
    0.19444444    0.61111111    0.58334181 T T T
    0.19444444    0.69444444    0.58334181 T T T
    0.19444444    0.77777778    0.58334181 T T T
    0.19444444    0.86111111    0.58334181 T T T
    0.19444444    0.94444444    0.58334181 T T T
    0.19444444    0.02777778    0.58334181 T T T
    0.19444444    0.11111111    0.58334181 T T T
    0.19444444    0.19444444    0.58334181 T T T
    0.11111111    0.69444444    0.58334181 T T T
    0.11111111    0.77777778    0.58334181 T T T
    0.11111111    0.86111111    0.58334181 T T T
    0.11111111    0.94444444    0.58334181 T T T
    0.11111111    0.02777778    0.58334181 T T T
    0.11111111    0.11111111    0.58334181 T T T
    0.11111111    0.19444444    0.58334181 T T T
    0.02777778    0.69444444    0.58334181 T T T
    0.02777778    0.77777778    0.58334181 T T T
    0.02777778    0.86111111    0.58334181 T T T
    0.02777778    0.94444444    0.58334181 T T T
    0.02777778    0.02777778    0.58334181 T T T
    0.02777778    0.11111111    0.58334181 T T T
    0.02777778    0.19444444    0.58334181 T T T
    0.02777778    0.27777778    0.58334181 T T T
    0.00000000    0.00000000    0.66667635 T T T
    0.08333333    0.00000000    0.66667635 T T T
    0.16666667    0.00000000    0.66667635 T T T
    0.25000000    0.00000000    0.66667635 T T T
    0.33333333    0.00000000    0.66667635 T T T
    0.41666667    0.00000000    0.66667635 T T T
    0.50000000    0.00000000    0.66667635 T T T
    0.58333333    0.00000000    0.66667635 T T T
    0.91666667    0.00000000    0.66667635 T T T
    0.00000000    0.08333333    0.66667635 T T T
    0.08333333    0.08333333    0.66667635 T T T
    0.16666667    0.08333333    0.66667635 T T T
    0.25000000    0.08333333    0.66667635 T T T
    0.33333333    0.08333333    0.66667635 T T T
    0.41666667    0.08333333    0.66667635 T T T
    0.50000000    0.08333333    0.66667635 T T T
    0.83333333    0.08333333    0.66667635 T T T
    0.91666667    0.08333333    0.66667635 T T T
    0.00000000    0.16666667    0.66667635 T T T
    0.08333333    0.16666667    0.66667635 T T T
    0.16666667    0.16666667    0.66667635 T T T
    0.25000000    0.16666667    0.66667635 T T T
    0.33333333    0.16666667    0.66667635 T T T
    0.41666667    0.16666667    0.66667635 T T T
    0.83333333    0.16666667    0.66667635 T T T
    0.91666667    0.16666667    0.66667635 T T T
    0.00000000    0.25000000    0.66667635 T T T
    0.16666667    0.25000000    0.66667635 T T T
    0.25000000    0.25000000    0.66667635 T T T
    0.41666667    0.25000000    0.66667635 T T T
    0.75000000    0.25000000    0.66667635 T T T
    0.83333333    0.25000000    0.66667635 T T T
    0.91666667    0.25000000    0.66667635 T T T
    0.60802518    0.25617819    0.89816083 T T T
    0.63580380    0.28395430    0.81482565 T T T
    0.66358241    0.31173040    0.73149048 T T T
    0.80247549    0.45061092    0.31481463 T T T
    0.83025410    0.47838702    0.23147945 T T T
    0.56173028    0.34877051    0.87038160 T T T
    0.58950890    0.37654661    0.78704643 T T T
    0.61728751    0.40432271    0.70371125 T T T
    0.64506612    0.43209882    0.62037608 T T T
    0.75618058    0.54320323    0.28703540 T T T
    0.78395920    0.57097934    0.20370023 T T T
    0.48765676    0.41358672    0.92593754 F F F
    0.51543538    0.44136282    0.84260237 T T T
    0.54321399    0.46913892    0.75926720 T T T
    0.57099261    0.49691503    0.67593203 T T T
    0.59877122    0.52469113    0.59259686 T T T
    0.62654984    0.55246724    0.50926168 T T T
    0.68210707    0.60801944    0.34259134 T T T
    0.70988568    0.63579555    0.25925617 T T T
    0.73766430    0.66357165    0.17592100 T T T
    0.44136186    0.50617903    0.89815831 T T T
    0.46914048    0.53395513    0.81482314 T T T
    0.49691909    0.56173124    0.73148797 T T T
    0.52469771    0.58950734    0.64815280 T T T
    0.55247632    0.61728345    0.56481763 T T T
    0.58025494    0.64505955    0.48148246 T T T
    0.69136940    0.75616397    0.14814177 T T T
    0.00000000    0.66666667    0.66667635 T T T
    0.08333333    0.66666667    0.66667635 T T T
    0.16666667    0.66666667    0.66667635 T T T
    0.25000000    0.66666667    0.66667635 T T T
    0.33333333    0.66666667    0.66667635 T T T
    0.41666667    0.66666667    0.66667635 T T T
    0.50000000    0.66666667    0.66667635 T T T
    0.58333333    0.66666667    0.66667635 T T T
    0.66666667    0.66666667    0.66667635 T T T
    0.75000000    0.66666667    0.66667635 T T T
    0.83333333    0.66666667    0.66667635 T T T
    0.91666667    0.66666667    0.66667635 T T T
    0.00000000    0.75000000    0.66667635 T T T
    0.08333333    0.75000000    0.66667635 T T T
    0.16666667    0.75000000    0.66667635 T T T
    0.33333333    0.75000000    0.66667635 T T T
    0.41666667    0.75000000    0.66667635 T T T
    0.50000000    0.75000000    0.66667635 T T T
    0.58333333    0.75000000    0.66667635 T T T
    0.66666667    0.75000000    0.66667635 T T T
    0.75000000    0.75000000    0.66667635 T T T
    0.83333333    0.75000000    0.66667635 T T T
    0.91666667    0.75000000    0.66667635 T T T
    0.00000000    0.83333333    0.66667635 T T T
    0.08333333    0.83333333    0.66667635 T T T
    0.16666667    0.83333333    0.66667635 T T T
    0.33333333    0.83333333    0.66667635 T T T
    0.41666667    0.83333333    0.66667635 T T T
    0.50000000    0.83333333    0.66667635 T T T
    0.58333333    0.83333333    0.66667635 T T T
    0.66666667    0.83333333    0.66667635 T T T
    0.75000000    0.83333333    0.66667635 T T T
    0.83333333    0.83333333    0.66667635 T T T
    0.91666667    0.83333333    0.66667635 T T T
    0.00000000    0.91666667    0.66667635 T T T
    0.08333333    0.91666667    0.66667635 T T T
    0.25000000    0.91666667    0.66667635 T T T
    0.33333333    0.91666667    0.66667635 T T T
    0.41666667    0.91666667    0.66667635 T T T
    0.50000000    0.91666667    0.66667635 T T T
    0.58333333    0.91666667    0.66667635 T T T
    0.66666667    0.91666667    0.66667635 T T T
    0.91666667    0.91666667    0.66667635 T T T
    0.02777778    0.02777778    0.75001089 T T T
    0.11111111    0.02777778    0.75001089 T T T
    0.19444444    0.02777778    0.75001089 T T T
    0.27777778    0.02777778    0.75001089 T T T
    0.36111111    0.02777778    0.75001089 T T T
    0.44444444    0.02777778    0.75001089 T T T
    0.52777778    0.02777778    0.75001089 T T T
    0.86111111    0.02777778    0.75001089 T T T
    0.94444444    0.02777778    0.75001089 T T T
    0.02777778    0.11111111    0.75001089 T T T
    0.11111111    0.11111111    0.75001089 T T T
    0.19444444    0.11111111    0.75001089 T T T
    0.27777778    0.11111111    0.75001089 T T T
    0.36111111    0.11111111    0.75001089 T T T
    0.44444444    0.11111111    0.75001089 T T T
    0.77777778    0.11111111    0.75001089 T T T
    0.86111111    0.11111111    0.75001089 T T T
    0.94444444    0.11111111    0.75001089 T T T
    0.02777778    0.19444444    0.75001089 T T T
    0.11111111    0.19444444    0.75001089 T T T
    0.19444444    0.19444444    0.75001089 T T T
    0.27777778    0.19444444    0.75001089 T T T
    0.36111111    0.19444444    0.75001089 T T T
    0.44444444    0.19444444    0.75001089 T T T
    0.77777778    0.19444444    0.75001089 T T T
    0.86111111    0.19444444    0.75001089 T T T
    0.94444444    0.19444444    0.75001089 T T T
    0.72531006    0.24382982    0.85186316 T T T
    0.75308868    0.27160592    0.76852799 T T T
    0.91976037    0.43826254    0.26851696 T T T
    0.65123655    0.30864603    0.90741910 T T T
    0.67901516    0.33642213    0.82408393 T T T
    0.70679378    0.36419823    0.74074876 T T T
    0.73457239    0.39197434    0.65741359 T T T
    0.84568685    0.50307875    0.32407290 T T T
    0.87346546    0.53085486    0.24073773 T T T
    0.60494165    0.40123834    0.87963988 T T T
    0.63272026    0.42901444    0.79630470 T T T
    0.66049887    0.45679055    0.71296953 T T T
    0.79939195    0.59567107    0.29629368 T T T
    0.82717056    0.62344717    0.21295850 T T T
    0.55864674    0.49383065    0.85186065 T T T
    0.58642536    0.52160676    0.76852548 T T T
    0.61420397    0.54938286    0.68519031 T T T
    0.72531843    0.66048728    0.35184962 T T T
    0.75309705    0.68826338    0.26851445 T T T
    0.78087566    0.71603949    0.18517928 T T T
    0.02777778    0.61111111    0.75001089 T T T
    0.11111111    0.61111111    0.75001089 T T T
    0.19444444    0.61111111    0.75001089 T T T
    0.52777778    0.61111111    0.75001089 T T T
    0.61111111    0.61111111    0.75001089 T T T
    0.69444444    0.61111111    0.75001089 T T T
    0.77777778    0.61111111    0.75001089 T T T
    0.86111111    0.61111111    0.75001089 T T T
    0.02777778    0.69444444    0.75001089 T T T
    0.11111111    0.69444444    0.75001089 T T T
    0.19444444    0.69444444    0.75001089 T T T
    0.36111111    0.69444444    0.75001089 T T T
    0.44444444    0.69444444    0.75001089 T T T
    0.52777778    0.69444444    0.75001089 T T T
    0.61111111    0.69444444    0.75001089 T T T
    0.69444444    0.69444444    0.75001089 T T T
    0.77777778    0.69444444    0.75001089 T T T
    0.86111111    0.69444444    0.75001089 T T T
    0.94444444    0.69444444    0.75001089 T T T
    0.02777778    0.77777778    0.75001089 T T T
    0.11111111    0.77777778    0.75001089 T T T
    0.36111111    0.77777778    0.75001089 T T T
    0.44444444    0.77777778    0.75001089 T T T
    0.52777778    0.77777778    0.75001089 T T T
    0.61111111    0.77777778    0.75001089 T T T
    0.69444444    0.77777778    0.75001089 T T T
    0.77777778    0.77777778    0.75001089 T T T
    0.86111111    0.77777778    0.75001089 T T T
    0.94444444    0.77777778    0.75001089 T T T
    0.02777778    0.86111111    0.75001089 T T T
    0.27777778    0.86111111    0.75001089 T T T
    0.36111111    0.86111111    0.75001089 T T T
    0.44444444    0.86111111    0.75001089 T T T
    0.52777778    0.86111111    0.75001089 T T T
    0.61111111    0.86111111    0.75001089 T T T
    0.69444444    0.86111111    0.75001089 T T T
    0.77777778    0.86111111    0.75001089 T T T
    0.86111111    0.86111111    0.75001089 T T T
    0.94444444    0.86111111    0.75001089 T T T
    0.02777778    0.94444444    0.75001089 T T T
    0.11111111    0.94444444    0.75001089 T T T
    0.19444444    0.94444444    0.75001089 T T T
    0.27777778    0.94444444    0.75001089 T T T
    0.36111111    0.94444444    0.75001089 T T T
    0.44444444    0.94444444    0.75001089 T T T
    0.52777778    0.94444444    0.75001089 T T T
    0.61111111    0.94444444    0.75001089 T T T
    0.69444444    0.94444444    0.75001089 T T T
    0.94444444    0.94444444    0.75001089 T T T
    0.97222222    0.05555556    0.83334544 T T T
    0.05555556    0.05555556    0.83334544 T T T
    0.13888889    0.05555556    0.83334544 T T T
    0.22222222    0.05555556    0.83334544 T T T
    0.30555556    0.05555556    0.83334544 T T T
    0.38888889    0.05555556    0.83334544 T T T
    0.47222222    0.05555556    0.83334544 T T T
    0.55555556    0.05555556    0.83334544 T T T
    0.63888889    0.05555556    0.83334544 T T T
    0.72222222    0.05555556    0.83334544 T T T
    0.80555556    0.05555556    0.83334544 T T T
    0.88888889    0.05555556    0.83334544 T T T
    0.97222222    0.13888889    0.83334544 T T T
    0.05555556    0.13888889    0.83334544 T T T
    0.13888889    0.13888889    0.83334544 T T T
    0.22222222    0.13888889    0.83334544 T T T
    0.30555556    0.13888889    0.83334544 T T T
    0.38888889    0.13888889    0.83334544 T T T
    0.47222222    0.13888889    0.83334544 T T T
    0.55555556    0.13888889    0.83334544 T T T
    0.63888889    0.13888889    0.83334544 T T T
    0.72222222    0.13888889    0.83334544 T T T
    0.80555556    0.13888889    0.83334544 T T T
    0.88888889    0.13888889    0.83334544 T T T
    0.97222222    0.22222222    0.83334544 T T T
    0.05555556    0.22222222    0.83334544 T T T
    0.13888889    0.22222222    0.83334544 T T T
    0.30555556    0.22222222    0.83334544 T T T
    0.38888889    0.22222222    0.83334544 T T T
    0.47222222    0.22222222    0.83334544 T T T
    0.55555556    0.22222222    0.83334544 T T T
    0.63888889    0.22222222    0.83334544 T T T
    0.80555556    0.22222222    0.83334544 T T T
    0.88888889    0.22222222    0.83334544 T T T
    0.74074281    0.26852155    0.94445661 F F F
    0.76852143    0.29629765    0.86112144 T T T
    0.79630004    0.32407376    0.77778627 T T T
    0.82407866    0.35184986    0.69445109 T T T
    0.69444791    0.36111386    0.91667738 T T T
    0.72222653    0.38888996    0.83334221 T T T
    0.75000514    0.41666607    0.75000704 T T T
    0.77778376    0.44444217    0.66667187 T T T
    0.88889821    0.55554659    0.33333118 T T T
    0.64815301    0.45370617    0.88889815 T T T
    0.67593162    0.48148228    0.80556298 T T T
    0.70371024    0.50925838    0.72222781 T T T
    0.73148885    0.53703449    0.63889264 T T T
    0.84260331    0.64813890    0.30555195 T T T
    0.97222222    0.55555556    0.83334544 T T T
    0.05555556    0.55555556    0.83334544 T T T
    0.13888889    0.55555556    0.83334544 T T T
    0.22222222    0.55555556    0.83334544 T T T
    0.38888889    0.55555556    0.83334544 T T T
    0.55555556    0.55555556    0.83334544 T T T
    0.63888889    0.55555556    0.83334544 T T T
    0.72222222    0.55555556    0.83334544 T T T
    0.80555556    0.55555556    0.83334544 T T T
    0.88888889    0.55555556    0.83334544 T T T
    0.97222222    0.63888889    0.83334544 T T T
    0.05555556    0.63888889    0.83334544 T T T
    0.13888889    0.63888889    0.83334544 T T T
    0.22222222    0.63888889    0.83334544 T T T
    0.47222222    0.63888889    0.83334544 T T T
    0.55555556    0.63888889    0.83334544 T T T
    0.63888889    0.63888889    0.83334544 T T T
    0.72222222    0.63888889    0.83334544 T T T
    0.80555556    0.63888889    0.83334544 T T T
    0.88888889    0.63888889    0.83334544 T T T
    0.97222222    0.72222222    0.83334544 T T T
    0.05555556    0.72222222    0.83334544 T T T
    0.13888889    0.72222222    0.83334544 T T T
    0.55555556    0.72222222    0.83334544 T T T
    0.63888889    0.72222222    0.83334544 T T T
    0.72222222    0.72222222    0.83334544 T T T
    0.80555556    0.72222222    0.83334544 T T T
    0.88888889    0.72222222    0.83334544 T T T
    0.97222222    0.80555556    0.83334544 T T T
    0.05555556    0.80555556    0.83334544 T T T
    0.47222222    0.80555556    0.83334544 T T T
    0.55555556    0.80555556    0.83334544 T T T
    0.63888889    0.80555556    0.83334544 T T T
    0.72222222    0.80555556    0.83334544 T T T
    0.80555556    0.80555556    0.83334544 T T T
    0.88888889    0.80555556    0.83334544 T T T
    0.97222222    0.88888889    0.83334544 T T T
    0.05555556    0.88888889    0.83334544 T T T
    0.13888889    0.88888889    0.83334544 T T T
    0.22222222    0.88888889    0.83334544 T T T
    0.38888889    0.88888889    0.83334544 T T T
    0.47222222    0.88888889    0.83334544 T T T
    0.55555556    0.88888889    0.83334544 T T T
    0.63888889    0.88888889    0.83334544 T T T
    0.72222222    0.88888889    0.83334544 T T T
    0.80555556    0.88888889    0.83334544 T T T
    0.88888889    0.88888889    0.83334544 T T T
    0.97222222    0.97222222    0.83334544 T T T
    0.05555556    0.97222222    0.83334544 T T T
    0.13888889    0.97222222    0.83334544 T T T
    0.22222222    0.97222222    0.83334544 T T T
    0.30555556    0.97222222    0.83334544 T T T
    0.38888889    0.97222222    0.83334544 T T T
    0.47222222    0.97222222    0.83334544 T T T
    0.55555556    0.97222222    0.83334544 T T T
    0.63888889    0.97222222    0.83334544 T T T
    0.72222222    0.97222222    0.83334544 T T T
    0.80555556    0.97222222    0.83334544 T T T
    0.88888889    0.97222222    0.83334544 T T T
    0.00000000    0.00000000    0.91667998 T T T
    0.08333333    0.00000000    0.91667998 T T T
    0.16666667    0.00000000    0.91667998 T T T
    0.25000000    0.00000000    0.91667998 T T T
    0.33333333    0.00000000    0.91667998 T T T
    0.41666667    0.00000000    0.91667998 T T T
    0.50000000    0.00000000    0.91667998 T T T
    0.58333333    0.00000000    0.91667998 T T T
    0.66666667    0.00000000    0.91667998 T T T
    0.75000000    0.00000000    0.91667998 T T T
    0.83333333    0.00000000    0.91667998 T T T
    0.91666667    0.00000000    0.91667998 T T T
    0.00000000    0.08333333    0.91667998 T T T
    0.08333333    0.08333333    0.91667998 T T T
    0.16666667    0.08333333    0.91667998 T T T
    0.25000000    0.08333333    0.91667998 T T T
    0.33333333    0.08333333    0.91667998 T T T
    0.41666667    0.08333333    0.91667998 T T T
    0.50000000    0.08333333    0.91667998 T T T
    0.58333333    0.08333333    0.91667998 T T T
    0.66666667    0.08333333    0.91667998 T T T
    0.75000000    0.08333333    0.91667998 T T T
    0.83333333    0.08333333    0.91667998 T T T
    0.91666667    0.08333333    0.91667998 T T T
    0.00000000    0.16666667    0.91667998 T T T
    0.08333333    0.16666667    0.91667998 T T T
    0.16666667    0.16666667    0.91667998 T T T
    0.25000000    0.16666667    0.91667998 T T T
    0.33333333    0.16666667    0.91667998 T T T
    0.41666667    0.16666667    0.91667998 T T T
    0.50000000    0.16666667    0.91667998 T T T
    0.58333333    0.16666667    0.91667998 T T T
    0.66666667    0.16666667    0.91667998 T T T
    0.75000000    0.16666667    0.91667998 T T T
    0.83333333    0.16666667    0.91667998 T T T
    0.91666667    0.16666667    0.91667998 T T T
    0.85802769    0.25617317    0.89815894 T T T
    0.88580631    0.28394928    0.81482377 T T T
    0.91358492    0.31172538    0.73148860 T T T
    0.81173279    0.34876549    0.87037971 T T T
    0.83951141    0.37654159    0.78704454 T T T
    0.86729002    0.40431769    0.70370937 T T T
    0.97840448    0.51542211    0.37036869 T T T
    0.73765928    0.41358169    0.92593566 F F F
    0.76543789    0.44135780    0.84260049 T T T
    0.79321650    0.46913390    0.75926532 T T T
    0.82099512    0.49691001    0.67593014 T T T
    0.93210958    0.60801442    0.34258946 T T T
    0.69136437    0.50617401    0.89815643 T T T
    0.00000000    0.58333333    0.91667998 T T T
    0.08333333    0.58333333    0.91667998 T T T
    0.16666667    0.58333333    0.91667998 T T T
    0.58333333    0.58333333    0.91667998 T T T
    0.66666667    0.58333333    0.91667998 T T T
    0.75000000    0.58333333    0.91667998 T T T
    0.83333333    0.58333333    0.91667998 T T T
    0.91666667    0.58333333    0.91667998 T T T
    0.00000000    0.66666667    0.91667998 T T T
    0.08333333    0.66666667    0.91667998 T T T
    0.58333333    0.66666667    0.91667998 T T T
    0.66666667    0.66666667    0.91667998 T T T
    0.75000000    0.66666667    0.91667998 T T T
    0.83333333    0.66666667    0.91667998 T T T
    0.91666667    0.66666667    0.91667998 T T T
    0.00000000    0.75000000    0.91667998 T T T
    0.08333333    0.75000000    0.91667998 T T T
    0.50000000    0.75000000    0.91667998 T T T
    0.58333333    0.75000000    0.91667998 T T T
    0.66666667    0.75000000    0.91667998 T T T
    0.75000000    0.75000000    0.91667998 T T T
    0.83333333    0.75000000    0.91667998 T T T
    0.91666667    0.75000000    0.91667998 T T T
    0.00000000    0.83333333    0.91667998 T T T
    0.16666667    0.83333333    0.91667998 T T T
    0.41666667    0.83333333    0.91667998 T T T
    0.50000000    0.83333333    0.91667998 T T T
    0.58333333    0.83333333    0.91667998 T T T
    0.66666667    0.83333333    0.91667998 T T T
    0.75000000    0.83333333    0.91667998 T T T
    0.83333333    0.83333333    0.91667998 T T T
    0.91666667    0.83333333    0.91667998 T T T
    0.00000000    0.91666667    0.91667998 T T T
    0.08333333    0.91666667    0.91667998 T T T
    0.16666667    0.91666667    0.91667998 T T T
    0.25000000    0.91666667    0.91667998 T T T
    0.33333333    0.91666667    0.91667998 T T T
    0.41666667    0.91666667    0.91667998 T T T
    0.50000000    0.91666667    0.91667998 T T T
    0.58333333    0.91666667    0.91667998 T T T
    0.66666667    0.91666667    0.91667998 T T T
    0.75000000    0.91666667    0.91667998 T T T
    0.83333333    0.91666667    0.91667998 T T T
    0.91666667    0.91666667    0.91667998 T T T
