Cu
 1.0000000000000000
    13.8589012000000000    0.0000000000000000    0.0000000000000000
     0.0000000000000000   13.4237228474734085    0.0000000000000000
     0.0000000000000000    0.0000000000000000   13.6655933333333337
 Cu 
 209
Direct
  0.0532474104079765  0.1923804188361032  0.7981502449704585
  0.5949281606827530  0.0722647088858279  0.3422293165463238
  0.6845745173506250  0.1736896277008240  0.4725954087125867
  0.5922439651997805  0.0754903416325701  0.5987662933527950
  0.7796181273014630  0.1845137486731480  0.7923327149107807
  0.5172019409446398  0.1041709099350110  0.9729468997321251
  0.5969557384534928  0.2532428196233614  0.0523502089676310
  0.6782681010814909  0.3498702615586765  0.2014114279219001
  0.5924243546811632  0.2584127714160612  0.3306586517282576
  0.7772297705679579  0.3404466462593030  0.5120228954566673
  0.6835715518341381  0.2466872611542319  0.6435429806926298
  0.6699268914623621  0.1610925261425313  0.1898319819263854
  0.8729588605480495  0.3411692475905592  0.8230741536286508
  0.5907503402939331  0.4343475718313212  0.0556277834503099
  0.7794810312956123  0.5135208393425793  0.2317006360011689
  0.6859671241468982  0.4296767364220666  0.3764049274113723
  0.8677997213805088  0.5039854815693001  0.5459255580560228
  0.7728066204844579  0.4102037479694480  0.6747454312265498
  0.7809674406222044  0.4911201980736338  0.8634822051878220
  0.6737872263639486  0.6037119147809309  0.0836734006914689
  0.8644949860815805  0.6852615722372485  0.2593708579064014
  0.7860616395764475  0.6010300954071963  0.4176471908281575
  0.7715078162185035  0.6645072700838458  0.5856457507150560
  0.7835650491541132  0.2665625225129105  0.9789034651014055
  0.6830303833899904  0.5816613999302230  0.7189806126237231
  0.5925253727907375  0.0681451363478409  0.0529897713918020
  0.4988166450021303  0.9838374625130506  0.9858698658772712
  0.5987019086332759  0.5241140258688315  0.2227116373529824
  0.5062775539521126  0.4272035029996222  0.3598377726250695
  0.6864000589022163  0.4994338381322115  0.5420325693871566
  0.5882248875545775  0.4070377112087888  0.6776505374324518
  0.5935355538864796  0.5071962153195214  0.8547229806828732
  0.4920123537643805  0.6004564840411476  0.0859330903549010
  0.6884637145692327  0.6719120713546578  0.2622283994011236
  0.5930593256556298  0.5835535724883582  0.4014532360834191
  0.5832677846061850  0.6586147169598897  0.5872922214866630
  0.4985280218319181  0.5772289484653004  0.7241176014311368
  0.6074976997454891  0.0121472579246073  0.8571743927205991
  0.5944086389763712  0.6827734398182834  0.8471858033728502
  0.6825397240006298  0.8627309692941458  0.0028902269885586
  0.5929510919668003  0.7612688029878477  0.1258171983263075
  0.6029158069183722  0.8247683261592780  0.2999896577243383
  0.5067609977622177  0.7411253596917954  0.4432443230907402
  0.5903246211178703  0.8563318502884841  0.5705421255035151
  0.4998268260978725  0.7740595915009104  0.7130020943108214
  0.5854685362790522  0.8752759243646161  0.8439514030126268
  0.5145177454616675  0.9305512014565932  0.1669709182038199
  0.5053395286489233  0.9400567612368309  0.4283309567239182
  0.5062270448973254  0.9688863195044796  0.7042501874537463
  0.5031604237138220  0.6080475227684687  0.9912044311772777
  0.7779729752312541  0.6909604384064351  0.8555279219489921
  0.6867247599687050  0.6092915889779512  0.9926606431041657
  0.8742360180762381  0.8759836266993514  0.0061451167628287
  0.9681900755595254  0.4222570361547335  0.6791506552465828
  0.9574172157313594  0.5086861149715962  0.8624650521333627
  0.8640476201677515  0.6204881848632939  0.0865463092467262
  0.9689693581190979  0.5966795884231376  0.4064072836939877
  0.9638895903233654  0.6625704005361486  0.5831577504379611
  0.8682759496113587  0.5799480153303370  0.7216954599849060
  0.9695393888802670  0.6891427608309036  0.8576573574802704
  0.9611765325233718  0.7699474684611837  0.1306146482723764
  0.8835224685778116  0.7482992265165358  0.4509937121891035
  0.9674107929999528  0.8561903098215371  0.5849798447585394
  0.8897278667373715  0.4273673919613503  0.3755268096665152
  0.8787818330070782  0.7650382491075970  0.7111580470466218
  0.8755131756044267  0.7999391484574508  0.9962389729144581
  0.8678502304352959  0.9219246824710798  0.1739278060374498
  0.8685068481475283  0.9422841612166827  0.4494935943749728
  0.8648341183065796  0.9640664941300172  0.7089627526844791
  0.8732041902427300  0.9884263534414416  0.9823866654893384
  0.9696620537276072  0.0174810986790353  0.8522422980536519
  0.9588675471616751  0.0757808720647245  0.0432865703111317
  0.9646833040414485  0.0679365503965504  0.3270847125066896
  0.8764656320661263  0.1066441433574553  0.9799279358037387
  0.9540980492739206  0.2651918148330017  0.0521401924736527
  0.9475174409930851  0.8816154473841944  0.8413463203695510
  0.9595458116116737  0.5254251375626574  0.2347462410462479
  0.7729292853317979  0.4522040191614383  0.0651304809792378
  0.9679447458648451  0.2677693412310913  0.9712418877775278
  0.7719912600286088  0.7752664102190909  0.1317430295745178
  0.7805922305009289  0.8399727521087023  0.3173654126006968
  0.6890337453304015  0.7477852111365701  0.4458859939731853
  0.7818333101328406  0.8446286885214361  0.5726057022039293
  0.6963286959575120  0.7710425447054587  0.7178317419075350
  0.7757577923998764  0.8922682298965298  0.8463881797546051
  0.6891131167022100  0.7967284147072293  0.9775716531883724
  0.6907438376139082  0.9400865592298724  0.1758538109578362
  0.6916457850208210  0.9441092882904747  0.4471153588159851
  0.6795596897681900  0.9558422480505641  0.6995668928145089
  0.6815511896426534  0.9895959246683200  0.9712418877775278
  0.7871728387817643  0.0173321087138279  0.8577598045505037
  0.7749785098403038  0.0757659730682038  0.0397345840331850
  0.8596533324012726  0.1686239688837696  0.1872956851733234
  0.7785213592546570  0.0858749422075318  0.3311006376598356
  0.8721651468299664  0.1841040262688274  0.4664193139070922
  0.7839763371716653  0.0781423630132632  0.6040715880613063
  0.9568111070739143  0.1787329380230976  0.7856370671062458
  0.6932404280362429  0.1104359379719858  0.9772204060904296
  0.7783121074562533  0.2651694663382206  0.0545711150973319
  0.8717033497576271  0.3675032239409824  0.1844886354489303
  0.7872666413120830  0.2816403069919082  0.3257038723529019
  0.8800012659012243  0.2558352450179717  0.6357423680591501
  0.3997756041438552  0.4327533792036011  0.0551045716273327
  0.9605992861829477  0.2572729981822240  0.3262329382941783
  0.6052825169141114  0.2723731311560024  0.9781570650182769
  0.4916876526978919  0.2482516557889106  0.6499093343428436
  0.1450151473769072  0.2594333526777325  0.6497556637374934
  0.3245604059865871  0.3514048582003135  0.8371972140251016
  0.2272005950947972  0.2711216154482596  0.9946144550864727
  0.0318460023367508  0.4488591944425304  0.0386954780351042
  0.2211467240995989  0.5271981181486264  0.2300190405197676
  0.1334124959343818  0.4182194080976108  0.3658821497688354
  0.3177994082243690  0.4966104782915295  0.5434302401310541
  0.2378940835511547  0.4174148622854904  0.6835778322102368
  0.2326339262740395  0.5074271497655930  0.8728487944662970
  0.1239095780551490  0.6018420907175771  0.0903031896651395
  0.2247689448857602  0.3456165980520026  0.5077859773377322
  0.3203825855977672  0.6740500773553854  0.2739724924737990
  0.2287519446346871  0.6720983088111671  0.5795428323882997
  0.1429587072891464  0.5884031958558616  0.7234077895873772
  0.2245741242458673  0.6961974356834781  0.8479761093432215
  0.2241051115942725  0.7625575661868923  0.1318213284067676
  0.2325329081644653  0.8402185855512943  0.3059191477964855
  0.1381964249806470  0.7603301662070403  0.4400172403783906
  0.2287663757931977  0.8625819793289382  0.5693420312522104
  0.1299129399955602  0.7709606002245946  0.7071699289553960
  0.2198623509921550  0.8810939825059684  0.8557401337373326
  0.1373594177870320  0.8122829670748906  0.9971097730114413
  0.2279221530203273  0.5755155638654142  0.4042998011063308
  0.1404765480253224  0.9305139539652917  0.1717068999077488
  0.0311172288319653  0.2632325967905233  0.3417229353134562
  0.0303379462723927  0.2585617613812686  0.0459018976612308
  0.0381884965021612  0.3360216442926406  0.5163988488852052
  0.1431030188742523  0.3538929906192785  0.8352653549864160
  0.0552461258616952  0.2723135351699196  0.9864625953550499
  0.0357135528175926  0.5111444493975198  0.2267202448582548
  0.1328063872769364  0.5019219705511765  0.5499356290908699
  0.0428497607010863  0.4264660026718450  0.6939030333601809
  0.0463276699021418  0.5116584647774858  0.8761417360095111
  0.1250424239982315  0.6832651067034683  0.2589237496213116
  0.0502457294377709  0.5893120346436274  0.4072414955516018
  0.0391625997016270  0.6777673769873119  0.5775597498144975
  0.1253526939062094  0.3700584018442910  0.1815930421852642
  0.0448701228925709  0.7022389787726416  0.8604600166159391
  0.0428930541766181  0.8440178296640853  0.3024542415282370
  0.0385276287271605  0.8631853886880284  0.5753425025087335
  0.0421209871963008  0.8915679770600545  0.8536911923326660
  0.0504333344984087  0.0104040753316798  0.8464759915290908
  0.0356125347080185  0.0812562532860999  0.0513052488512512
  0.1292491067040725  0.1801259941977875  0.1984982723033370
  0.0363340926335487  0.0679291008982900  0.3409531187571316
  0.1297758439897096  0.1629697997041455  0.4827962098486758
  0.0392636178112012  0.0829845368825066  0.6331153324724527
  0.2289684120123462  0.1951590816872230  0.8166565764433206
  0.0367165183340797  0.7817623727021376  0.1269448478636614
  0.1333042622455522  0.9471412340824471  0.4376902283545195
  0.1277554817982250  0.9587773503651517  0.7073821407437365
  0.2341924913931847  0.0193360237458684  0.8385363435860086
  0.4126337663768031  0.8358829775637565  0.3038745969805434
  0.3247191487302036  0.7507352124476784  0.4466616646478090
  0.4137377500028643  0.8643326114201261  0.5733521022870576
  0.3122939212525735  0.7759443145607847  0.7167194594307161
  0.4039822868496962  0.8691002903067656  0.8364947198292157
  0.3297917009466809  0.8089679403490241  0.9934802196660324
  0.3232327394036115  0.9269754422916134  0.1692408525742753
  0.3156275188685232  0.9428875705757730  0.4305994275647991
  0.3176623122185183  0.9581143450199785  0.7055454111274103
  0.3202094116956399  0.9883369594623168  0.9766349942605249
  0.4142644872885014  0.7659545373936231  0.1238707039918744
  0.4249363290070930  0.0196861501641060  0.8517300627024854
  0.5017461701797831  0.1681323019985850  0.1920638645278970
  0.4070056145576676  0.0869923669465879  0.3414829164631952
  0.4963056234212852  0.1762075581128307  0.4774177386614264
  0.4108443027214883  0.0791852927697156  0.6129039890449933
  0.5928645050157366  0.1865102142069282  0.7980404802523516
  0.3219267195584019  0.1153228088307913  0.9750690176155299
  0.4145531104587136  0.2611169392845769  0.0429909373370299
  0.4887004028861969  0.3538557431279767  0.1896797748506102
  0.4063562124246904  0.2582637814508536  0.3208230012210715
  0.5925253727907375  0.3318424757685706  0.5132522602994672
  0.4017959663353396  0.0840796131267815  0.0461799682804356
  0.4075034895262836  0.6888522303987490  0.8608917578404938
  0.3186797088935158  0.5772065999705193  0.7211027305071277
  0.4080085800741545  0.6757187649657089  0.5903144100585459
  0.2112902428368562  0.0667520801731510  0.0483752626425782
  0.3063771462632259  0.1691975802498185  0.1828231387928514
  0.2134621321927022  0.0804666064705002  0.3337196238338718
  0.3148049428334187  0.1763937955693399  0.4780324210828265
  0.2218610664458736  0.0698510714494666  0.6270709553286868
  0.4101588226922346  0.1859366028408794  0.7905691617731930
  0.1388963361684113  0.1086108108981941  0.9727785938310277
  0.2173224670942887  0.2483633982628162  0.0376519814482991
  0.3023292063010016  0.3517102876289889  0.1881416052675357
  0.2133106050283407  0.2616533031593239  0.3456795875188245
  0.4085641796768128  0.3323788396433177  0.4997731529159120
  0.3158872797217140  0.2484304437471596  0.6546145819257024
  0.5011400615223376  0.3435977840234414  0.8279623424083550
  0.4173094617342389  0.2673298208337291  0.9793791122132031
  0.2203746571192816  0.4409329282934921  0.0405812358921847
  0.4040760893800152  0.5123810661087420  0.2236578092230659
  0.3207722268775534  0.4221676421756093  0.3686848089045040
  0.5001803894813823  0.5038811885936548  0.5447840049877087
  0.4113638244278701  0.4176010997419996  0.6797799729637302
  0.4181536845071094  0.5085371250063888  0.8734634768876971
  0.3170706347195836  0.6096640638909702  0.0901948884766071
  0.4976044276872396  0.6726868191737368  0.2654788985866695
  0.4077993282757508  0.5899824894870611  0.4121004137398108
  0.6814790338501006  0.3437467739886488  0.8316723898803760
  0.9608518314568835  0.4521071756840535  0.0494063192279978
