Cu
 1.0000000000000000
     7.6685730419681093    0.0000000000000000    0.0000000000000000
     0.0000000000000000    8.8549054201611881    0.0000000000000000
     0.0000000000000000    0.0000000000000000   25.0454546774459672
 Cu 
 144
Direct
  0.1673810717408409  0.0822933977256103 -0.0007331094315923
  0.8017932439867872  0.6663238351582320  0.5840994423374420
  0.3024723473441974  0.9166832765750783  0.5837381118320238
  0.6354919496256125  0.9165589165467074  0.5839143349494466
  0.9677180673116561  0.9157357668580419  0.5837607997513808
  0.1337020318407227 -0.0018347111676289  0.6664931907604087
  0.4644432596037391 -0.0001076602658171  0.6665525375477869
  0.4677296324526168  0.6681171760652810  0.5841028595073672
  0.7996022073123007  0.0003898420118381  0.6660640673612308
  0.6354030859722775  0.2503763791614703  0.6659323509434878
  0.9677698018807949  0.2503118084315444  0.6671872517011463
  0.1335010853951489  0.5014150082039316  0.6674604399073180
  0.4658871464726788  0.4985139149686215  0.6664936609026409
  0.8013199326053532  0.4997254806674576  0.6668078182018534
  0.2980562666559269  0.7510214609878006  0.6663154371107002
  0.3022625795312006  0.2508314055965227  0.6671837766374182
  0.6317195653590162  0.7516395431971834  0.6667695401372428
  0.1346080462428145  0.6682561852240669  0.5827566724972177
  0.6326151186210947  0.4162937574875006  0.5833994690600167
  0.9644423305752681  0.0813923809412164  0.5005890957846008
  0.1340326549860774  0.3333178467480408  0.4994626464751603
  0.4675728766578943  0.3325112687103059  0.5003367954241308
  0.7997932096575687  0.3333670767114501  0.5004626240348844
  0.2978757220033097  0.5836891067700284  0.4995164550907886
  0.6349406036827304  0.5832829478652047  0.5007804934502673
  0.9646460230223307  0.4162463247434256  0.5825352654741891
  0.9650128691552436  0.5854249158772646  0.5004805934497641
  0.4674757927616647  0.8352020862700524  0.4993056950425737
  0.8017473300554097  0.8327994587658437  0.4997213795698325
  0.1359102235500988  0.1679368801302059  0.5833102315587293
  0.4662630890876214  0.1683720667266705  0.5826734369439783
  0.8010871318863273  0.1679728562191684  0.5838111787285468
  0.2990730308009712  0.4180066659943643  0.5828946564370074
  0.1332355863166606  0.8347496514047417  0.5001642595937118
  0.6347203820908195  0.0852094638639481  0.4994049267689492
  0.9665858116884644  0.7518015946927696  0.6660054887095953
  0.6342450995720358  0.0827136630257331  0.7497283272838179
  0.8018363381585391  0.6681218472418582  0.8331597190079848
  0.2998267397077711  0.9181302703632672  0.8336219067737396
  0.6350908636304827  0.9178303000364623  0.8336388122825543
  0.9688207785398756  0.9181248736955508  0.8328207655775467
  0.1346280945553900 -0.0018670721245397  0.9165482519512451
  0.4661281147755572 -0.0013453871809693  0.9173660432430168
  0.4650706850235385  0.6686769632297055  0.8327944247296091
  0.7978863169488186 -0.0022365030975222  0.9163838541585825
  0.6316282632443320  0.2503901943643653  0.9173987904649099
  0.9677960201115949  0.2521705843366072  0.9167857408061452
  0.1358544527327744  0.5015225324979873  0.9171110558457581
  0.4686930665446382  0.5005939827068608  0.9164372670323248
  0.8001475238738794  0.4987645283993889  0.9171099313267915
  0.2982790983585626  0.7503487239911600  0.9167240007099756
  0.3025597707190399  0.2489370643256073  0.9171948172149825
  0.3010231601069319  0.0825562828643639  0.7494815981515287
  0.1334367845189747  0.6663356462760799  0.8325996553960894
  0.6319370447500493  0.4177903634796786  0.8335628436599474
  0.9689809317212004  0.0819749827014413  0.7500194425024334
  0.1308505413107565  0.3318126760574392  0.7506123565949535
  0.4681754091493668  0.3335900745964284  0.7495567313788741
  0.8003012168355456  0.3311295673946226  0.7503401713144059
  0.3011305919856406  0.5839930581599084  0.7501778185873791
  0.6311097980547747  0.5821877805852639  0.7501187888965178
  0.9678442400369212  0.4147821002966922  0.8330981504050136
  0.9661147348619252  0.5855559351804912  0.7506767620916970
  0.4647708428480239  0.8324867772426398  0.7503448415685902
  0.8020922176328120  0.8326184421299399  0.7495830679990909
  0.1350118307589646  0.1670505563919355  0.8332959427910642
  0.4653947221876216  0.1647362489780544  0.8325633595631433
  0.8004171320016197  0.1652713283230786  0.8340928052368004
  0.2979525642151900  0.4164502387799777  0.8331650948976003
  0.1315181737432871  0.8337397096338400  0.7503133743964812
  0.3019483292606149  0.0832082064711675  0.5006589969141386
  0.8345115492154254  0.7481378361769876  0.4164991180348002
  0.4983163842464098  0.7494943671878838  0.4159685687368437
  0.3348789886653780  0.6654499047557241  0.0826178682643937
  0.6661688000640739  0.6653047686398201  0.0826797265856796
  0.1670856879659212  0.9157573227149051  0.0836080256959539
  0.4984326442252694  0.9186638110268982  0.0831179012982717
  0.8312755595166361  0.9172498830666781  0.0840155402384490
 -0.0003109983824000  0.0020535080709308  0.1666665002711052
 -0.0008548288635054  0.6650868845390838  0.0832540205254961
  0.3329433187909056  0.0005430366392923  0.1674573834040732
  0.1666532232033351  0.2501324109465022  0.1671230939176699
  0.4995548368637697  0.2510592256412128  0.1670038821506082
  0.8355869973944241  0.2482605466757788  0.1670324258353873
  0.0022294835103500  0.5021137490135545  0.1658916059599882
  0.3352301143289916  0.5021736879943210  0.1673968752981318
  0.6648345866390251  0.5021349920361513  0.1672894312532831
  0.6690083992027243 -0.0001804868998372  0.1670782844210696
  0.1683481989453777  0.7499096000454319  0.1662392404788695
  0.8319738597750548  0.4183673476471930  0.0826283240278448
  0.1687023744828088  0.4154341638062954  0.0835300750515773
  0.4974781625638795  0.0847484596360356  0.0006592103558805
  0.8338895555936341  0.0843700312994639  0.0000696733072364
  0.0022693787822414  0.3347601291674362 -0.0007941744420039
  0.3351975877370227  0.3312264133717374  0.0003667818362855
  0.6649748558036944  0.3349739106410162  0.0000662175564917
  0.1656219450040236  0.5829840906248734 -0.0007533188515508
  0.4978301848120058  0.4181693101478540  0.0837918569436030
  0.4980402261466677  0.5841040899099317  0.0002350758067200
  0.0025080824614683  0.8341714766027498  0.0002402979354227
  0.3343162892472412  0.8328315613967614 -0.0005827859780181
  0.6678219707316181  0.8334478656576110 -0.0003030619757316
 -0.0000738841038128  0.1684260884373936  0.0840265425747645
  0.3325915796719275  0.1669897862363772  0.0830488416182207
  0.6671585445150414  0.1659344678828205  0.0831602384530564
  0.8339351929536291  0.5828078734205792  0.0007940920892715
  0.5015746375606840  0.7519132001514964  0.1662931542178497
  0.8335364188743282  0.7497413990627382  0.1673550427756767
  0.1642699272143753  0.0843813679972760  0.2501826650758343
  0.6686556008303025  0.6667150308446476  0.3330846586399921
  0.1692482022167741  0.9158352339369019  0.3328265944856507
  0.5019826276373656  0.9180775700396155  0.3336014688616894
  0.8357244620571214  0.9185897344218348  0.3337298100697295
  0.0018814525600716 -0.0011422064841130  0.4160937029130128
  0.3342203919732353  0.0009694899108289  0.4161349181709726
  0.3323363153158499  0.6656269572465066  0.3339132712244451
  0.6661218835560486  0.0018532361295784  0.4167647295979906
  0.5001222377475791  0.2481431112349645  0.4174363755009978
  0.8337057395166741  0.2477703155757627  0.4171021136645141
  0.0024946790555308  0.5004059671969677  0.4163786808967303
  0.3317033441159807  0.5007793494147279  0.4161797238573309
  0.6670718940386571  0.5004618419803640  0.4174052008223925
  0.1644355619637226  0.7499998772371241  0.4170565138184575
  0.1670752741846367  0.2486183015510802  0.4167082267005380
 -0.0000581618150105  0.6688189756946150  0.3337736386768017
  0.8310354568132101  0.4161280748419922  0.3332211757546815
  0.5023149100856874  0.4149808986995054  0.3339159193555856
  0.4975399092774869  0.0843236082710085  0.2492269922399735
  0.8346788300819185  0.0833909679331701  0.2506853207119988
 -0.0022633546079627  0.3348751556946891  0.2493079622681027
  0.3325212395039138  0.3330184738752369  0.2507443459690173
  0.6669912738231109  0.3322440595562016  0.2495874312696934
  0.1686911284200339  0.5820950114831258  0.2494003777547663
  0.4988959132718224  0.5837223744838651  0.2500863877344131
  0.8349488139408350  0.5836065195465637  0.2496620883297291
 -0.0004543408889368  0.8347703717019040  0.2502020429879178
  0.3357279256006823  0.8327433977768859  0.2500840256424950
  0.6671565841576999  0.8349066588145161  0.2494337871420115
 -0.0004876508979714  0.1685185620498918  0.3326035672063989
  0.3350165997163509  0.1662844335038545  0.3338600620184790
  0.6641105434530735  0.1660570437024983  0.3326603649751844
  0.1674627186857394  0.4156450819487292  0.3336569881813202
  0.6342299945637181  0.7511766883385209  0.9160435242738280
  0.9673183705024868  0.7496113154756507  0.9168490573433604
