Cu
 1.0000000000000000
     7.6685730419681093    0.0000000000000000    0.0000000000000000
     5.1123820279787395    8.8549054201611881    0.0000000000000000
     0.0000000000000000    0.0000000000000000   43.8295456855304479
 Cu 
 252
Direct
  0.0000000000000000  0.0000000000000000  0.0000000000000000
  0.5555555555555555  0.4166666666666667  0.6190476190476190
  0.8888888888888887  0.4166666666666667  0.6190476190476190
  0.2222222222222222  0.6666666666666666  0.6190476190476190
  0.5555555555555556  0.6666666666666666  0.6190476190476190
  0.8888888888888888  0.6666666666666666  0.6190476190476190
  0.2222222222222223  0.9166666666666666  0.6190476190476190
  0.5555555555555556  0.9166666666666666  0.6190476190476190
  0.8888888888888888  0.9166666666666666  0.6190476190476190
  0.0000000000000000  0.0000000000000000  0.6666666666666666
  0.3333333333333333  0.0000000000000000  0.6666666666666666
  0.6666666666666666  0.0000000000000000  0.6666666666666666
  0.0000000000000000  0.2500000000000000  0.6666666666666666
  0.3333333333333333  0.2500000000000000  0.6666666666666666
  0.6666666666666666  0.2500000000000000  0.6666666666666666
  0.0000000000000000  0.4999999999999999  0.6666666666666666
  0.3333333333333334  0.4999999999999999  0.6666666666666666
  0.6666666666666666  0.4999999999999999  0.6666666666666666
  0.0000000000000000  0.7500000000000000  0.6666666666666666
  0.3333333333333333  0.7500000000000000  0.6666666666666666
  0.6666666666666666  0.7500000000000000  0.6666666666666666
  0.1111111111111111  0.0833333333333333  0.7142857142857142
  0.4444444444444443  0.0833333333333333  0.7142857142857142
  0.7777777777777778  0.0833333333333333  0.7142857142857142
  0.1111111111111111  0.3333333333333333  0.7142857142857142
  0.4444444444444444  0.3333333333333333  0.7142857142857142
  0.7777777777777778  0.3333333333333333  0.7142857142857142
  0.1111111111111111  0.5833333333333333  0.7142857142857142
  0.2222222222222222  0.4166666666666667  0.6190476190476190
  0.8888888888888886  0.1666666666666667  0.6190476190476190
  0.5555555555555555  0.1666666666666667  0.6190476190476190
  0.2222222222222222  0.1666666666666667  0.6190476190476190
  0.8888888888888888  0.6666666666666666  0.4761904761904762
  0.2222222222222223  0.9166666666666666  0.4761904761904762
  0.5555555555555556  0.9166666666666666  0.4761904761904762
  0.8888888888888888  0.9166666666666666  0.4761904761904762
  0.0000000000000000  0.0000000000000000  0.5238095238095238
  0.3333333333333333  0.0000000000000000  0.5238095238095238
  0.6666666666666666  0.0000000000000000  0.5238095238095238
  0.0000000000000000  0.2500000000000000  0.5238095238095238
  0.3333333333333333  0.2500000000000000  0.5238095238095238
  0.6666666666666666  0.2500000000000000  0.5238095238095238
  0.0000000000000000  0.4999999999999999  0.5238095238095238
  0.3333333333333334  0.4999999999999999  0.5238095238095238
  0.6666666666666666  0.4999999999999999  0.5238095238095238
  0.4444444444444444  0.5833333333333333  0.7142857142857142
  0.0000000000000000  0.7500000000000000  0.5238095238095238
  0.6666666666666666  0.7500000000000000  0.5238095238095238
  0.1111111111111111  0.0833333333333333  0.5714285714285714
  0.4444444444444443  0.0833333333333333  0.5714285714285714
  0.7777777777777778  0.0833333333333333  0.5714285714285714
  0.1111111111111111  0.3333333333333333  0.5714285714285714
  0.4444444444444444  0.3333333333333333  0.5714285714285714
  0.7777777777777778  0.3333333333333333  0.5714285714285714
  0.1111111111111111  0.5833333333333333  0.5714285714285714
  0.4444444444444444  0.5833333333333333  0.5714285714285714
  0.7777777777777778  0.5833333333333333  0.5714285714285714
  0.1111111111111111  0.8333333333333333  0.5714285714285714
  0.4444444444444444  0.8333333333333333  0.5714285714285714
  0.7777777777777778  0.8333333333333333  0.5714285714285714
  0.3333333333333333  0.7500000000000000  0.5238095238095238
  0.5555555555555556  0.6666666666666666  0.4761904761904762
  0.7777777777777778  0.5833333333333333  0.7142857142857142
  0.4444444444444444  0.8333333333333333  0.7142857142857142
  0.4444444444444444  0.5833333333333333  0.8571428571428571
  0.7777777777777778  0.5833333333333333  0.8571428571428571
  0.1111111111111111  0.8333333333333333  0.8571428571428571
  0.4444444444444444  0.8333333333333333  0.8571428571428571
  0.7777777777777778  0.8333333333333333  0.8571428571428571
  0.2222222222222222  0.1666666666666667  0.9047619047619048
  0.5555555555555555  0.1666666666666667  0.9047619047619048
  0.8888888888888886  0.1666666666666667  0.9047619047619048
  0.2222222222222222  0.4166666666666667  0.9047619047619048
  0.5555555555555555  0.4166666666666667  0.9047619047619048
  0.8888888888888887  0.4166666666666667  0.9047619047619048
  0.2222222222222222  0.6666666666666666  0.9047619047619048
  0.5555555555555556  0.6666666666666666  0.9047619047619048
  0.8888888888888888  0.6666666666666666  0.9047619047619048
  0.2222222222222223  0.9166666666666666  0.9047619047619048
  0.5555555555555556  0.9166666666666666  0.9047619047619048
  0.8888888888888888  0.9166666666666666  0.9047619047619048
  0.0000000000000000  0.0000000000000000  0.9523809523809523
  0.3333333333333333  0.0000000000000000  0.9523809523809523
  0.6666666666666666  0.0000000000000000  0.9523809523809523
  0.0000000000000000  0.2500000000000000  0.9523809523809523
  0.3333333333333333  0.2500000000000000  0.9523809523809523
  0.6666666666666666  0.2500000000000000  0.9523809523809523
  0.0000000000000000  0.4999999999999999  0.9523809523809523
  0.3333333333333334  0.4999999999999999  0.9523809523809523
  0.6666666666666666  0.4999999999999999  0.9523809523809523
  0.0000000000000000  0.7500000000000000  0.9523809523809523
  0.1111111111111111  0.5833333333333333  0.8571428571428571
  0.7777777777777778  0.3333333333333333  0.8571428571428571
  0.4444444444444444  0.3333333333333333  0.8571428571428571
  0.1111111111111111  0.3333333333333333  0.8571428571428571
  0.7777777777777778  0.8333333333333333  0.7142857142857142
  0.2222222222222222  0.1666666666666667  0.7619047619047619
  0.5555555555555555  0.1666666666666667  0.7619047619047619
  0.8888888888888886  0.1666666666666667  0.7619047619047619
  0.2222222222222222  0.4166666666666667  0.7619047619047619
  0.5555555555555555  0.4166666666666667  0.7619047619047619
  0.8888888888888887  0.4166666666666667  0.7619047619047619
  0.2222222222222222  0.6666666666666666  0.7619047619047619
  0.5555555555555556  0.6666666666666666  0.7619047619047619
  0.8888888888888888  0.6666666666666666  0.7619047619047619
  0.2222222222222223  0.9166666666666666  0.7619047619047619
  0.5555555555555556  0.9166666666666666  0.7619047619047619
  0.8888888888888888  0.9166666666666666  0.7619047619047619
  0.1111111111111111  0.8333333333333333  0.7142857142857142
  0.0000000000000000  0.0000000000000000  0.8095238095238094
  0.6666666666666666  0.0000000000000000  0.8095238095238094
  0.0000000000000000  0.2500000000000000  0.8095238095238094
  0.3333333333333333  0.2500000000000000  0.8095238095238094
  0.6666666666666666  0.2500000000000000  0.8095238095238094
  0.0000000000000000  0.4999999999999999  0.8095238095238094
  0.3333333333333334  0.4999999999999999  0.8095238095238094
  0.6666666666666666  0.4999999999999999  0.8095238095238094
  0.0000000000000000  0.7500000000000000  0.8095238095238094
  0.3333333333333333  0.7500000000000000  0.8095238095238094
  0.6666666666666666  0.7500000000000000  0.8095238095238094
  0.1111111111111111  0.0833333333333333  0.8571428571428571
  0.4444444444444443  0.0833333333333333  0.8571428571428571
  0.7777777777777778  0.0833333333333333  0.8571428571428571
  0.3333333333333333  0.0000000000000000  0.8095238095238094
  0.2222222222222222  0.6666666666666666  0.4761904761904762
  0.8888888888888887  0.4166666666666667  0.4761904761904762
  0.5555555555555555  0.4166666666666667  0.4761904761904762
  0.2222222222222223  0.9166666666666666  0.0952380952380952
  0.5555555555555556  0.9166666666666666  0.0952380952380952
  0.8888888888888888  0.9166666666666666  0.0952380952380952
  0.0000000000000000  0.0000000000000000  0.1428571428571428
  0.3333333333333333  0.0000000000000000  0.1428571428571428
  0.6666666666666666  0.0000000000000000  0.1428571428571428
  0.0000000000000000  0.2500000000000000  0.1428571428571428
  0.3333333333333333  0.2500000000000000  0.1428571428571428
  0.6666666666666666  0.2500000000000000  0.1428571428571428
  0.0000000000000000  0.4999999999999999  0.1428571428571428
  0.3333333333333334  0.4999999999999999  0.1428571428571428
  0.6666666666666666  0.4999999999999999  0.1428571428571428
  0.0000000000000000  0.7500000000000000  0.1428571428571428
  0.3333333333333333  0.7500000000000000  0.1428571428571428
  0.6666666666666666  0.7500000000000000  0.1428571428571428
  0.1111111111111111  0.0833333333333333  0.1904761904761905
  0.4444444444444443  0.0833333333333333  0.1904761904761905
  0.7777777777777778  0.0833333333333333  0.1904761904761905
  0.1111111111111111  0.3333333333333333  0.1904761904761905
  0.4444444444444444  0.3333333333333333  0.1904761904761905
  0.7777777777777778  0.3333333333333333  0.1904761904761905
  0.1111111111111111  0.5833333333333333  0.1904761904761905
  0.4444444444444444  0.5833333333333333  0.1904761904761905
  0.7777777777777778  0.5833333333333333  0.1904761904761905
  0.1111111111111111  0.8333333333333333  0.1904761904761905
  0.4444444444444444  0.8333333333333333  0.1904761904761905
  0.7777777777777778  0.8333333333333333  0.1904761904761905
  0.8888888888888888  0.6666666666666666  0.0952380952380952
  0.5555555555555556  0.6666666666666666  0.0952380952380952
  0.2222222222222222  0.6666666666666666  0.0952380952380952
  0.8888888888888887  0.4166666666666667  0.0952380952380952
  0.3333333333333333  0.0000000000000000  0.0000000000000000
  0.6666666666666666  0.0000000000000000  0.0000000000000000
  0.0000000000000000  0.2500000000000000  0.0000000000000000
  0.3333333333333333  0.2500000000000000  0.0000000000000000
  0.6666666666666666  0.2500000000000000  0.0000000000000000
  0.0000000000000000  0.4999999999999999  0.0000000000000000
  0.3333333333333334  0.4999999999999999  0.0000000000000000
  0.6666666666666666  0.4999999999999999  0.0000000000000000
  0.0000000000000000  0.7500000000000000  0.0000000000000000
  0.3333333333333333  0.7500000000000000  0.0000000000000000
  0.6666666666666666  0.7500000000000000  0.0000000000000000
  0.1111111111111111  0.0833333333333333  0.0476190476190476
  0.4444444444444443  0.0833333333333333  0.0476190476190476
  0.2222222222222222  0.1666666666666667  0.2380952380952381
  0.7777777777777778  0.0833333333333333  0.0476190476190476
  0.4444444444444444  0.3333333333333333  0.0476190476190476
  0.7777777777777778  0.3333333333333333  0.0476190476190476
  0.1111111111111111  0.5833333333333333  0.0476190476190476
  0.4444444444444444  0.5833333333333333  0.0476190476190476
  0.7777777777777778  0.5833333333333333  0.0476190476190476
  0.1111111111111111  0.8333333333333333  0.0476190476190476
  0.4444444444444444  0.8333333333333333  0.0476190476190476
  0.7777777777777778  0.8333333333333333  0.0476190476190476
  0.2222222222222222  0.1666666666666667  0.0952380952380952
  0.5555555555555555  0.1666666666666667  0.0952380952380952
  0.8888888888888886  0.1666666666666667  0.0952380952380952
  0.2222222222222222  0.4166666666666667  0.0952380952380952
  0.5555555555555555  0.4166666666666667  0.0952380952380952
  0.1111111111111111  0.3333333333333333  0.0476190476190476
  0.5555555555555555  0.1666666666666667  0.2380952380952381
  0.8888888888888886  0.1666666666666667  0.2380952380952381
  0.2222222222222222  0.4166666666666667  0.2380952380952381
  0.2222222222222222  0.1666666666666667  0.3809523809523809
  0.5555555555555555  0.1666666666666667  0.3809523809523809
  0.8888888888888886  0.1666666666666667  0.3809523809523809
  0.2222222222222222  0.4166666666666667  0.3809523809523809
  0.5555555555555555  0.4166666666666667  0.3809523809523809
  0.8888888888888887  0.4166666666666667  0.3809523809523809
  0.2222222222222222  0.6666666666666666  0.3809523809523809
  0.5555555555555556  0.6666666666666666  0.3809523809523809
  0.8888888888888888  0.6666666666666666  0.3809523809523809
  0.2222222222222223  0.9166666666666666  0.3809523809523809
  0.5555555555555556  0.9166666666666666  0.3809523809523809
  0.8888888888888888  0.9166666666666666  0.3809523809523809
  0.0000000000000000  0.0000000000000000  0.4285714285714285
  0.7777777777777778  0.8333333333333333  0.3333333333333333
  0.3333333333333333  0.0000000000000000  0.4285714285714285
  0.0000000000000000  0.2500000000000000  0.4285714285714285
  0.3333333333333333  0.2500000000000000  0.4285714285714285
  0.6666666666666666  0.2500000000000000  0.4285714285714285
  0.0000000000000000  0.4999999999999999  0.4285714285714285
  0.3333333333333334  0.4999999999999999  0.4285714285714285
  0.6666666666666666  0.4999999999999999  0.4285714285714285
  0.0000000000000000  0.7500000000000000  0.4285714285714285
  0.3333333333333333  0.7500000000000000  0.4285714285714285
  0.6666666666666666  0.7500000000000000  0.4285714285714285
  0.2222222222222222  0.1666666666666667  0.4761904761904762
  0.5555555555555555  0.1666666666666667  0.4761904761904762
  0.8888888888888886  0.1666666666666667  0.4761904761904762
  0.2222222222222222  0.4166666666666667  0.4761904761904762
  0.6666666666666666  0.0000000000000000  0.4285714285714285
  0.3333333333333333  0.7500000000000000  0.9523809523809523
  0.4444444444444444  0.8333333333333333  0.3333333333333333
  0.7777777777777778  0.5833333333333333  0.3333333333333333
  0.5555555555555555  0.4166666666666667  0.2380952380952381
  0.8888888888888887  0.4166666666666667  0.2380952380952381
  0.2222222222222222  0.6666666666666666  0.2380952380952381
  0.5555555555555556  0.6666666666666666  0.2380952380952381
  0.8888888888888888  0.6666666666666666  0.2380952380952381
  0.2222222222222223  0.9166666666666666  0.2380952380952381
  0.5555555555555556  0.9166666666666666  0.2380952380952381
  0.8888888888888888  0.9166666666666666  0.2380952380952381
  0.0000000000000000  0.0000000000000000  0.2857142857142857
  0.3333333333333333  0.0000000000000000  0.2857142857142857
  0.6666666666666666  0.0000000000000000  0.2857142857142857
  0.0000000000000000  0.2500000000000000  0.2857142857142857
  0.3333333333333333  0.2500000000000000  0.2857142857142857
  0.1111111111111111  0.8333333333333333  0.3333333333333333
  0.6666666666666666  0.2500000000000000  0.2857142857142857
  0.3333333333333334  0.4999999999999999  0.2857142857142857
  0.6666666666666666  0.4999999999999999  0.2857142857142857
  0.0000000000000000  0.7500000000000000  0.2857142857142857
  0.3333333333333333  0.7500000000000000  0.2857142857142857
  0.6666666666666666  0.7500000000000000  0.2857142857142857
  0.1111111111111111  0.0833333333333333  0.3333333333333333
  0.4444444444444443  0.0833333333333333  0.3333333333333333
  0.7777777777777778  0.0833333333333333  0.3333333333333333
  0.1111111111111111  0.3333333333333333  0.3333333333333333
  0.4444444444444444  0.3333333333333333  0.3333333333333333
  0.7777777777777778  0.3333333333333333  0.3333333333333333
  0.1111111111111111  0.5833333333333333  0.3333333333333333
  0.4444444444444444  0.5833333333333333  0.3333333333333333
  0.0000000000000000  0.4999999999999999  0.2857142857142857
  0.6666666666666666  0.7500000000000000  0.9523809523809523
