Cu
 1.0000000000000000
    12.4156949317208340    0.0000000000000000    0.0000000000000000
     0.0000000000000000   19.3987349521444976    0.0000000000000000
     0.0000000000000000    0.0000000000000000   12.7929051326390031
 Cu 
 252
Cartesian
  0.8843862004210454  2.7490570831326764  4.6485142908899038
  0.8264519891090449  4.8361783131326774  3.1738342825219048
  0.9423204117330438  0.6619358631326762  6.1231942992579054
  0.2183188117540445  0.6619358631326762  1.4458379283779039
  0.8254064095430449  2.7490570831326764  2.7910078519679042
  0.4726387409300453  0.6619358631326762  8.9023297500479046
  0.2183188117540445  0.6619358631326762 11.4458379283779035
  0.8254064095430449  2.7490570831326764 12.7910078519679029
  0.8843862004210454 11.0975419831326807  4.6485142908899038
  0.8264519891090449  9.0104207531326814  3.1738342825219048
  0.8843862004210454 17.3589056531326804  4.6485142908899038
  0.8264519891090449 15.2717844231326811  3.1738342825219048
  0.9423204117330438  6.9232995331326803  6.1231942992579054
  0.9423204117330438 13.1846632031326791  6.1231942992579054
  0.2183188117540445  6.9232995331326803  1.4458379283779039
  0.2183188117540445 13.1846632031326791  1.4458379283779039
  0.8254064095430449 11.0975419831326807  2.7910078519679042
  0.8254064095430449 17.3589056531326804  2.7910078519679042
  0.4726387409300453  6.9232995331326803  8.9023297500479046
  0.4726387409300453 13.1846632031326791  8.9023297500479046
  0.2183188117540445  6.9232995331326803 11.4458379283779035
  0.2183188117540445 13.1846632031326791 11.4458379283779035
  0.8254064095430449 11.0975419831326807 12.7910078519679029
  0.8254064095430449 17.3589056531326804 12.7910078519679029
  7.2989050399260478  4.8361783131326774  5.1349918069319047
  7.2409708286150467  0.6619358631326762  3.6603117985639049
  7.3568392512380445  2.7490570831326764  6.6096718152999037
  5.9928275913410456  2.7490570831326764  4.4478242962229073
  5.9348933800290444  4.8361783131326774  2.9731442878549048
  4.7446843444670455  4.8361783131326774  5.2353368042659056
  4.6288159218430449  2.7490570831326764  2.2859767875299037
  5.8769591687170450  0.6619358631326762  1.4984642794859044
  4.6867501331550461  0.6619358631326762  3.7606567958979031
  6.1086960139640469  4.8361783131326774  7.3971843129589043
  4.8026185557790448  2.7490570831326764  6.7100168126339037
  6.0507618026520449  0.6619358631326762  5.9225043045909054
  3.4386068958810450  2.7490570831326764  4.5481692935559037
  3.3806726845690456  4.8361783131326774  3.0734892851879039
  2.1904636490070453  4.8361783131326774  5.3356818015999039
  2.1325294376950445  0.6619358631326762  3.8610017932319032
  3.5544753185040454  4.8361783131326774  7.4975293102919043
  2.2483978603190455  2.7490570831326764  6.8103618099679037
  3.4965411071930448  0.6619358631326762  6.0228493019239036
 10.8843862004210443  2.7490570831326764  4.6485142908899038
 10.8264519891090476  4.8361783131326774  3.1738342825219048
  9.6362429535470433  4.8361783131326774  5.4360267989329047
  9.5783087422350466  0.6619358631326762  3.9613467905649040
 10.9423204117330446  0.6619358631326762  6.1231942992579054
  8.3301655049610464  2.7490570831326764  4.7488592882239047
  1.3340462678950449  2.7490570831326764  7.7039914953089035
  9.8655511341850435  4.8361783131326774  7.5571598155129038
  8.3970560004760451  0.6619358631326762  7.4103281357159050
  7.2813285443350475  4.8361783131326774  1.1521745687849043
  1.0797263387190446  2.7490570831326764  0.2474996736389037
  9.6112312050090463  4.8361783131326774  0.1006679938419035
  1.6868139454640452  4.8361783131326774  1.5926696081739036
  8.7498236780440468  2.7490570831326764  1.2990062485809042
 10.2183188117540471  0.6619358631326762  1.4458379283779039
  5.4852117398480447  2.7490570831326764  0.6879947130279036
  4.0167166061380444  4.8361783131326774  0.5411630332319035
  3.1553090791730449  2.7490570831326764  1.7395012879709040
  2.5482214724290446  0.6619358631326762  0.3943313534349038
 10.8254064095430458  2.7490570831326764  2.7910078519679042
  9.3569112758340438  4.8361783131326774  2.6441761721719033
  8.4955037488690444  2.7490570831326764  3.8425144269109039
  7.8884161421240462  0.6619358631326762  2.4973444923749040
  4.6288159218430449  2.7490570831326764 12.2859767875299024
  5.8769591687170450  0.6619358631326762 11.4984642794859031
  6.1666302252760454  2.7490570831326764  8.8718643213269068
  4.8605527670900459  0.6619358631326762  8.1846968210019035
  7.5356484735110483  4.8361783131326774  8.6086663904559053
  1.9411338746400446  4.8361783131326774  9.0491614298449043
  9.0041436072200476  2.7490570831326764  8.7554980702519032
 10.4726387409300479  0.6619358631326762  8.9023297500479046
  3.4096290083490457  2.7490570831326764  9.1959931096409040
  4.8781241420590451  0.6619358631326762  9.3428247894379037
  6.6742409375900467  2.7490570831326764  9.8070046342489032
  7.2813285443350475  4.8361783131326774 11.1521745687849076
  1.0797263387190446  2.7490570831326764 10.2474996736389041
  9.6112312050090463  4.8361783131326774 10.1006679938419044
  1.6868139454640452  4.8361783131326774 11.5926696081739031
  8.7498236780440468  2.7490570831326764 11.2990062485809055
  8.1427360713000443  0.6619358631326762  9.9538363140459065
 10.2183188117540471  0.6619358631326762 11.4458379283779035
  5.4852117398480447  2.7490570831326764 10.6879947130279032
  4.0167166061380444  4.8361783131326774 10.5411630332319035
  3.1553090791730449  2.7490570831326764 11.7395012879709046
  2.5482214724290446  0.6619358631326762 10.3943313534349056
 10.8254064095430458  2.7490570831326764 12.7910078519679029
  9.3569112758340438  4.8361783131326774 12.6441761721719050
  7.8884161421240462  0.6619358631326762 12.4973444923749035
  7.2409708286150467  6.9232995331326803  3.6603117985639049
  7.2989050399260478  9.0104207531326814  5.1349918069319047
  7.2409708286150467 13.1846632031326791  3.6603117985639049
  7.2989050399260478 15.2717844231326811  5.1349918069319047
  7.3568392512380445 11.0975419831326807  6.6096718152999037
  7.3568392512380445 17.3589056531326804  6.6096718152999037
  5.8769591687170450  6.9232995331326803  1.4984642794859044
  5.9928275913410456 11.0975419831326807  4.4478242962229073
  5.9348933800290444  9.0104207531326814  2.9731442878549048
  4.6867501331550461  6.9232995331326803  3.7606567958979031
  4.7446843444670455  9.0104207531326814  5.2353368042659056
  4.6288159218430449 11.0975419831326807  2.2859767875299037
  5.8769591687170450 13.1846632031326791  1.4984642794859044
  5.9928275913410456 17.3589056531326804  4.4478242962229073
  5.9348933800290444 15.2717844231326811  2.9731442878549048
  4.6867501331550461 13.1846632031326791  3.7606567958979031
  4.7446843444670455 15.2717844231326811  5.2353368042659056
  4.6288159218430449 17.3589056531326804  2.2859767875299037
  6.0507618026520449  6.9232995331326803  5.9225043045909054
  6.1086960139640469  9.0104207531326814  7.3971843129589043
  4.8026185557790448 11.0975419831326807  6.7100168126339037
  6.0507618026520449 13.1846632031326791  5.9225043045909054
  6.1086960139640469 15.2717844231326811  7.3971843129589043
  4.8026185557790448 17.3589056531326804  6.7100168126339037
  3.4386068958810450 11.0975419831326807  4.5481692935559037
  3.3806726845690456  9.0104207531326814  3.0734892851879039
  2.1325294376950445  6.9232995331326803  3.8610017932319032
  2.1904636490070453  9.0104207531326814  5.3356818015999039
  3.4386068958810450 17.3589056531326804  4.5481692935559037
  3.3806726845690456 15.2717844231326811  3.0734892851879039
  2.1325294376950445 13.1846632031326791  3.8610017932319032
  2.1904636490070453 15.2717844231326811  5.3356818015999039
  3.4965411071930448  6.9232995331326803  6.0228493019239036
  3.5544753185040454  9.0104207531326814  7.4975293102919043
  2.2483978603190455 11.0975419831326807  6.8103618099679037
  3.4965411071930448 13.1846632031326791  6.0228493019239036
  3.5544753185040454 15.2717844231326811  7.4975293102919043
  2.2483978603190455 17.3589056531326804  6.8103618099679037
 10.8843862004210443 11.0975419831326807  4.6485142908899038
 10.8264519891090476  9.0104207531326814  3.1738342825219048
  9.5783087422350466  6.9232995331326803  3.9613467905649040
  9.6362429535470433  9.0104207531326814  5.4360267989329047
 10.8843862004210443 17.3589056531326804  4.6485142908899038
 10.8264519891090476 15.2717844231326811  3.1738342825219048
  9.5783087422350466 13.1846632031326791  3.9613467905649040
  9.6362429535470433 15.2717844231326811  5.4360267989329047
 10.9423204117330446  6.9232995331326803  6.1231942992579054
 10.9423204117330446 13.1846632031326791  6.1231942992579054
  8.3301655049610464 11.0975419831326807  4.7488592882239047
  8.3301655049610464 17.3589056531326804  4.7488592882239047
  8.3970560004760451  6.9232995331326803  7.4103281357159050
  1.3340462678950449 11.0975419831326807  7.7039914953089035
  9.8655511341850435  9.0104207531326814  7.5571598155129038
  8.3970560004760451 13.1846632031326791  7.4103281357159050
  1.3340462678950449 17.3589056531326804  7.7039914953089035
  9.8655511341850435 15.2717844231326811  7.5571598155129038
  7.2813285443350475  9.0104207531326814  1.1521745687849043
  7.2813285443350475 15.2717844231326811  1.1521745687849043
  1.0797263387190446 11.0975419831326807  0.2474996736389037
  9.6112312050090463  9.0104207531326814  0.1006679938419035
 10.2183188117540471  6.9232995331326803  1.4458379283779039
  1.6868139454640452  9.0104207531326814  1.5926696081739036
  8.7498236780440468 11.0975419831326807  1.2990062485809042
  1.0797263387190446 17.3589056531326804  0.2474996736389037
  9.6112312050090463 15.2717844231326811  0.1006679938419035
 10.2183188117540471 13.1846632031326791  1.4458379283779039
  1.6868139454640452 15.2717844231326811  1.5926696081739036
  8.7498236780440468 17.3589056531326804  1.2990062485809042
  2.5482214724290446  6.9232995331326803  0.3943313534349038
  5.4852117398480447 11.0975419831326807  0.6879947130279036
  4.0167166061380444  9.0104207531326814  0.5411630332319035
  3.1553090791730449 11.0975419831326807  1.7395012879709040
  2.5482214724290446 13.1846632031326791  0.3943313534349038
  5.4852117398480447 17.3589056531326804  0.6879947130279036
  4.0167166061380444 15.2717844231326811  0.5411630332319035
  3.1553090791730449 17.3589056531326804  1.7395012879709040
  7.8884161421240462  6.9232995331326803  2.4973444923749040
 10.8254064095430458 11.0975419831326807  2.7910078519679042
  9.3569112758340438  9.0104207531326814  2.6441761721719033
  8.4955037488690444 11.0975419831326807  3.8425144269109039
  7.8884161421240462 13.1846632031326791  2.4973444923749040
 10.8254064095430458 17.3589056531326804  2.7910078519679042
  9.3569112758340438 15.2717844231326811  2.6441761721719033
  8.4955037488690444 17.3589056531326804  3.8425144269109039
  5.8769591687170450  6.9232995331326803 11.4984642794859031
  4.6288159218430449 11.0975419831326807 12.2859767875299024
  5.8769591687170450 13.1846632031326791 11.4984642794859031
  4.6288159218430449 17.3589056531326804 12.2859767875299024
  6.1666302252760454 11.0975419831326807  8.8718643213269068
  4.8605527670900459  6.9232995331326803  8.1846968210019035
  6.1666302252760454 17.3589056531326804  8.8718643213269068
  4.8605527670900459 13.1846632031326791  8.1846968210019035
  7.5356484735110483  9.0104207531326814  8.6086663904559053
  7.5356484735110483 15.2717844231326811  8.6086663904559053
 10.4726387409300479  6.9232995331326803  8.9023297500479046
  1.9411338746400446  9.0104207531326814  9.0491614298449043
  9.0041436072200476 11.0975419831326807  8.7554980702519032
 10.4726387409300479 13.1846632031326791  8.9023297500479046
  1.9411338746400446 15.2717844231326811  9.0491614298449043
  9.0041436072200476 17.3589056531326804  8.7554980702519032
  4.8781241420590451  6.9232995331326803  9.3428247894379037
  3.4096290083490457 11.0975419831326807  9.1959931096409040
  4.8781241420590451 13.1846632031326791  9.3428247894379037
  3.4096290083490457 17.3589056531326804  9.1959931096409040
  6.6742409375900467 11.0975419831326807  9.8070046342489032
  7.2813285443350475  9.0104207531326814 11.1521745687849076
  6.6742409375900467 17.3589056531326804  9.8070046342489032
  7.2813285443350475 15.2717844231326811 11.1521745687849076
  8.1427360713000443  6.9232995331326803  9.9538363140459065
  1.0797263387190446 11.0975419831326807 10.2474996736389041
  9.6112312050090463  9.0104207531326814 10.1006679938419044
 10.2183188117540471  6.9232995331326803 11.4458379283779035
  1.6868139454640452  9.0104207531326814 11.5926696081739031
  8.7498236780440468 11.0975419831326807 11.2990062485809055
  8.1427360713000443 13.1846632031326791  9.9538363140459065
  1.0797263387190446 17.3589056531326804 10.2474996736389041
  9.6112312050090463 15.2717844231326811 10.1006679938419044
 10.2183188117540471 13.1846632031326791 11.4458379283779035
  1.6868139454640452 15.2717844231326811 11.5926696081739031
  8.7498236780440468 17.3589056531326804 11.2990062485809055
  2.5482214724290446  6.9232995331326803 10.3943313534349056
  5.4852117398480447 11.0975419831326807 10.6879947130279032
  4.0167166061380444  9.0104207531326814 10.5411630332319035
  3.1553090791730449 11.0975419831326807 11.7395012879709046
  2.5482214724290446 13.1846632031326791 10.3943313534349056
  5.4852117398480447 17.3589056531326804 10.6879947130279032
  4.0167166061380444 15.2717844231326811 10.5411630332319035
  3.1553090791730449 17.3589056531326804 11.7395012879709046
  7.8884161421240462  6.9232995331326803 12.4973444923749035
 10.8254064095430458 11.0975419831326807 12.7910078519679029
  9.3569112758340438  9.0104207531326814 12.6441761721719050
  7.8884161421240462 13.1846632031326791 12.4973444923749035
 10.8254064095430458 17.3589056531326804 12.7910078519679029
  9.3569112758340438 15.2717844231326811 12.6441761721719050
 12.1904636490070448  4.8361783131326774  5.3356818015999039
 12.1325294376950445  0.6619358631326762  3.8610017932319032
 12.2483978603190469  2.7490570831326764  6.8103618099679037
 11.3340462678950438  2.7490570831326764  7.7039914953089035
 11.0797263387190466  2.7490570831326764  0.2474996736389037
 11.6868139454640474  4.8361783131326774  1.5926696081739036
 11.9411338746400482  4.8361783131326774  9.0491614298449043
 11.0797263387190466  2.7490570831326764 10.2474996736389041
 11.6868139454640474  4.8361783131326774 11.5926696081739031
 12.1325294376950445  6.9232995331326803  3.8610017932319032
 12.1904636490070448  9.0104207531326814  5.3356818015999039
 12.1325294376950445 13.1846632031326791  3.8610017932319032
 12.1904636490070448 15.2717844231326811  5.3356818015999039
 12.2483978603190469 11.0975419831326807  6.8103618099679037
 12.2483978603190469 17.3589056531326804  6.8103618099679037
 11.3340462678950438 11.0975419831326807  7.7039914953089035
 11.3340462678950438 17.3589056531326804  7.7039914953089035
 11.0797263387190466 11.0975419831326807  0.2474996736389037
 11.6868139454640474  9.0104207531326814  1.5926696081739036
 11.0797263387190466 17.3589056531326804  0.2474996736389037
 11.6868139454640474 15.2717844231326811  1.5926696081739036
 11.9411338746400482  9.0104207531326814  9.0491614298449043
 11.9411338746400482 15.2717844231326811  9.0491614298449043
 11.0797263387190466 11.0975419831326807 10.2474996736389041
 11.6868139454640474  9.0104207531326814 11.5926696081739031
 11.0797263387190466 17.3589056531326804 10.2474996736389041
 11.6868139454640474 15.2717844231326811 11.5926696081739031
