Cu
 1.0000000000000000
    14.5363272905379031    0.0000000000000000    0.0000000000000000
     0.0000000000000000   12.2884786742189096    0.0000000000000000
     0.0000000000000000    0.0000000000000000   15.3472003532548840
 Cu 
 236
Cartesian
  2.0755657064829807  1.0990130650805572  1.2858304796163598
  0.6070705727739804  5.2732555150805567  1.1389987998193605
  2.0755657064829807  7.3603767350805578  1.2858304796163598
  0.6070705727739804 11.5346191850805582  1.1389987998193605
  3.0944007727189806  3.1861342950805569  8.3771849549933606
  3.0364665614069803  1.0990130650805572  6.9025049466253616
  1.8462575258449803  1.0990130650805572  9.1646974630363633
  3.0944007727189806  9.4474979650805579  8.3771849549933606
  3.0364665614069803  7.3603767350805578  6.9025049466253616
  1.7883233145329802  5.2732555150805567  7.6900174546683608
  1.8462575258449803  7.3603767350805578  9.1646974630363633
  1.7883233145329802 11.5346191850805582  7.6900174546683608
  3.1523349840309800  5.2732555150805567  9.8518649633613631
  3.1523349840309800 11.5346191850805582  9.8518649633613631
  0.5401800772589809  3.1861342950805569  8.4775299523273642
  0.5401800772589809  9.4474979650805579  8.4775299523273642
  2.0755657064829807  1.0990130650805572 11.2858304796163598
  1.2141581795179812  3.1861342950805569  2.4841687343553596
  0.6070705727739804  5.2732555150805567 11.1389987998193636
  2.0755657064829807  7.3603767350805578 11.2858304796163598
  2.6826533132279815  5.2732555150805567  2.6310004141513597
  1.2141581795179812  9.4474979650805579  2.4841687343553596
  0.6070705727739804 11.5346191850805582 11.1389987998193636
  2.6826533132279815 11.5346191850805582  2.6310004141513597
  1.8212457773069817  1.0990130650805572  3.8293386579453603
  0.9598382503419802  3.1861342950805569  5.0276769126843597
  0.3527506435979806  5.2732555150805567  3.6825069781493607
  1.8212457773069817  7.3603767350805578  3.8293386579453603
  2.4283333840519807  5.2732555150805567  5.1745085924813612
  0.9598382503419802  9.4474979650805579  5.0276769126843597
  0.3527506435979806 11.5346191850805582  3.6825069781493607
  2.4283333840519807 11.5346191850805582  5.1745085924813612
  3.0354209818409803  3.1861342950805569  6.5196785160713606
  1.5669258481319805  1.0990130650805572  6.3728468362753610
  0.7055183211669807  3.1861342950805569  7.5711850910143594
  0.0984307144219816  5.2732555150805567  6.2260151564783595
  3.0354209818409803  9.4474979650805579  6.5196785160713606
  1.5669258481319805  7.3603767350805578  6.3728468362753610
  0.7055183211669807  9.4474979650805579  7.5711850910143594
  0.0984307144219816 11.5346191850805582  6.2260151564783595
  1.2141581795179812  3.1861342950805569 12.4841687343553591
  2.6826533132279815  5.2732555150805567 12.6310004141513605
  1.2141581795179812  9.4474979650805579 12.4841687343553591
  2.6826533132279815 11.5346191850805582 12.6310004141513605
  1.8212457773069817  1.0990130650805572 13.8293386579453603
  0.9598382503419802  3.1861342950805569 15.0276769126843597
  0.3527506435979806  5.2732555150805567 13.6825069781493642
  1.8212457773069817  7.3603767350805578 13.8293386579453603
  2.4283333840519807  5.2732555150805567 15.1745085924813630
  0.9598382503419802  9.4474979650805579 15.0276769126843597
  0.3527506435979806 11.5346191850805582 13.6825069781493642
  2.4283333840519807 11.5346191850805582 15.1745085924813630
  9.5668538235359808  3.1861342950805569  0.3383424794033588
  9.5668538235359808  9.4474979650805579  0.3383424794033588
  8.3187105862619788  1.0990130650805572  1.1258549770623603
  7.0126331280769794  3.1861342950805569  0.4386874767373589
  8.3187105862619788  7.3603767350805578  1.1258549770623603
  7.0126331280769794  9.4474979650805579  0.4386874767373589
  5.7644898908019790  1.0990130650805572  1.2261999743953607
  4.4584124326169814  3.1861342950805569  0.5390324740713588
  5.7644898908019790  7.3603767350805578  1.2261999743953607
  4.4584124326169814  9.4474979650805579  0.5390324740713588
  3.5440608401929801  3.1861342950805569  1.4326621594123596
 12.0755657064829762  1.0990130650805572  1.2858304796163598
 10.6070705727739814  5.2732555150805567  1.1389987998193605
  3.5440608401929801  9.4474979650805579  1.4326621594123596
 12.0755657064829762  7.3603767350805578  1.2858304796163598
 10.6070705727739814 11.5346191850805582  1.1389987998193605
  9.5089196122239823  1.0990130650805572  8.8636624710353615
  9.4509854009129839  5.2732555150805567  7.3889824626673608
  9.5089196122239823  7.3603767350805578  8.8636624710353615
  9.4509854009129839 11.5346191850805582  7.3889824626673608
  9.5668538235359808  3.1861342950805569 10.3383424794033623
  9.5668538235359808  9.4474979650805579 10.3383424794033623
  8.2028421636389801  3.1861342950805569  8.1764949603263624
  8.1449079523269816  1.0990130650805572  6.7018149519583599
  6.9546989167649791  1.0990130650805572  8.9640074683693651
  6.8388304941409794  3.1861342950805569  6.0146474516333592
  8.0869737410149796  5.2732555150805567  5.2271349435893599
  8.2028421636389801  9.4474979650805579  8.1764949603263624
  8.1449079523269816  7.3603767350805578  6.7018149519583599
  6.8967647054529806  5.2732555150805567  7.4893274600013608
  6.9546989167649791  7.3603767350805578  8.9640074683693651
  6.8388304941409794  9.4474979650805579  6.0146474516333592
  8.0869737410149796 11.5346191850805582  5.2271349435893599
  6.8967647054529806 11.5346191850805582  7.4893274600013608
  8.3766447975739773  3.1861342950805569  2.6005349854303597
  8.3187105862619788  1.0990130650805572 11.1258549770623603
  7.0126331280769794  3.1861342950805569 10.4386874767373588
  8.2607763749499767  5.2732555150805567  9.6511749686943595
  8.3766447975739773  9.4474979650805579  2.6005349854303597
  8.3187105862619788  7.3603767350805578 11.1258549770623603
  7.0705673393879813  5.2732555150805567  1.9133674851053599
  7.0126331280769794  9.4474979650805579 10.4386874767373588
  8.2607763749499767 11.5346191850805582  9.6511749686943595
  7.0705673393879813 11.5346191850805582  1.9133674851053599
  5.6486214681789813  3.1861342950805569  8.2768399576593588
  5.5906872568669810  1.0990130650805572  6.8021599492913598
  4.4004782213049811  1.0990130650805572  9.0643524657033598
  5.6486214681789813  9.4474979650805579  8.2768399576593588
  5.5906872568669810  7.3603767350805578  6.8021599492913598
  4.3425440099929808  5.2732555150805567  7.5896724573353609
  4.4004782213049811  7.3603767350805578  9.0643524657033598
  4.3425440099929808 11.5346191850805582  7.5896724573353609
  5.7644898908019790  1.0990130650805572 11.2261999743953638
  4.4584124326169814  3.1861342950805569 10.5390324740713623
  5.7065556794909806  5.2732555150805567  9.7515199660273595
  5.7644898908019790  7.3603767350805578 11.2261999743953638
  4.4584124326169814  9.4474979650805579 10.5390324740713623
  5.7065556794909806 11.5346191850805582  9.7515199660273595
 13.0944007727189771  3.1861342950805569  8.3771849549933606
 13.0364665614069786  1.0990130650805572  6.9025049466253616
 11.8462575258449760  1.0990130650805572  9.1646974630363633
 13.0944007727189771  9.4474979650805579  8.3771849549933606
 13.0364665614069786  7.3603767350805578  6.9025049466253616
 11.7883233145329775  5.2732555150805567  7.6900174546683608
 11.8462575258449760  7.3603767350805578  9.1646974630363633
 11.7883233145329775 11.5346191850805582  7.6900174546683608
 13.1523349840309756  5.2732555150805567  9.8518649633613631
 13.1523349840309756 11.5346191850805582  9.8518649633613631
 10.5401800772589809  3.1861342950805569  8.4775299523273642
 10.5401800772589809  9.4474979650805579  8.4775299523273642
  9.7456630458089784  1.0990130650805572  2.3373370545593595
  9.7456630458089784  7.3603767350805578  2.3373370545593595
  3.5440608401929801  3.1861342950805569 11.4326621594123594
 12.0755657064829762  1.0990130650805572 11.2858304796163598
  4.1511484469379809  1.0990130650805572  2.7778320939483607
 11.2141581795179786  3.1861342950805569  2.4841687343553596
 10.6070705727739814  5.2732555150805567 11.1389987998193636
  3.5440608401929801  9.4474979650805579 11.4326621594123594
 12.0755657064829762  7.3603767350805578 11.2858304796163598
 12.6826533132279771  5.2732555150805567  2.6310004141513597
  4.1511484469379809  7.3603767350805578  2.7778320939483607
 11.2141581795179786  9.4474979650805579  2.4841687343553596
 10.6070705727739814 11.5346191850805582 11.1389987998193636
 12.6826533132279771 11.5346191850805582  2.6310004141513597
  5.6196435806469811  3.1861342950805569  2.9246637737443604
  7.0881387143569796  5.2732555150805567  3.0714954535413606
  5.6196435806469811  9.4474979650805579  2.9246637737443604
  7.0881387143569796 11.5346191850805582  3.0714954535413606
  8.8842555098879821  3.1861342950805569  3.5356752983523601
  9.4913431166329829  1.0990130650805572  4.8808452328883618
  8.8842555098879821  9.4474979650805579  3.5356752983523601
  9.4913431166329829  7.3603767350805578  4.8808452328883618
  3.2897409110169802  3.1861342950805569  3.9761703377423596
 11.8212457773069808  1.0990130650805572  3.8293386579453603
  3.8968285177619806  1.0990130650805572  5.3213402722773591
 10.9598382503419813  3.1861342950805569  5.0276769126843597
 10.3527506435979770  5.2732555150805567  3.6825069781493607
  3.2897409110169802  9.4474979650805579  3.9761703377423596
 11.8212457773069808  7.3603767350805578  3.8293386579453603
 12.4283333840519798  5.2732555150805567  5.1745085924813612
  3.8968285177619806  7.3603767350805578  5.3213402722773591
 10.9598382503419813  9.4474979650805579  5.0276769126843597
 10.3527506435979770 11.5346191850805582  3.6825069781493607
 12.4283333840519798 11.5346191850805582  5.1745085924813612
  7.6952263121459801  3.1861342950805569  4.4166653771313591
  6.2267311784359789  1.0990130650805572  4.2698336973353612
  5.3653236514709786  3.1861342950805569  5.4681719520743615
  4.7582360447269814  5.2732555150805567  4.1230020175383597
  7.6952263121459801  9.4474979650805579  4.4166653771313591
  6.2267311784359789  7.3603767350805578  4.2698336973353612
  5.3653236514709786  9.4474979650805579  5.4681719520743615
  4.7582360447269814 11.5346191850805582  4.1230020175383597
 13.0354209818409821  3.1861342950805569  6.5196785160713606
 11.5669258481319783  1.0990130650805572  6.3728468362753610
 10.7055183211669807  3.1861342950805569  7.5711850910143594
 10.0984307144219816  5.2732555150805567  6.2260151564783595
 13.0354209818409821  9.4474979650805579  6.5196785160713606
 11.5669258481319783  7.3603767350805578  6.3728468362753610
 10.7055183211669807  9.4474979650805579  7.5711850910143594
 10.0984307144219816 11.5346191850805582  6.2260151564783595
  8.0869737410149796  5.2732555150805567 15.2271349435893590
  8.0869737410149796 11.5346191850805582 15.2271349435893590
  8.3766447975739773  3.1861342950805569 12.6005349854303628
  8.3766447975739773  9.4474979650805579 12.6005349854303628
  7.0705673393879813  5.2732555150805567 11.9133674851053630
  7.0705673393879813 11.5346191850805582 11.9133674851053630
  9.7456630458089784  1.0990130650805572 12.3373370545593630
  9.7456630458089784  7.3603767350805578 12.3373370545593630
  4.1511484469379809  1.0990130650805572 12.7778320939483638
 11.2141581795179786  3.1861342950805569 12.4841687343553591
 12.6826533132279771  5.2732555150805567 12.6310004141513605
  4.1511484469379809  7.3603767350805578 12.7778320939483638
 11.2141581795179786  9.4474979650805579 12.4841687343553591
 12.6826533132279771 11.5346191850805582 12.6310004141513605
  5.6196435806469811  3.1861342950805569 12.9246637737443599
  7.0881387143569796  5.2732555150805567 13.0714954535413597
  5.6196435806469811  9.4474979650805579 12.9246637737443599
  7.0881387143569796 11.5346191850805582 13.0714954535413597
  8.8842555098879821  3.1861342950805569 13.5356752983523609
  9.4913431166329829  1.0990130650805572 14.8808452328883636
  8.8842555098879821  9.4474979650805579 13.5356752983523609
  9.4913431166329829  7.3603767350805578 14.8808452328883636
  3.2897409110169802  3.1861342950805569 13.9761703377423601
 11.8212457773069808  1.0990130650805572 13.8293386579453603
  3.8968285177619806  1.0990130650805572 15.3213402722773626
 10.9598382503419813  3.1861342950805569 15.0276769126843597
 10.3527506435979770  5.2732555150805567 13.6825069781493642
  3.2897409110169802  9.4474979650805579 13.9761703377423601
 11.8212457773069808  7.3603767350805578 13.8293386579453603
 12.4283333840519798  5.2732555150805567 15.1745085924813630
  3.8968285177619806  7.3603767350805578 15.3213402722773626
 10.9598382503419813  9.4474979650805579 15.0276769126843597
 10.3527506435979770 11.5346191850805582 13.6825069781493642
 12.4283333840519798 11.5346191850805582 15.1745085924813630
  7.6952263121459801  3.1861342950805569 14.4166653771313591
  6.2267311784359789  1.0990130650805572 14.2698336973353630
  4.7582360447269814  5.2732555150805567 14.1230020175383633
  7.6952263121459801  9.4474979650805579 14.4166653771313591
  6.2267311784359789  7.3603767350805578 14.2698336973353630
  4.7582360447269814 11.5346191850805582 14.1230020175383633
 14.4584124326169814  3.1861342950805569  0.5390324740713588
 14.4584124326169814  9.4474979650805579  0.5390324740713588
 13.5440608401929801  3.1861342950805569  1.4326621594123596
 13.5440608401929801  9.4474979650805579  1.4326621594123596
 14.4004782213049793  1.0990130650805572  9.0643524657033598
 14.3425440099929808  5.2732555150805567  7.5896724573353609
 14.4004782213049793  7.3603767350805578  9.0643524657033598
 14.3425440099929808 11.5346191850805582  7.5896724573353609
 14.4584124326169814  3.1861342950805569 10.5390324740713623
 14.4584124326169814  9.4474979650805579 10.5390324740713623
 13.5440608401929801  3.1861342950805569 11.4326621594123594
 14.1511484469379809  1.0990130650805572  2.7778320939483607
 13.5440608401929801  9.4474979650805579 11.4326621594123594
 14.1511484469379809  7.3603767350805578  2.7778320939483607
 13.2897409110169775  3.1861342950805569  3.9761703377423596
 13.8968285177619784  1.0990130650805572  5.3213402722773591
 13.2897409110169775  9.4474979650805579  3.9761703377423596
 13.8968285177619784  7.3603767350805578  5.3213402722773591
 14.1511484469379809  1.0990130650805572 12.7778320939483638
 14.1511484469379809  7.3603767350805578 12.7778320939483638
 13.2897409110169775  3.1861342950805569 13.9761703377423601
 13.8968285177619784  1.0990130650805572 15.3213402722773626
 13.2897409110169775  9.4474979650805579 13.9761703377423601
 13.8968285177619784  7.3603767350805578 15.3213402722773626
