Cu
 1.0000000000000000
    14.2510711361759732    0.0000000000000000    0.0000000000000000
     0.0000000000000000   14.3487500621334689    0.0000000000000000
     0.0000000000000000    0.0000000000000000   17.2953321178151604
 Cu 
 289
Cartesian
  4.9200918966483274  1.5163756760793961  5.1377634205149212
  4.8621576853373289  5.6906181260793955  3.6630834121469213
  4.9200918966483274  7.7777393460793967  5.1377634205149212
  4.8621576853373289 11.9519817960793961  3.6630834121469213
  4.9200918966483274 14.0391030160793964  5.1377634205149212
  4.9780261079603276  3.6034969060793962  6.6124434288829192
  4.9780261079603276  9.8648605760793959  6.6124434288829192
  3.6140144480633265  3.6034969060793962  4.4505959098059220
  3.5560802367513258  1.5163756760793961  2.9759159014379204
  2.3658712011893259  1.5163756760793961  5.2381084178489221
  2.2500027785653267  3.6034969060793962  2.2887484011129198
  3.4981460254393264  5.6906181260793955  1.5012358930689205
  3.6140144480633265  9.8648605760793959  4.4505959098059220
  3.5560802367513258  7.7777393460793967  2.9759159014379204
  2.3079369898773270  5.6906181260793955  3.7634284094809196
  2.3658712011893259  7.7777393460793967  5.2381084178489221
  2.2500027785653267  9.8648605760793959  2.2887484011129198
  3.4981460254393264 11.9519817960793961  1.5012358930689205
  3.5560802367513258 14.0391030160793964  2.9759159014379204
  2.3079369898773270 11.9519817960793961  3.7634284094809196
  2.3658712011893259 14.0391030160793964  5.2381084178489221
  3.7298828706863274  1.5163756760793961  7.3999559265419208
  2.4238054125013266  3.6034969060793962  6.7127884262169193
  3.6719486593743262  5.6906181260793955  5.9252759181739192
  3.7298828706863274  7.7777393460793967  7.3999559265419208
  2.4238054125013266  9.8648605760793959  6.7127884262169193
  3.6719486593743262 11.9519817960793961  5.9252759181739192
  3.7298828706863274 14.0391030160793964  7.3999559265419208
  1.0597937526033268  3.6034969060793962  4.5509409071389202
  1.0018595412913260  1.5163756760793961  3.0762608987709203
  1.0597937526033268  9.8648605760793959  4.5509409071389202
  1.0018595412913260  7.7777393460793967  3.0762608987709203
  1.0018595412913260 14.0391030160793964  3.0762608987709203
  1.1756621752263259  1.5163756760793961  7.5003009238749208
  1.1177279639153261  5.6906181260793955  6.0256209155069200
  1.1756621752263259  7.7777393460793967  7.5003009238749208
  1.1177279639153261 11.9519817960793961  6.0256209155069200
  1.1756621752263259 14.0391030160793964  7.5003009238749208
  8.5055730571433266  3.6034969060793962  4.6512859044729185
  8.4476388458313298  1.5163756760793961  3.1766058961049204
  7.2574298102693264  1.5163756760793961  5.4387984125159203
  8.5055730571433266  9.8648605760793959  4.6512859044729185
  8.4476388458313298  7.7777393460793967  3.1766058961049204
  7.1994955989573262  5.6906181260793955  3.9641184041479205
  7.2574298102693264  7.7777393460793967  5.4387984125159203
  8.4476388458313298 14.0391030160793964  3.1766058961049204
  7.1994955989573262 11.9519817960793961  3.9641184041479205
  7.2574298102693264 14.0391030160793964  5.4387984125159203
  8.5635072684553251  5.6906181260793955  6.1259659128409201
  8.5635072684553251 11.9519817960793961  6.1259659128409201
  5.9513523616833259  3.6034969060793962  4.7516309018069203
  5.9513523616833259  9.8648605760793959  4.7516309018069203
  7.4867379909073257  1.5163756760793961  7.5599314290959185
  6.0182428571983273  5.6906181260793955  7.4130997492989206
  7.4867379909073257  7.7777393460793967  7.5599314290959185
  6.0182428571983273 11.9519817960793961  7.4130997492989206
  7.4867379909073257 14.0391030160793964  7.5599314290959185
  4.9025154010573280  1.5163756760793961  1.1549461823679201
  4.9025154010573280  7.7777393460793967  1.1549461823679201
  4.9025154010573280 14.0391030160793964  1.1549461823679201
  7.2324180617313267  1.5163756760793961  0.1034396074249200
  6.3710105347663273  3.6034969060793962  1.3017778621639198
  7.2324180617313267  7.7777393460793967  0.1034396074249200
  7.8395056684763267  5.6906181260793955  1.4486095419609200
  6.3710105347663273  9.8648605760793959  1.3017778621639198
  7.2324180617313267 14.0391030160793964  0.1034396074249200
  7.8395056684763267 11.9519817960793961  1.4486095419609200
  3.1063985965703260  3.6034969060793962  0.6907663266109194
  1.6379034628603257  1.5163756760793961  0.5439346468149200
  0.7764959358953258  3.6034969060793962  1.7422729015539202
  0.1694083291513260  5.6906181260793955  0.3971029670179202
  3.1063985965703260  9.8648605760793959  0.6907663266109194
  1.6379034628603257  7.7777393460793967  0.5439346468149200
  0.7764959358953258  9.8648605760793959  1.7422729015539202
  0.1694083291513260 11.9519817960793961  0.3971029670179202
  1.6379034628603257 14.0391030160793964  0.5439346468149200
  8.4465932662653262  3.6034969060793962  2.7937794655509203
  6.9780981325563278  1.5163756760793961  2.6469477857549197
  6.1166906055913275  3.6034969060793962  3.8452860404939200
  5.5096029988463284  5.6906181260793955  2.5001161059579200
  8.4465932662653262  9.8648605760793959  2.7937794655509203
  6.9780981325563278  7.7777393460793967  2.6469477857549197
  6.1166906055913275  9.8648605760793959  3.8452860404939200
  5.5096029988463284 11.9519817960793961  2.5001161059579200
  6.9780981325563278 14.0391030160793964  2.6469477857549197
  4.9200918966483274  1.5163756760793961 15.1377634205149221
  4.8621576853373289  5.6906181260793955 13.6630834121469213
  4.9200918966483274  7.7777393460793967 15.1377634205149221
  4.8621576853373289 11.9519817960793961 13.6630834121469213
  4.9200918966483274 14.0391030160793964 15.1377634205149221
  4.9780261079603276  3.6034969060793962 16.6124434288829192
  4.9780261079603276  9.8648605760793959 16.6124434288829192
  3.6140144480633265  3.6034969060793962 14.4505959098059211
  3.5560802367513258  1.5163756760793961 12.9759159014379204
  2.3658712011893259  1.5163756760793961 15.2381084178489186
  2.2500027785653267  3.6034969060793962 12.2887484011129189
  3.4981460254393264  5.6906181260793955 11.5012358930689196
  3.6140144480633265  9.8648605760793959 14.4505959098059211
  3.5560802367513258  7.7777393460793967 12.9759159014379204
  2.3079369898773270  5.6906181260793955 13.7634284094809178
  2.3658712011893259  7.7777393460793967 15.2381084178489186
  2.2500027785653267  9.8648605760793959 12.2887484011129189
  3.4981460254393264 11.9519817960793961 11.5012358930689196
  3.5560802367513258 14.0391030160793964 12.9759159014379204
  2.3079369898773270 11.9519817960793961 13.7634284094809178
  2.3658712011893259 14.0391030160793964 15.2381084178489186
  3.7878170819983263  3.6034969060793962  8.8746359349099198
  2.4238054125013266  3.6034969060793962 16.7127884262169175
  3.6719486593743262  5.6906181260793955 15.9252759181739183
  3.7878170819983263  9.8648605760793959  8.8746359349099198
  2.4817396238123268  5.6906181260793955  8.1874684345849200
  2.4238054125013266  9.8648605760793959 16.7127884262169175
  3.6719486593743262 11.9519817960793961 15.9252759181739183
  2.4817396238123268 11.9519817960793961  8.1874684345849200
  1.0597937526033268  3.6034969060793962 14.5509409071389157
  1.0018595412913260  1.5163756760793961 13.0762608987709186
  1.0597937526033268  9.8648605760793959 14.5509409071389157
  1.0018595412913260  7.7777393460793967 13.0762608987709186
  1.0018595412913260 14.0391030160793964 13.0762608987709186
  1.1177279639153261  5.6906181260793955 16.0256209155069200
  1.1177279639153261 11.9519817960793961 16.0256209155069200
  8.5055730571433266  3.6034969060793962 14.6512859044729211
  8.4476388458313298  1.5163756760793961 13.1766058961049204
  7.2574298102693264  1.5163756760793961 15.4387984125159203
  8.5055730571433266  9.8648605760793959 14.6512859044729211
  8.4476388458313298  7.7777393460793967 13.1766058961049204
  7.1994955989573262  5.6906181260793955 13.9641184041479214
  7.2574298102693264  7.7777393460793967 15.4387984125159203
  8.4476388458313298 14.0391030160793964 13.1766058961049204
  7.1994955989573262 11.9519817960793961 13.9641184041479214
  7.2574298102693264 14.0391030160793964 15.4387984125159203
  8.5635072684553251  5.6906181260793955 16.1259659128409183
  8.5635072684553251 11.9519817960793961 16.1259659128409183
  5.9513523616833259  3.6034969060793962 14.7516309018069194
  5.9513523616833259  9.8648605760793959 14.7516309018069194
  5.1568353302333296  1.5163756760793961  8.6114380040389200
  5.1568353302333296  7.7777393460793967  8.6114380040389200
  5.1568353302333296 14.0391030160793964  8.6114380040389200
  6.6253304639423263  3.6034969060793962  8.7582696838349197
  8.0938255976523266  5.6906181260793955  8.9051013636309211
  6.6253304639423263  9.8648605760793959  8.7582696838349197
  8.0938255976523266 11.9519817960793961  8.9051013636309211
  1.0308158650713262  3.6034969060793962  9.1987647232239205
  2.4993109987813265  5.6906181260793955  9.3455964030209202
  1.0308158650713262  9.8648605760793959  9.1987647232239205
  2.4993109987813265 11.9519817960793961  9.3455964030209202
  4.2954277943123271  3.6034969060793962  9.8097762478319162
  4.9025154010573280  1.5163756760793961 11.1549461823679206
  4.2954277943123271  9.8648605760793959  9.8097762478319162
  4.9025154010573280  7.7777393460793967 11.1549461823679206
  4.9025154010573280 14.0391030160793964 11.1549461823679206
  7.2324180617313267  1.5163756760793961 10.1034396074249209
  6.3710105347663273  3.6034969060793962 11.3017778621639202
  5.7639229280223274  5.6906181260793955  9.9566079276289212
  7.2324180617313267  7.7777393460793967 10.1034396074249209
  7.8395056684763267  5.6906181260793955 11.4486095419609200
  6.3710105347663273  9.8648605760793959 11.3017778621639202
  5.7639229280223274 11.9519817960793961  9.9566079276289212
  7.2324180617313267 14.0391030160793964 10.1034396074249209
  7.8395056684763267 11.9519817960793961 11.4486095419609200
  3.1063985965703260  3.6034969060793962 10.6907663266109196
  1.6379034628603257  1.5163756760793961 10.5439346468149200
  0.7764959358953258  3.6034969060793962 11.7422729015539211
  0.1694083291513260  5.6906181260793955 10.3971029670179202
  3.1063985965703260  9.8648605760793959 10.6907663266109196
  1.6379034628603257  7.7777393460793967 10.5439346468149200
  0.7764959358953258  9.8648605760793959 11.7422729015539211
  0.1694083291513260 11.9519817960793961 10.3971029670179202
  1.6379034628603257 14.0391030160793964 10.5439346468149200
  8.4465932662653262  3.6034969060793962 12.7937794655509194
  6.9780981325563278  1.5163756760793961 12.6469477857549197
  6.1166906055913275  3.6034969060793962 13.8452860404939209
  5.5096029988463284  5.6906181260793955 12.5001161059579200
  8.4465932662653262  9.8648605760793959 12.7937794655509194
  6.9780981325563278  7.7777393460793967 12.6469477857549197
  6.1166906055913275  9.8648605760793959 13.8452860404939209
  5.5096029988463284 11.9519817960793961 12.5001161059579200
  6.9780981325563278 14.0391030160793964 12.6469477857549197
 13.6140144480633296  3.6034969060793962  4.4505959098059220
 13.5560802367513276  1.5163756760793961  2.9759159014379204
 12.3658712011893250  1.5163756760793961  5.2381084178489221
 12.2500027785653298  3.6034969060793962  2.2887484011129198
 13.4981460254393255  5.6906181260793955  1.5012358930689205
 13.6140144480633296  9.8648605760793959  4.4505959098059220
 13.5560802367513276  7.7777393460793967  2.9759159014379204
 12.3079369898773301  5.6906181260793955  3.7634284094809196
 12.3658712011893250  7.7777393460793967  5.2381084178489221
 12.2500027785653298  9.8648605760793959  2.2887484011129198
 13.4981460254393255 11.9519817960793961  1.5012358930689205
 13.5560802367513276 14.0391030160793964  2.9759159014379204
 12.3079369898773301 11.9519817960793961  3.7634284094809196
 12.3658712011893250 14.0391030160793964  5.2381084178489221
 13.7298828706863318  1.5163756760793961  7.3999559265419208
 12.4238054125013271  3.6034969060793962  6.7127884262169193
 13.6719486593743298  5.6906181260793955  5.9252759181739192
 13.7298828706863318  7.7777393460793967  7.3999559265419208
 12.4238054125013271  9.8648605760793959  6.7127884262169193
 13.6719486593743298 11.9519817960793961  5.9252759181739192
 13.7298828706863318 14.0391030160793964  7.3999559265419208
 11.0597937526033263  3.6034969060793962  4.5509409071389202
 11.0018595412913260  1.5163756760793961  3.0762608987709203
  9.8116505057293288  1.5163756760793961  5.3384534151829186
 11.0597937526033263  9.8648605760793959  4.5509409071389202
 11.0018595412913260  7.7777393460793967  3.0762608987709203
  9.7537162944173286  5.6906181260793955  3.8637734068149197
  9.8116505057293288  7.7777393460793967  5.3384534151829186
 11.0018595412913260 14.0391030160793964  3.0762608987709203
  9.7537162944173286 11.9519817960793961  3.8637734068149197
  9.8116505057293288 14.0391030160793964  5.3384534151829186
 11.1756621752263285  1.5163756760793961  7.5003009238749208
  9.8695847170413256  3.6034969060793962  6.8131334235509193
 11.1177279639153266  5.6906181260793955  6.0256209155069200
 11.1756621752263285  7.7777393460793967  7.5003009238749208
  9.8695847170413256  9.8648605760793959  6.8131334235509193
 11.1177279639153266 11.9519817960793961  6.0256209155069200
 11.1756621752263285 14.0391030160793964  7.5003009238749208
  8.9552331246173260  3.6034969060793962  7.7067631088919182
  8.9552331246173260  9.8648605760793959  7.7067631088919182
  8.7009131954413252  3.6034969060793962  0.2502712872219206
  9.3080008021863279  1.5163756760793961  1.5954412217569196
  8.7009131954413252  9.8648605760793959  0.2502712872219206
  9.3080008021863279  7.7777393460793967  1.5954412217569196
  9.3080008021863279 14.0391030160793964  1.5954412217569196
 13.1063985965703278  3.6034969060793962  0.6907663266109194
 11.6379034628603257  1.5163756760793961  0.5439346468149200
 10.7764959358953298  3.6034969060793962  1.7422729015539202
 10.1694083291513255  5.6906181260793955  0.3971029670179202
 13.1063985965703278  9.8648605760793959  0.6907663266109194
 11.6379034628603257  7.7777393460793967  0.5439346468149200
 10.7764959358953298  9.8648605760793959  1.7422729015539202
 10.1694083291513255 11.9519817960793961  0.3971029670179202
 11.6379034628603257 14.0391030160793964  0.5439346468149200
 13.6140144480633296  3.6034969060793962 14.4505959098059211
 13.5560802367513276  1.5163756760793961 12.9759159014379204
 12.3658712011893250  1.5163756760793961 15.2381084178489186
 12.2500027785653298  3.6034969060793962 12.2887484011129189
 13.4981460254393255  5.6906181260793955 11.5012358930689196
 13.6140144480633296  9.8648605760793959 14.4505959098059211
 13.5560802367513276  7.7777393460793967 12.9759159014379204
 12.3079369898773301  5.6906181260793955 13.7634284094809178
 12.3658712011893250  7.7777393460793967 15.2381084178489186
 12.2500027785653298  9.8648605760793959 12.2887484011129189
 13.4981460254393255 11.9519817960793961 11.5012358930689196
 13.5560802367513276 14.0391030160793964 12.9759159014379204
 12.3079369898773301 11.9519817960793961 13.7634284094809178
 12.3658712011893250 14.0391030160793964 15.2381084178489186
 13.7878170819983268  3.6034969060793962  8.8746359349099198
 12.4238054125013271  3.6034969060793962 16.7127884262169175
 13.6719486593743298  5.6906181260793955 15.9252759181739183
 13.7878170819983268  9.8648605760793959  8.8746359349099198
 12.4817396238123290  5.6906181260793955  8.1874684345849200
 12.4238054125013271  9.8648605760793959 16.7127884262169175
 13.6719486593743298 11.9519817960793961 15.9252759181739183
 12.4817396238123290 11.9519817960793961  8.1874684345849200
 11.0597937526033263  3.6034969060793962 14.5509409071389157
 11.0018595412913260  1.5163756760793961 13.0762608987709186
  9.8116505057293288  1.5163756760793961 15.3384534151829204
 11.0597937526033263  9.8648605760793959 14.5509409071389157
 11.0018595412913260  7.7777393460793967 13.0762608987709186
  9.7537162944173286  5.6906181260793955 13.8637734068149197
  9.8116505057293288  7.7777393460793967 15.3384534151829204
 11.0018595412913260 14.0391030160793964 13.0762608987709186
  9.7537162944173286 11.9519817960793961 13.8637734068149197
  9.8116505057293288 14.0391030160793964 15.3384534151829204
  9.8695847170413256  3.6034969060793962 16.8131334235509193
 11.1177279639153266  5.6906181260793955 16.0256209155069200
  9.8695847170413256  9.8648605760793959 16.8131334235509193
 11.1177279639153266 11.9519817960793961 16.0256209155069200
  9.5623207313623269  1.5163756760793961  9.0519330434279208
  9.5623207313623269  7.7777393460793967  9.0519330434279208
  9.5623207313623269 14.0391030160793964  9.0519330434279208
 11.0308158650713288  3.6034969060793962  9.1987647232239205
 12.4993109987813291  5.6906181260793955  9.3455964030209202
 11.0308158650713288  9.8648605760793959  9.1987647232239205
 12.4993109987813291 11.9519817960793961  9.3455964030209202
  8.7009131954413252  3.6034969060793962 10.2502712872219206
  9.3080008021863279  1.5163756760793961 11.5954412217569196
  8.7009131954413252  9.8648605760793959 10.2502712872219206
  9.3080008021863279  7.7777393460793967 11.5954412217569196
  9.3080008021863279 14.0391030160793964 11.5954412217569196
 13.1063985965703278  3.6034969060793962 10.6907663266109196
 11.6379034628603257  1.5163756760793961 10.5439346468149200
 10.7764959358953298  3.6034969060793962 11.7422729015539211
 10.1694083291513255  5.6906181260793955 10.3971029670179202
 13.1063985965703278  9.8648605760793959 10.6907663266109196
 11.6379034628603257  7.7777393460793967 10.5439346468149200
 10.7764959358953298  9.8648605760793959 11.7422729015539211
 10.1694083291513255 11.9519817960793961 10.3971029670179202
 11.6379034628603257 14.0391030160793964 10.5439346468149200
