Cu
 1.0000000000000000
    18.6990588987605477    0.0000000000000000    0.0000000000000000
     0.0000000000000000   15.9531331721393883    0.0000000000000000
     0.0000000000000000    0.0000000000000000   12.9268537946821471
 Cu 
 295
Cartesian
  0.4753653632165850 14.4515108137487189  0.3920447583970619
  0.4753653632165850  8.1901471437487210  0.3920447583970619
  0.4753653632165850  1.9287834737487164  0.3920447583970619
  0.5332995745285833 12.3643895837487179  1.8667247667650599
  0.5332995745285833  6.1030259137487164  1.8667247667650599
  2.8127032768375830 14.4515108137487189  0.6930797503980610
  2.8127032768375830  8.1901471437487210  0.6930797503980610
  2.8127032768375830  1.9287834737487164  0.6930797503980610
  4.1187807350235826 10.2772683637487141  1.3802472507230605
  4.1187807350235826  4.0159046937487179  1.3802472507230605
  1.5066258282515834 12.3643895837487179  0.0059122396890618
  1.5066258282515834  6.1030259137487164  0.0059122396890618
  3.0420114574755832 14.4515108137487189  2.8142127669780601
  1.5735163237665830 10.2772683637487141  2.6673810871810613
  3.0420114574755832  8.1901471437487210  2.8142127669780601
  1.5735163237665830  4.0159046937487179  2.6673810871810613
  3.0420114574755832  1.9287834737487164  2.8142127669780601
  0.4753653632165850 14.4515108137487189 10.3920447583970592
  0.4174311519055857 10.2772683637487141  8.9173647500290620
  0.4753653632165850  8.1901471437487210 10.3920447583970592
  0.4174311519055857  4.0159046937487179  8.9173647500290620
  0.4753653632165850  1.9287834737487164 10.3920447583970592
  0.5332995745285833 12.3643895837487179 11.8667247667650564
  0.5332995745285833  6.1030259137487164 11.8667247667650564
  4.0608465237115841 12.3643895837487179  9.9055672423550618
  4.0029123123995838 14.4515108137487189  8.4308872339870593
  2.8127032768375830 14.4515108137487189 10.6930797503980592
  4.0608465237115841  6.1030259137487164  9.9055672423550618
  4.0029123123995838  8.1901471437487210  8.4308872339870593
  2.7547690655255828 10.2772683637487141  9.2183997420300621
  2.8127032768375830  8.1901471437487210 10.6930797503980592
  4.0029123123995838  1.9287834737487164  8.4308872339870593
  2.7547690655255828  4.0159046937487179  9.2183997420300621
  2.8127032768375830  1.9287834737487164 10.6930797503980592
  4.1187807350235826 10.2772683637487141 11.3802472507230590
  4.1187807350235826  4.0159046937487179 11.3802472507230590
  1.5066258282515834 12.3643895837487179 10.0059122396890618
  1.5066258282515834  6.1030259137487164 10.0059122396890618
  0.7121087968015853 14.4515108137487189  3.8657193419210607
  0.7121087968015853  8.1901471437487210  3.8657193419210607
  0.7121087968015853  1.9287834737487164  3.8657193419210607
  3.0420114574755832 14.4515108137487189 12.8142127669780610
  2.1806039305105838 12.3643895837487179  4.0125510217170612
  1.5735163237665830 10.2772683637487141 12.6673810871810613
  3.0420114574755832  8.1901471437487210 12.8142127669780610
  3.6490990642205841 10.2772683637487141  4.1593827015130609
  2.1806039305105838  6.1030259137487164  4.0125510217170612
  1.5735163237665830  4.0159046937487179 12.6673810871810613
  3.0420114574755832  1.9287834737487164 12.8142127669780610
  3.6490990642205841  4.0159046937487179  4.1593827015130609
  0.4577888676255855 14.4515108137487189  6.4092275202500604
  0.4577888676255855  8.1901471437487210  6.4092275202500604
  0.4577888676255855  1.9287834737487164  6.4092275202500604
  2.7876915282995842 14.4515108137487189  5.3577209453070607
  1.9262840013345830 12.3643895837487179  6.5560592000460591
  1.3191963945905831 10.2772683637487141  5.2108892655110610
  2.7876915282995842  8.1901471437487210  5.3577209453070607
  3.3947791350445842 10.2772683637487141  6.7028908798430606
  1.9262840013345830  6.1030259137487164  6.5560592000460591
  1.3191963945905831  4.0159046937487179  5.2108892655110610
  2.7876915282995842  1.9287834737487164  5.3577209453070607
  3.3947791350445842  4.0159046937487179  6.7028908798430606
  4.0018667328335837 12.3643895837487179  8.0480608034330601
  2.5333715991245835 14.4515108137487189  7.9012291236370595
  1.6719640721595832 12.3643895837487179  9.0995673783760616
  1.0648764654145841 10.2772683637487141  7.7543974438400598
  4.0018667328335837  6.1030259137487164  8.0480608034330601
  2.5333715991245835  8.1901471437487210  7.9012291236370595
  1.6719640721595832  6.1030259137487164  9.0995673783760616
  1.0648764654145841  4.0159046937487179  7.7543974438400598
  2.5333715991245835  1.9287834737487164  7.9012291236370595
 10.4753653632165857 14.4515108137487189  0.3920447583970619
 10.4753653632165857  8.1901471437487210  0.3920447583970619
 10.4753653632165857  1.9287834737487164  0.3920447583970619
 10.5332995745285842 12.3643895837487179  1.8667247667650599
 10.5332995745285842  6.1030259137487164  1.8667247667650599
  7.9211446677575852 14.4515108137487189  0.4923897557310628
  7.9211446677575852  8.1901471437487210  0.4923897557310628
  7.9211446677575852  1.9287834737487164  0.4923897557310628
  9.2851563372545840 14.4515108137487189  2.6542372644240615
  7.9790788790695846 12.3643895837487179  1.9670697640990595
  9.2272221259425837 10.2772683637487141  1.1795572560560614
  9.2851563372545840  8.1901471437487210  2.6542372644240615
  7.9790788790695846  6.1030259137487164  1.9670697640990595
  9.2272221259425837  4.0159046937487179  1.1795572560560614
  9.2851563372545840  1.9287834737487164  2.6542372644240615
  5.3669239722975837 14.4515108137487189  0.5927347530650611
  5.3669239722975837  8.1901471437487210  0.5927347530650611
  5.3669239722975837  1.9287834737487164  0.5927347530650611
  6.7309356417945843 14.4515108137487189  2.7545822617570614
  5.4248581836095831 12.3643895837487179  2.0674147614330596
  6.6730014304835841 10.2772683637487141  1.2799022533890607
  6.7309356417945843  8.1901471437487210  2.7545822617570614
  5.4248581836095831  6.1030259137487164  2.0674147614330596
  6.6730014304835841  4.0159046937487179  1.2799022533890607
  6.7309356417945843  1.9287834737487164  2.7545822617570614
 12.8127032768375830 14.4515108137487189  0.6930797503980610
 12.8127032768375830  8.1901471437487210  0.6930797503980610
 12.8127032768375830  1.9287834737487164  0.6930797503980610
 14.1187807350235843 10.2772683637487141  1.3802472507230605
 14.1187807350235843  4.0159046937487179  1.3802472507230605
 11.5066258282515825 12.3643895837487179  0.0059122396890618
 11.5066258282515825  6.1030259137487164  0.0059122396890618
  4.5105065911855835 12.3643895837487179  2.9610444467740598
 13.0420114574755850 14.4515108137487189  2.8142127669780601
 11.5735163237665830 10.2772683637487141  2.6673810871810613
  4.5105065911855835  6.1030259137487164  2.9610444467740598
 13.0420114574755850  8.1901471437487210  2.8142127669780601
 11.5735163237665830  4.0159046937487179  2.6673810871810613
 13.0420114574755850  1.9287834737487164  2.8142127669780601
 10.4753653632165857 14.4515108137487189 10.3920447583970592
 10.4174311519055856 10.2772683637487141  8.9173647500290620
 10.4753653632165857  8.1901471437487210 10.3920447583970592
 10.4174311519055856  4.0159046937487179  8.9173647500290620
 10.4753653632165857  1.9287834737487164 10.3920447583970592
 10.5332995745285842 12.3643895837487179 11.8667247667650564
 10.5332995745285842  6.1030259137487164 11.8667247667650564
  9.1692879146315835 12.3643895837487179  9.7048772476880618
  9.1113537033195833 14.4515108137487189  8.2301972393200611
  7.9211446677575852 14.4515108137487189 10.4923897557310628
  7.8052762451335838 12.3643895837487179  7.5430297389950605
  9.0534194920075830 10.2772683637487141  6.7555172309510612
  9.1692879146315835  6.1030259137487164  9.7048772476880618
  9.1113537033195833  8.1901471437487210  8.2301972393200611
  7.8632104564455858 10.2772683637487141  9.0177097473630603
  7.9211446677575852  8.1901471437487210 10.4923897557310628
  7.8052762451335838  6.1030259137487164  7.5430297389950605
  9.0534194920075830  4.0159046937487179  6.7555172309510612
  9.1113537033195833  1.9287834737487164  8.2301972393200611
  7.8632104564455858  4.0159046937487179  9.0177097473630603
  7.9211446677575852  1.9287834737487164 10.4923897557310628
  9.3430905485665825 12.3643895837487179  4.1289172727920604
  9.2851563372545840 14.4515108137487189 12.6542372644240615
  7.9790788790695846 12.3643895837487179 11.9670697640990600
  9.2272221259425837 10.2772683637487141 11.1795572560560572
  9.3430905485665825  6.1030259137487164  4.1289172727920604
  9.2851563372545840  8.1901471437487210 12.6542372644240615
  8.0370130903805830 10.2772683637487141  3.4417497724670607
  7.9790788790695846  6.1030259137487164 11.9670697640990600
  9.2272221259425837  4.0159046937487179 11.1795572560560572
  9.2851563372545840  1.9287834737487164 12.6542372644240615
  8.0370130903805830  4.0159046937487179  3.4417497724670607
  6.6150672191715838 12.3643895837487179  9.8052222450210582
  6.5571330078595844 14.4515108137487189  8.3305422366530610
  5.3669239722975837 14.4515108137487189 10.5927347530650611
  6.6150672191715838  6.1030259137487164  9.8052222450210582
  6.5571330078595844  8.1901471437487210  8.3305422366530610
  5.3089897609855834 10.2772683637487141  9.1180547446970603
  5.3669239722975837  8.1901471437487210 10.5927347530650611
  6.5571330078595844  1.9287834737487164  8.3305422366530610
  5.3089897609855834  4.0159046937487179  9.1180547446970603
  5.3669239722975837  1.9287834737487164 10.5927347530650611
  6.7309356417945843 14.4515108137487189 12.7545822617570579
  5.4248581836095831 12.3643895837487179 12.0674147614330582
  6.6730014304835841 10.2772683637487141 11.2799022533890607
  6.7309356417945843  8.1901471437487210 12.7545822617570579
  5.4248581836095831  6.1030259137487164 12.0674147614330582
  6.6730014304835841  4.0159046937487179 11.2799022533890607
  6.7309356417945843  1.9287834737487164 12.7545822617570579
 14.0608465237115841 12.3643895837487179  9.9055672423550618
 14.0029123123995856 14.4515108137487189  8.4308872339870593
 12.8127032768375830 14.4515108137487189 10.6930797503980592
 14.0608465237115841  6.1030259137487164  9.9055672423550618
 14.0029123123995856  8.1901471437487210  8.4308872339870593
 12.7547690655255828 10.2772683637487141  9.2183997420300621
 12.8127032768375830  8.1901471437487210 10.6930797503980592
 14.0029123123995856  1.9287834737487164  8.4308872339870593
 12.7547690655255828  4.0159046937487179  9.2183997420300621
 12.8127032768375830  1.9287834737487164 10.6930797503980592
 14.1187807350235843 10.2772683637487141 11.3802472507230590
 14.1187807350235843  4.0159046937487179 11.3802472507230590
 11.5066258282515825 12.3643895837487179 10.0059122396890618
 11.5066258282515825  6.1030259137487164 10.0059122396890618
 10.7121087968015853 14.4515108137487189  3.8657193419210607
 10.7121087968015853  8.1901471437487210  3.8657193419210607
 10.7121087968015853  1.9287834737487164  3.8657193419210607
 13.0420114574755850 14.4515108137487189 12.8142127669780610
  5.1175941979305835 14.4515108137487189  4.3062143813100606
 12.1806039305105838 12.3643895837487179  4.0125510217170612
 11.5735163237665830 10.2772683637487141 12.6673810871810613
 13.0420114574755850  8.1901471437487210 12.8142127669780610
 13.6490990642205841 10.2772683637487141  4.1593827015130609
  5.1175941979305835  8.1901471437487210  4.3062143813100606
 12.1806039305105838  6.1030259137487164  4.0125510217170612
 11.5735163237665830  4.0159046937487179 12.6673810871810613
 13.0420114574755850  1.9287834737487164 12.8142127669780610
 13.6490990642205841  4.0159046937487179  4.1593827015130609
  5.1175941979305835  1.9287834737487164  4.3062143813100606
  6.5860893316395837 12.3643895837487179  4.4530460611060612
  8.0545844653495848 10.2772683637487141  4.5998777409030609
  6.5860893316395837  6.1030259137487164  4.4530460611060612
  8.0545844653495848  4.0159046937487179  4.5998777409030609
  9.8507012608805837 12.3643895837487179  5.0640575857140613
 10.4577888676255846 14.4515108137487189  6.4092275202500604
  9.8507012608805837  6.1030259137487164  5.0640575857140613
 10.4577888676255846  8.1901471437487210  6.4092275202500604
 10.4577888676255846  1.9287834737487164  6.4092275202500604
  4.2561866620095836 12.3643895837487179  5.5045526251040613
 12.7876915282995842 14.4515108137487189  5.3577209453070607
  4.8632742687545836 14.4515108137487189  6.8497225596390603
 11.9262840013345848 12.3643895837487179  6.5560592000460591
 11.3191963945905858 10.2772683637487141  5.2108892655110610
  4.2561866620095836  6.1030259137487164  5.5045526251040613
 12.7876915282995842  8.1901471437487210  5.3577209453070607
 13.3947791350445868 10.2772683637487141  6.7028908798430606
  4.8632742687545836  8.1901471437487210  6.8497225596390603
 11.9262840013345848  6.1030259137487164  6.5560592000460591
 11.3191963945905858  4.0159046937487179  5.2108892655110610
 12.7876915282995842  1.9287834737487164  5.3577209453070607
 13.3947791350445868  4.0159046937487179  6.7028908798430606
  4.8632742687545836  1.9287834737487164  6.8497225596390603
  8.6616720631385835 12.3643895837487179  5.9450476644930585
  7.1931769294285832 14.4515108137487189  5.7982159846970598
  6.3317694024635838 12.3643895837487179  6.9965542394360600
  5.7246817957195830 10.2772683637487141  5.6513843049000609
  8.6616720631385835  6.1030259137487164  5.9450476644930585
  7.1931769294285832  8.1901471437487210  5.7982159846970598
  6.3317694024635838  6.1030259137487164  6.9965542394360600
  5.7246817957195830  4.0159046937487179  5.6513843049000609
  7.1931769294285832  1.9287834737487164  5.7982159846970598
 14.0018667328335873 12.3643895837487179  8.0480608034330601
 12.5333715991245835 14.4515108137487189  7.9012291236370595
 11.6719640721595859 12.3643895837487179  9.0995673783760616
 11.0648764654145850 10.2772683637487141  7.7543974438400598
 14.0018667328335873  6.1030259137487164  8.0480608034330601
 12.5333715991245835  8.1901471437487210  7.9012291236370595
 11.6719640721595859  6.1030259137487164  9.0995673783760616
 11.0648764654145850  4.0159046937487179  7.7543974438400598
 12.5333715991245835  1.9287834737487164  7.9012291236370595
 17.9211446677575807 14.4515108137487189  0.4923897557310628
 17.9211446677575807  8.1901471437487210  0.4923897557310628
 17.9211446677575807  1.9287834737487164  0.4923897557310628
 17.9790788790695828 12.3643895837487179  1.9670697640990595
 17.9790788790695828  6.1030259137487164  1.9670697640990595
 15.3669239722975828 14.4515108137487189  0.5927347530650611
 15.3669239722975828  8.1901471437487210  0.5927347530650611
 15.3669239722975828  1.9287834737487164  0.5927347530650611
 16.7309356417945807 14.4515108137487189  2.7545822617570614
 15.4248581836095831 12.3643895837487179  2.0674147614330596
 16.6730014304835841 10.2772683637487141  1.2799022533890607
 16.7309356417945807  8.1901471437487210  2.7545822617570614
 15.4248581836095831  6.1030259137487164  2.0674147614330596
 16.6730014304835841  4.0159046937487179  1.2799022533890607
 16.7309356417945807  1.9287834737487164  2.7545822617570614
 14.5105065911855871 12.3643895837487179  2.9610444467740598
 14.5105065911855871  6.1030259137487164  2.9610444467740598
 17.9211446677575807 14.4515108137487189 10.4923897557310628
 17.8052762451335838 12.3643895837487179  7.5430297389950605
 17.8632104564455858 10.2772683637487141  9.0177097473630603
 17.9211446677575807  8.1901471437487210 10.4923897557310628
 17.8052762451335838  6.1030259137487164  7.5430297389950605
 17.8632104564455858  4.0159046937487179  9.0177097473630603
 17.9211446677575807  1.9287834737487164 10.4923897557310628
 17.9790788790695828 12.3643895837487179 11.9670697640990600
 18.0370130903805830 10.2772683637487141  3.4417497724670607
 17.9790788790695828  6.1030259137487164 11.9670697640990600
 18.0370130903805830  4.0159046937487179  3.4417497724670607
 16.6150672191715856 12.3643895837487179  9.8052222450210582
 16.5571330078595835 14.4515108137487189  8.3305422366530610
 15.3669239722975828 14.4515108137487189 10.5927347530650611
 16.6150672191715856  6.1030259137487164  9.8052222450210582
 16.5571330078595835  8.1901471437487210  8.3305422366530610
 15.3089897609855843 10.2772683637487141  9.1180547446970603
 15.3669239722975828  8.1901471437487210 10.5927347530650611
 16.5571330078595835  1.9287834737487164  8.3305422366530610
 15.3089897609855843  4.0159046937487179  9.1180547446970603
 15.3669239722975828  1.9287834737487164 10.5927347530650611
 16.7309356417945807 14.4515108137487189 12.7545822617570579
 15.4248581836095831 12.3643895837487179 12.0674147614330582
 16.6730014304835841 10.2772683637487141 11.2799022533890607
 16.7309356417945807  8.1901471437487210 12.7545822617570579
 15.4248581836095831  6.1030259137487164 12.0674147614330582
 16.6730014304835841  4.0159046937487179 11.2799022533890607
 16.7309356417945807  1.9287834737487164 12.7545822617570579
 15.1175941979305843 14.4515108137487189  4.3062143813100606
 15.1175941979305843  8.1901471437487210  4.3062143813100606
 15.1175941979305843  1.9287834737487164  4.3062143813100606
 16.5860893316395845 12.3643895837487179  4.4530460611060612
 18.0545844653495848 10.2772683637487141  4.5998777409030609
 16.5860893316395845  6.1030259137487164  4.4530460611060612
 18.0545844653495848  4.0159046937487179  4.5998777409030609
 14.2561866620095827 12.3643895837487179  5.5045526251040613
 14.8632742687545871 14.4515108137487189  6.8497225596390603
 14.2561866620095827  6.1030259137487164  5.5045526251040613
 14.8632742687545871  8.1901471437487210  6.8497225596390603
 14.8632742687545871  1.9287834737487164  6.8497225596390603
 18.6616720631385817 12.3643895837487179  5.9450476644930585
 17.1931769294285814 14.4515108137487189  5.7982159846970598
 16.3317694024635855 12.3643895837487179  6.9965542394360600
 15.7246817957195830 10.2772683637487141  5.6513843049000609
 18.6616720631385817  6.1030259137487164  5.9450476644930585
 17.1931769294285814  8.1901471437487210  5.7982159846970598
 16.3317694024635855  6.1030259137487164  6.9965542394360600
 15.7246817957195830  4.0159046937487179  5.6513843049000609
 17.1931769294285814  1.9287834737487164  5.7982159846970598
