Cu
 1.0000000000000000
    12.6784927298861056    0.0000000000000000    0.0000000000000000
     0.0000000000000000   14.7354155083652820    0.0000000000000000
     0.0000000000000000    0.0000000000000000   17.7411131811325404
 Cu 
 267
Cartesian
  3.5050640791293834  8.4988520689693843  3.5812670336273564
  3.4471298678173827 10.5859732989693853  2.1065870252593575
  2.2569208322553820 10.5859732989693853  4.3687795416703574
  3.5050640791293834  2.2374883989693863  3.5812670336273564
  3.4471298678173827  4.3246096289693909  2.1065870252593575
  2.1989866209433817  6.4117308489693841  2.8940995333023576
  2.2569208322553820  4.3246096289693909  4.3687795416703574
  2.1989866209433817  0.1503671789693861  2.8940995333023576
  3.5629982904413819  6.4117308489693841  5.0559470419953572
  3.5629982904413819  0.1503671789693861  5.0559470419953572
  0.9508433836693825  8.4988520689693843  3.6816120309613583
  0.9508433836693825  2.2374883989693863  3.6816120309613583
  2.4862290128933822 10.5859732989693853  6.4899125582503574
  1.0177338791843820  6.4117308489693841  6.3430808784533577
  2.4862290128933822  4.3246096289693909  6.4899125582503574
  1.0177338791843820  0.1503671789693861  6.3430808784533577
  1.3705015567523819  8.4988520689693843  0.2317589913183573
  2.8389966904623822  6.4117308489693841  0.3785906711153570
  1.3705015567523819  2.2374883989693863  0.2317589913183573
  2.8389966904623822  0.1503671789693861  0.3785906711153570
  3.4460842882513827  8.4988520689693843  1.7237605947053574
  1.9775891545423827 10.5859732989693853  1.5769289149093566
  1.1161816275773822  8.4988520689693843  2.7752671696483571
  0.5090940208323831  6.4117308489693841  1.4300972351123571
  3.4460842882513827  2.2374883989693863  1.7237605947053574
  1.9775891545423827  4.3246096289693909  1.5769289149093566
  1.1161816275773822  2.2374883989693863  2.7752671696483571
  0.5090940208323831  0.1503671789693861  1.4300972351123571
  3.5050640791293834  8.4988520689693843 13.5812670336273538
  3.4471298678173827 10.5859732989693853 12.1065870252593584
  2.2569208322553820 10.5859732989693853 14.3687795416703548
  3.5050640791293834  2.2374883989693863 13.5812670336273538
  3.4471298678173827  4.3246096289693909 12.1065870252593584
  2.1989866209433817  6.4117308489693841 12.8940995333023540
  2.2569208322553820  4.3246096289693909 14.3687795416703548
  2.1989866209433817  0.1503671789693861 12.8940995333023540
  3.5629982904413819  6.4117308489693841 15.0559470419953545
  3.5629982904413819  0.1503671789693861 15.0559470419953545
  0.9508433836693825  8.4988520689693843 13.6816120309613574
  0.9508433836693825  2.2374883989693863 13.6816120309613574
  0.1563263522193843 10.5859732989693853  7.5414191331933553
  0.1563263522193843  4.3246096289693909  7.5414191331933553
  2.4862290128933822 10.5859732989693853 16.4899125582503565
  1.6248214859283829  8.4988520689693843  7.6882508129893576
  1.0177338791843820  6.4117308489693841 16.3430808784533568
  2.4862290128933822  4.3246096289693909 16.4899125582503565
  3.0933166196383830  6.4117308489693841  7.8350824927853573
  1.6248214859283829  2.2374883989693863  7.6882508129893576
  1.0177338791843820  0.1503671789693861 16.3430808784533568
  3.0933166196383830  0.1503671789693861  7.8350824927853573
  2.2319090837173832 10.5859732989693853  9.0334207365793553
  1.3705015567523819  8.4988520689693843 10.2317589913183582
  0.7634139500083821  6.4117308489693841  8.8865890567833574
  2.2319090837173832  4.3246096289693909  9.0334207365793553
  2.8389966904623822  6.4117308489693841 10.3785906711153579
  1.3705015567523819  2.2374883989693863 10.2317589913183582
  0.7634139500083821  0.1503671789693861  8.8865890567833574
  2.8389966904623822  0.1503671789693861 10.3785906711153579
  3.4460842882513827  8.4988520689693843 11.7237605947053574
  1.9775891545423827 10.5859732989693853 11.5769289149093559
  1.1161816275773822  8.4988520689693843 12.7752671696483535
  0.5090940208323831  6.4117308489693841 11.4300972351123562
  3.4460842882513827  2.2374883989693863 11.7237605947053574
  1.9775891545423827  4.3246096289693909 11.5769289149093559
  1.1161816275773822  2.2374883989693863 12.7752671696483535
  0.5090940208323831  0.1503671789693861 11.4300972351123562
  0.1563263522193843 10.5859732989693853 17.5414191331933580
  0.1563263522193843  4.3246096289693909 17.5414191331933580
  1.6248214859283829  8.4988520689693843 17.6882508129893559
  1.6248214859283829  2.2374883989693863 17.6882508129893559
  2.1989866209433817 12.6730945189693855  2.8940995333023576
  3.5629982904413819 12.6730945189693855  5.0559470419953572
  1.0177338791843820 12.6730945189693855  6.3430808784533577
  2.8389966904623822 12.6730945189693855  0.3785906711153570
  0.5090940208323831 12.6730945189693855  1.4300972351123571
  2.1989866209433817 12.6730945189693855 12.8940995333023540
  3.5629982904413819 12.6730945189693855 15.0559470419953545
  1.0177338791843820 12.6730945189693855 16.3430808784533568
  3.0933166196383830 12.6730945189693855  7.8350824927853573
  0.7634139500083821 12.6730945189693855  8.8865890567833574
  2.8389966904623822 12.6730945189693855 10.3785906711153579
  0.5090940208323831 12.6730945189693855 11.4300972351123562
  9.9195829186343829 10.5859732989693853  4.0677445496693583
  9.8616487073233845  6.4117308489693841  2.5930645413013576
  9.9195829186343829  4.3246096289693909  4.0677445496693583
  9.8616487073233845  0.1503671789693861  2.5930645413013576
  9.9775171299463814  8.4988520689693843  5.5424245580373563
  9.9775171299463814  2.2374883989693863  5.5424245580373563
  8.6135054700493825  8.4988520689693843  3.3805770389603591
  8.5555712587373822 10.5859732989693853  1.9058970305923575
  7.3653622231753824 10.5859732989693853  4.1680895470033592
  7.2494938005513827  8.4988520689693843  1.2187295302673569
  8.4976370474253820  6.4117308489693841  0.4312170222233575
  8.6135054700493825  2.2374883989693863  3.3805770389603591
  8.5555712587373822  4.3246096289693909  1.9058970305923575
  7.3074280118633839  6.4117308489693841  2.6934095386353563
  7.3653622231753824  4.3246096289693909  4.1680895470033592
  7.2494938005513827  2.2374883989693863  1.2187295302673569
  8.4976370474253820  0.1503671789693861  0.4312170222233575
  7.3074280118633839  0.1503671789693861  2.6934095386353563
  8.7293738926723847 10.5859732989693853  6.3299370556963579
  7.4232964344873835  8.4988520689693843  5.6427695553713546
  8.6714396813603827  6.4117308489693841  4.8552570473283581
  8.7293738926723847  4.3246096289693909  6.3299370556963579
  7.4232964344873835  2.2374883989693863  5.6427695553713546
  8.6714396813603827  0.1503671789693861  4.8552570473283581
  6.0592847745893827  8.4988520689693843  3.4809220362933573
  6.0013505632773825 10.5859732989693853  2.0062420279253574
  4.8111415277153826 10.5859732989693853  4.2684345443373575
  6.0592847745893827  2.2374883989693863  3.4809220362933573
  6.0013505632773825  4.3246096289693909  2.0062420279253574
  4.7532073164033823  6.4117308489693841  2.7937545359693567
  4.8111415277153826  4.3246096289693909  4.2684345443373575
  4.7532073164033823  0.1503671789693861  2.7937545359693567
  6.1751531972123823 10.5859732989693853  6.4302820530293578
  4.8690757390273820  8.4988520689693843  5.7431145527053564
  6.1172189859013830  6.4117308489693841  4.9556020446613571
  6.1751531972123823  4.3246096289693909  6.4302820530293578
  4.8690757390273820  2.2374883989693863  5.7431145527053564
  6.1172189859013830  0.1503671789693861  4.9556020446613571
 12.2569208322553820 10.5859732989693853  4.3687795416703574
 12.1989866209433817  6.4117308489693841  2.8940995333023576
 12.2569208322553820  4.3246096289693909  4.3687795416703574
 12.1989866209433817  0.1503671789693861  2.8940995333023576
 10.9508433836693833  8.4988520689693843  3.6816120309613583
 10.9508433836693833  2.2374883989693863  3.6816120309613583
  3.9547241466033825  8.4988520689693843  6.6367442380463570
 12.4862290128933822 10.5859732989693853  6.4899125582503574
 11.0177338791843820  6.4117308489693841  6.3430808784533577
  3.9547241466033825  2.2374883989693863  6.6367442380463570
 12.4862290128933822  4.3246096289693909  6.4899125582503574
 11.0177338791843820  0.1503671789693861  6.3430808784533577
  9.9020064230433853 10.5859732989693853  0.0849273115223577
  9.9020064230433853  4.3246096289693909  0.0849273115223577
  4.3074918241723825 10.5859732989693853  0.5254223509113567
 11.3705015567523819  8.4988520689693843  0.2317589913183573
  4.3074918241723825  4.3246096289693909  0.5254223509113567
 11.3705015567523819  2.2374883989693863  0.2317589913183573
  5.7759869578813827  8.4988520689693843  0.6722540307083573
  5.7759869578813827  2.2374883989693863  0.6722540307083573
 11.9775891545423825 10.5859732989693853  1.5769289149093566
 11.1161816275773830  8.4988520689693843  2.7752671696483571
 10.5090940208323822  6.4117308489693841  1.4300972351123571
 11.9775891545423825  4.3246096289693909  1.5769289149093566
 11.1161816275773830  2.2374883989693863  2.7752671696483571
 10.5090940208323822  0.1503671789693861  1.4300972351123571
  9.9195829186343829 10.5859732989693853 14.0677445496693583
  9.8616487073233845  6.4117308489693841 12.5930645413013593
  9.9195829186343829  4.3246096289693909 14.0677445496693583
  9.8616487073233845  0.1503671789693861 12.5930645413013593
  9.9775171299463814  8.4988520689693843 15.5424245580373537
  9.9775171299463814  2.2374883989693863 15.5424245580373537
  8.6135054700493825  8.4988520689693843 13.3805770389603591
  8.5555712587373822 10.5859732989693853 11.9058970305923566
  7.3653622231753824 10.5859732989693853 14.1680895470033583
  7.2494938005513827  8.4988520689693843 11.2187295302673569
  8.4976370474253820  6.4117308489693841 10.4312170222233576
  8.6135054700493825  2.2374883989693863 13.3805770389603591
  8.5555712587373822  4.3246096289693909 11.9058970305923566
  7.3074280118633839  6.4117308489693841 12.6934095386353576
  7.3653622231753824  4.3246096289693909 14.1680895470033583
  7.2494938005513827  2.2374883989693863 11.2187295302673569
  8.4976370474253820  0.1503671789693861 10.4312170222233576
  7.3074280118633839  0.1503671789693861 12.6934095386353576
  8.7873081039843832  8.4988520689693843  7.8046170640643560
  8.7293738926723847 10.5859732989693853 16.3299370556963588
  7.4232964344873835  8.4988520689693843 15.6427695553713555
  8.6714396813603827  6.4117308489693841 14.8552570473283581
  8.7873081039843832  2.2374883989693863  7.8046170640643560
  8.7293738926723847  4.3246096289693909 16.3299370556963588
  7.4812306457983819  6.4117308489693841  7.1174495637393571
  7.4232964344873835  2.2374883989693863 15.6427695553713555
  8.6714396813603827  0.1503671789693861 14.8552570473283581
  7.4812306457983819  0.1503671789693861  7.1174495637393571
  6.0592847745893827  8.4988520689693843 13.4809220362933573
  6.0013505632773825 10.5859732989693853 12.0062420279253548
  4.8111415277153826 10.5859732989693853 14.2684345443373566
  6.0592847745893827  2.2374883989693863 13.4809220362933573
  6.0013505632773825  4.3246096289693909 12.0062420279253548
  4.7532073164033823  6.4117308489693841 12.7937545359693541
  4.8111415277153826  4.3246096289693909 14.2684345443373566
  4.7532073164033823  0.1503671789693861 12.7937545359693541
  6.1751531972123823 10.5859732989693853 16.4302820530293587
  4.8690757390273820  8.4988520689693843 15.7431145527053573
  6.1172189859013830  6.4117308489693841 14.9556020446613580
  6.1751531972123823  4.3246096289693909 16.4302820530293587
  4.8690757390273820  2.2374883989693863 15.7431145527053573
  6.1172189859013830  0.1503671789693861 14.9556020446613580
 12.2569208322553820 10.5859732989693853 14.3687795416703548
 12.1989866209433817  6.4117308489693841 12.8940995333023540
 12.2569208322553820  4.3246096289693909 14.3687795416703548
 12.1989866209433817  0.1503671789693861 12.8940995333023540
 10.9508433836693833  8.4988520689693843 13.6816120309613574
 10.9508433836693833  2.2374883989693863 13.6816120309613574
 10.1563263522193843 10.5859732989693853  7.5414191331933553
 10.1563263522193843  4.3246096289693909  7.5414191331933553
  3.9547241466033825  8.4988520689693843 16.6367442380463579
 12.4862290128933822 10.5859732989693853 16.4899125582503565
  4.5618117533483824 10.5859732989693853  7.9819141725823570
 11.6248214859283827  8.4988520689693843  7.6882508129893576
 11.0177338791843820  6.4117308489693841 16.3430808784533568
  3.9547241466033825  2.2374883989693863 16.6367442380463579
 12.4862290128933822  4.3246096289693909 16.4899125582503565
  4.5618117533483824  4.3246096289693909  7.9819141725823570
 11.6248214859283827  2.2374883989693863  7.6882508129893576
 11.0177338791843820  0.1503671789693861 16.3430808784533568
  6.0303068870573826  8.4988520689693843  8.1287458523783567
  7.4988020207673829  6.4117308489693841  8.2755775321753564
  6.0303068870573826  2.2374883989693863  8.1287458523783567
  7.4988020207673829  0.1503671789693861  8.2755775321753564
  9.2949188162983827  8.4988520689693843  8.7397573769863577
  9.9020064230433853 10.5859732989693853 10.0849273115223568
  9.2949188162983827  2.2374883989693863  8.7397573769863577
  9.9020064230433853  4.3246096289693909 10.0849273115223568
  3.7004042174273826  8.4988520689693843  9.1802524163763533
 12.2319090837173832 10.5859732989693853  9.0334207365793553
  4.3074918241723825 10.5859732989693853 10.5254223509113576
 11.3705015567523819  8.4988520689693843 10.2317589913183582
 10.7634139500083812  6.4117308489693841  8.8865890567833574
  3.7004042174273826  2.2374883989693863  9.1802524163763533
 12.2319090837173832  4.3246096289693909  9.0334207365793553
  4.3074918241723825  4.3246096289693909 10.5254223509113576
 11.3705015567523819  2.2374883989693863 10.2317589913183582
 10.7634139500083812  0.1503671789693861  8.8865890567833574
  8.1058896185563825  8.4988520689693843  9.6207474557653576
  6.6373944848463822 10.5859732989693853  9.4739157759693562
  5.7759869578813827  8.4988520689693843 10.6722540307083573
  5.1688993511373820  6.4117308489693841  9.3270840961723565
  8.1058896185563825  2.2374883989693863  9.6207474557653576
  6.6373944848463822  4.3246096289693909  9.4739157759693562
  5.7759869578813827  2.2374883989693863 10.6722540307083573
  5.1688993511373820  0.1503671789693861  9.3270840961723565
 11.9775891545423825 10.5859732989693853 11.5769289149093559
 11.1161816275773830  8.4988520689693843 12.7752671696483535
 10.5090940208323822  6.4117308489693841 11.4300972351123562
 11.9775891545423825  4.3246096289693909 11.5769289149093559
 11.1161816275773830  2.2374883989693863 12.7752671696483535
 10.5090940208323822  0.1503671789693861 11.4300972351123562
  7.4812306457983819  6.4117308489693841 17.1174495637393562
  7.4812306457983819  0.1503671789693861 17.1174495637393562
 10.1563263522193843 10.5859732989693853 17.5414191331933580
 10.1563263522193843  4.3246096289693909 17.5414191331933580
 11.6248214859283827  8.4988520689693843 17.6882508129893559
 11.6248214859283827  2.2374883989693863 17.6882508129893559
  9.8616487073233845 12.6730945189693855  2.5930645413013576
  8.4976370474253820 12.6730945189693855  0.4312170222233575
  7.3074280118633839 12.6730945189693855  2.6934095386353563
  8.6714396813603827 12.6730945189693855  4.8552570473283581
  4.7532073164033823 12.6730945189693855  2.7937545359693567
  6.1172189859013830 12.6730945189693855  4.9556020446613571
 12.1989866209433817 12.6730945189693855  2.8940995333023576
 11.0177338791843820 12.6730945189693855  6.3430808784533577
 10.5090940208323822 12.6730945189693855  1.4300972351123571
  9.8616487073233845 12.6730945189693855 12.5930645413013593
  8.4976370474253820 12.6730945189693855 10.4312170222233576
  7.3074280118633839 12.6730945189693855 12.6934095386353576
  8.6714396813603827 12.6730945189693855 14.8552570473283581
  7.4812306457983819 12.6730945189693855  7.1174495637393571
  4.7532073164033823 12.6730945189693855 12.7937545359693541
  6.1172189859013830 12.6730945189693855 14.9556020446613580
 12.1989866209433817 12.6730945189693855 12.8940995333023540
 11.0177338791843820 12.6730945189693855 16.3430808784533568
  7.4988020207673829 12.6730945189693855  8.2755775321753564
 10.7634139500083812 12.6730945189693855  8.8865890567833574
  5.1688993511373820 12.6730945189693855  9.3270840961723565
 10.5090940208323822 12.6730945189693855 11.4300972351123562
  7.4812306457983819 12.6730945189693855 17.1174495637393562
