Cu
 1.0000000000000000
    15.4702322185807439    0.0000000000000000    0.0000000000000000
     0.0000000000000000   15.7546154735232093    0.0000000000000000
     0.0000000000000000    0.0000000000000000   13.2053837905059215
 Cu 
 253
Cartesian
  0.1379760121131746  3.8264410698381139  6.1225149458035171
  0.1959102234251730  1.7393198398381120  7.5971949541715151
  3.7234571726081729  1.7393198398381120  5.6360374297615161
  3.6655229612961726  3.8264410698381139  4.1613574213935163
  2.4753139257341719  3.8264410698381139  6.4235499378045162
  1.1692364771481727  1.7393198398381120  5.7363824270955170
  2.7046221063721720  3.8264410698381139  8.5446829543845162
  0.1203995165221751  3.8264410698381139  2.1396977076565165
  2.4503021771961739  3.8264410698381139  1.0881911327135159
  1.5888946502311725  1.7393198398381120  2.2865293874525165
  3.6644773817301726  1.7393198398381120  3.7785309908395162
  2.1959822480211728  3.8264410698381139  3.6316993110435156
  1.3345747210561729  1.7393198398381120  4.8300375657825159
  0.3747194456981751  3.8264410698381139  9.5961895293275159
  1.8432145794071730  1.7393198398381120  9.7430212091235155
  0.1203995165221751  3.8264410698381139 12.1396977076565165
  2.4503021771961739  3.8264410698381139 11.0881911327135168
  1.5888946502311725  1.7393198398381120 12.2865293874525179
  0.0800418008021752  5.9135622898381159  4.6478349374355172
  0.1379760121131746  8.0006835098381153  6.1225149458035171
  0.0800418008021752 12.1749259598381165  4.6478349374355172
  0.1379760121131746 14.2620471798381203  6.1225149458035171
  0.1959102234251730 10.0878047398381163  7.5971949541715151
  3.7234571726081729 10.0878047398381163  5.6360374297615161
  3.6655229612961726  8.0006835098381153  4.1613574213935163
  2.4173797144221725  5.9135622898381159  4.9488699294365164
  2.4753139257341719  8.0006835098381153  6.4235499378045162
  3.6655229612961726 14.2620471798381203  4.1613574213935163
  2.4173797144221725 12.1749259598381165  4.9488699294365164
  2.4753139257341719 14.2620471798381203  6.4235499378045162
  3.7813913839201714  5.9135622898381159  7.1107174381295160
  3.7813913839201714 12.1749259598381165  7.1107174381295160
  1.1692364771481727 10.0878047398381163  5.7363824270955170
  1.2361269726631723  5.9135622898381159  8.3978512745875165
  2.7046221063721720  8.0006835098381153  8.5446829543845162
  1.2361269726631723 12.1749259598381165  8.3978512745875165
  2.7046221063721720 14.2620471798381203  8.5446829543845162
  0.1203995165221751  8.0006835098381153  2.1396977076565165
  0.1203995165221751 14.2620471798381203  2.1396977076565165
  0.9818070434871725  5.9135622898381159  0.9413594529175165
  2.4503021771961739  8.0006835098381153  1.0881911327135159
  3.0573897839411730  5.9135622898381159  2.4333610672495158
  1.5888946502311725 10.0878047398381163  2.2865293874525165
  0.9818070434871725 12.1749259598381165  0.9413594529175165
  2.4503021771961739 14.2620471798381203  1.0881911327135159
  3.0573897839411730 12.1749259598381165  2.4333610672495158
  0.7274871143111736  5.9135622898381159  3.4848676312465159
  3.6644773817301726 10.0878047398381163  3.7785309908395162
  2.1959822480211728  8.0006835098381153  3.6316993110435156
  1.3345747210561729 10.0878047398381163  4.8300375657825159
  0.7274871143111736 12.1749259598381165  3.4848676312465159
  2.1959822480211728 14.2620471798381203  3.6316993110435156
  0.3747194456981751  8.0006835098381153  9.5961895293275159
  0.3747194456981751 14.2620471798381203  9.5961895293275159
  3.3117097131171729  5.9135622898381159  9.8898528889195170
  1.8432145794071730 10.0878047398381163  9.7430212091235155
  3.3117097131171729 12.1749259598381165  9.8898528889195170
  0.1203995165221751  8.0006835098381153 12.1396977076565165
  0.1203995165221751 14.2620471798381203 12.1396977076565165
  0.9818070434871725  5.9135622898381159 10.9413594529175171
  2.4503021771961739  8.0006835098381153 11.0881911327135168
  3.0573897839411730  5.9135622898381159 12.4333610672495158
  1.5888946502311725 10.0878047398381163 12.2865293874525179
  0.9818070434871725 12.1749259598381165 10.9413594529175171
  2.4503021771961739 14.2620471798381203 11.0881911327135168
  3.0573897839411730 12.1749259598381165 12.4333610672495158
 10.1379760121131710  3.8264410698381139  6.1225149458035171
 10.1959102234251695  1.7393198398381120  7.5971949541715151
  8.8318985635281742  1.7393198398381120  5.4353474350945179
  8.7739643522161685  3.8264410698381139  3.9606674267265167
  7.5837553166541714  3.8264410698381139  6.2228599431375180
  7.4678868940301717  1.7393198398381120  3.2734999264015161
  8.9477669861511746  3.8264410698381139  8.3847074518305167
  7.6416895279661716  1.7393198398381120  7.6975399515055161
  6.2776778680681717  1.7393198398381120  5.5356924324275161
  6.2197436567561715  3.8264410698381139  4.0610124240595162
  5.0295346211941734  3.8264410698381139  6.3232049404715163
  6.3935462906911731  3.8264410698381139  8.4850524491635166
  5.0874688325061719  1.7393198398381120  7.7978849488395152
 13.7234571726081711  1.7393198398381120  5.6360374297615161
 13.6655229612961691  3.8264410698381139  4.1613574213935163
 12.4753139257341701  3.8264410698381139  6.4235499378045162
 11.1692364771481731  1.7393198398381120  5.7363824270955170
  4.1731172400821714  1.7393198398381120  8.6915146341805158
 12.7046221063721703  3.8264410698381139  8.5446829543845162
  4.7802048468271732  3.8264410698381139  0.0366845687165162
  6.2486999805361716  1.7393198398381120  0.1835162485125159
  9.5133119097771690  1.7393198398381120  0.7945277731205163
 10.1203995165221716  3.8264410698381139  2.1396977076565165
  3.9187973109061720  1.7393198398381120  1.2350228125105160
 12.4503021771961748  3.8264410698381139  1.0881911327135159
  4.5258849176511715  3.8264410698381139  2.5801927470455159
 11.5888946502311683  1.7393198398381120  2.2865293874525165
  8.3242827120351706  1.7393198398381120  1.6755178518995162
  6.8557875783251729  3.8264410698381139  1.5286861721035159
  5.9943800513601708  1.7393198398381120  2.7270244268425161
 13.6644773817301690  1.7393198398381120  3.7785309908395162
 12.1959822480211741  3.8264410698381139  3.6316993110435156
 11.3345747210561694  1.7393198398381120  4.8300375657825159
  9.0057011974631731  1.7393198398381120  9.8593874601985156
 10.3747194456981724  3.8264410698381139  9.5961895293275159
  4.7802048468271732  3.8264410698381139 10.0366845687165167
 11.8432145794071708  1.7393198398381120  9.7430212091235155
  6.2486999805361716  1.7393198398381120 10.1835162485125164
  9.5133119097771690  1.7393198398381120 10.7945277731205156
 10.1203995165221716  3.8264410698381139 12.1396977076565165
  3.9187973109061720  1.7393198398381120 11.2350228125105165
 12.4503021771961748  3.8264410698381139 11.0881911327135168
  4.5258849176511715  3.8264410698381139 12.5801927470455155
 11.5888946502311683  1.7393198398381120 12.2865293874525179
  8.3242827120351706  1.7393198398381120 11.6755178518995155
  6.8557875783251729  3.8264410698381139 11.5286861721035159
  5.9943800513601708  1.7393198398381120 12.7270244268425170
 10.0800418008021708  5.9135622898381159  4.6478349374355172
 10.1379760121131710  8.0006835098381153  6.1225149458035171
 10.0800418008021708 12.1749259598381165  4.6478349374355172
 10.1379760121131710 14.2620471798381203  6.1225149458035171
 10.1959102234251695 10.0878047398381163  7.5971949541715151
  8.7160301409041701  5.9135622898381159  2.4859874183575164
  8.8318985635281742 10.0878047398381163  5.4353474350945179
  8.7739643522161685  8.0006835098381153  3.9606674267265167
  7.5258211053421729  5.9135622898381159  4.7481799347695155
  7.5837553166541714  8.0006835098381153  6.2228599431375180
  7.4678868940301717 10.0878047398381163  3.2734999264015161
  8.7160301409041701 12.1749259598381165  2.4859874183575164
  8.7739643522161685 14.2620471798381203  3.9606674267265167
  7.5258211053421729 12.1749259598381165  4.7481799347695155
  7.5837553166541714 14.2620471798381203  6.2228599431375180
  8.8898327748391743  5.9135622898381159  6.9100274434625177
  8.9477669861511746  8.0006835098381153  8.3847074518305167
  7.6416895279661716 10.0878047398381163  7.6975399515055161
  8.8898327748391743 12.1749259598381165  6.9100274434625177
  8.9477669861511746 14.2620471798381203  8.3847074518305167
  6.2776778680681717 10.0878047398381163  5.5356924324275161
  6.2197436567561715  8.0006835098381153  4.0610124240595162
  4.9716004098821713  5.9135622898381159  4.8485249321035155
  5.0295346211941734  8.0006835098381153  6.3232049404715163
  6.2197436567561715 14.2620471798381203  4.0610124240595162
  4.9716004098821713 12.1749259598381165  4.8485249321035155
  5.0295346211941734 14.2620471798381203  6.3232049404715163
  6.3356120793801729  5.9135622898381159  7.0103724407955150
  6.3935462906911731  8.0006835098381153  8.4850524491635166
  5.0874688325061719 10.0878047398381163  7.7978849488395152
  6.3356120793801729 12.1749259598381165  7.0103724407955150
  6.3935462906911731 14.2620471798381203  8.4850524491635166
 13.7234571726081711 10.0878047398381163  5.6360374297615161
 13.6655229612961691  8.0006835098381153  4.1613574213935163
 12.4173797144221680  5.9135622898381159  4.9488699294365164
 12.4753139257341701  8.0006835098381153  6.4235499378045162
 13.6655229612961691 14.2620471798381203  4.1613574213935163
 12.4173797144221680 12.1749259598381165  4.9488699294365164
 12.4753139257341701 14.2620471798381203  6.4235499378045162
 13.7813913839201696  5.9135622898381159  7.1107174381295160
 13.7813913839201696 12.1749259598381165  7.1107174381295160
 11.1692364771481731 10.0878047398381163  5.7363824270955170
 11.2361269726631718  5.9135622898381159  8.3978512745875165
  4.1731172400821714 10.0878047398381163  8.6915146341805158
 12.7046221063721703  8.0006835098381153  8.5446829543845162
  4.7802048468271732  8.0006835098381153  0.0366845687165162
 11.2361269726631718 12.1749259598381165  8.3978512745875165
 12.7046221063721703 14.2620471798381203  8.5446829543845162
  4.7802048468271732 14.2620471798381203  0.0366845687165162
  7.7171951142461719  5.9135622898381159  0.3303479283095159
  6.2486999805361716 10.0878047398381163  0.1835162485125159
  7.7171951142461719 12.1749259598381165  0.3303479283095159
  9.5133119097771690 10.0878047398381163  0.7945277731205163
 10.1203995165221716  8.0006835098381153  2.1396977076565165
 10.1203995165221716 14.2620471798381203  2.1396977076565165
 10.9818070434871728  5.9135622898381159  0.9413594529175165
  3.9187973109061720 10.0878047398381163  1.2350228125105160
 12.4503021771961748  8.0006835098381153  1.0881911327135159
 13.0573897839411686  5.9135622898381159  2.4333610672495158
  4.5258849176511715  8.0006835098381153  2.5801927470455159
 11.5888946502311683 10.0878047398381163  2.2865293874525165
 10.9818070434871728 12.1749259598381165  0.9413594529175165
 12.4503021771961748 14.2620471798381203  1.0881911327135159
 13.0573897839411686 12.1749259598381165  2.4333610672495158
  4.5258849176511715 14.2620471798381203  2.5801927470455159
  5.3872924446161736  5.9135622898381159  1.3818544923065161
  8.3242827120351706 10.0878047398381163  1.6755178518995162
  6.8557875783251729  8.0006835098381153  1.5286861721035159
  5.9943800513601708 10.0878047398381163  2.7270244268425161
  5.3872924446161736 12.1749259598381165  1.3818544923065161
  6.8557875783251729 14.2620471798381203  1.5286861721035159
 10.7274871143111703  5.9135622898381159  3.4848676312465159
 13.6644773817301690 10.0878047398381163  3.7785309908395162
 12.1959822480211741  8.0006835098381153  3.6316993110435156
 11.3345747210561694 10.0878047398381163  4.8300375657825159
 10.7274871143111703 12.1749259598381165  3.4848676312465159
 12.1959822480211741 14.2620471798381203  3.6316993110435156
  8.7160301409041701  5.9135622898381159 12.4859874183575155
  8.7160301409041701 12.1749259598381165 12.4859874183575155
  9.0057011974631731 10.0878047398381163  9.8593874601985156
  7.6996237392771718  5.9135622898381159  9.1722199598735159
  7.6996237392771718 12.1749259598381165  9.1722199598735159
 10.3747194456981724  8.0006835098381153  9.5961895293275159
 10.3747194456981724 14.2620471798381203  9.5961895293275159
 13.3117097131171747  5.9135622898381159  9.8898528889195170
  4.7802048468271732  8.0006835098381153 10.0366845687165167
 11.8432145794071708 10.0878047398381163  9.7430212091235155
 13.3117097131171747 12.1749259598381165  9.8898528889195170
  4.7802048468271732 14.2620471798381203 10.0366845687165167
  7.7171951142461719  5.9135622898381159 10.3303479283095161
  6.2486999805361716 10.0878047398381163 10.1835162485125164
  7.7171951142461719 12.1749259598381165 10.3303479283095161
  9.5133119097771690 10.0878047398381163 10.7945277731205156
 10.1203995165221716  8.0006835098381153 12.1396977076565165
 10.1203995165221716 14.2620471798381203 12.1396977076565165
 10.9818070434871728  5.9135622898381159 10.9413594529175171
  3.9187973109061720 10.0878047398381163 11.2350228125105165
 12.4503021771961748  8.0006835098381153 11.0881911327135168
 13.0573897839411686  5.9135622898381159 12.4333610672495158
  4.5258849176511715  8.0006835098381153 12.5801927470455155
 11.5888946502311683 10.0878047398381163 12.2865293874525179
 10.9818070434871728 12.1749259598381165 10.9413594529175171
 12.4503021771961748 14.2620471798381203 11.0881911327135168
 13.0573897839411686 12.1749259598381165 12.4333610672495158
  4.5258849176511715 14.2620471798381203 12.5801927470455155
  5.3872924446161736  5.9135622898381159 11.3818544923065161
  8.3242827120351706 10.0878047398381163 11.6755178518995155
  6.8557875783251729  8.0006835098381153 11.5286861721035159
  5.9943800513601708 10.0878047398381163 12.7270244268425170
  5.3872924446161736 12.1749259598381165 11.3818544923065161
  6.8557875783251729 14.2620471798381203 11.5286861721035159
 15.0295346211941698  3.8264410698381139  6.3232049404715163
 15.0874688325061683  1.7393198398381120  7.7978849488395152
 14.1731172400821706  1.7393198398381120  8.6915146341805158
 14.7802048468271714  3.8264410698381139  0.0366845687165162
 13.9187973109061680  1.7393198398381120  1.2350228125105160
 14.5258849176511688  3.8264410698381139  2.5801927470455159
 14.7802048468271714  3.8264410698381139 10.0366845687165167
 13.9187973109061680  1.7393198398381120 11.2350228125105165
 14.5258849176511688  3.8264410698381139 12.5801927470455155
 14.9716004098821713  5.9135622898381159  4.8485249321035155
 15.0295346211941698  8.0006835098381153  6.3232049404715163
 14.9716004098821713 12.1749259598381165  4.8485249321035155
 15.0295346211941698 14.2620471798381203  6.3232049404715163
 15.0874688325061683 10.0878047398381163  7.7978849488395152
 14.1731172400821706 10.0878047398381163  8.6915146341805158
 14.7802048468271714  8.0006835098381153  0.0366845687165162
 14.7802048468271714 14.2620471798381203  0.0366845687165162
 13.9187973109061680 10.0878047398381163  1.2350228125105160
 14.5258849176511688  8.0006835098381153  2.5801927470455159
 14.5258849176511688 14.2620471798381203  2.5801927470455159
 15.3872924446161683  5.9135622898381159  1.3818544923065161
 15.3872924446161683 12.1749259598381165  1.3818544923065161
 14.7802048468271714  8.0006835098381153 10.0366845687165167
 14.7802048468271714 14.2620471798381203 10.0366845687165167
 13.9187973109061680 10.0878047398381163 11.2350228125105165
 14.5258849176511688  8.0006835098381153 12.5801927470455155
 14.5258849176511688 14.2620471798381203 12.5801927470455155
 15.3872924446161683  5.9135622898381159 11.3818544923065161
 15.3872924446161683 12.1749259598381165 11.3818544923065161
