Cu
 1.0000000000000000
    17.0466579229179374    0.0000000000000000    0.0000000000000000
     0.0000000000000000   13.4200526594957399    0.0000000000000000
     0.0000000000000000    0.0000000000000000   14.7108450848768406
 Cu 
 260
Cartesian
  3.8021188637402643  1.1291787151241213  5.2551705954196608
  3.7441846524292650  5.3034211651241217  3.7804905870516610
  3.8021188637402643  7.3905423851241210  5.2551705954196608
  3.7441846524292650 11.5647848351241187  3.7804905870516610
  3.8600530750522628  3.2162999451241205  6.7298506037876589
  3.8600530750522628  9.4776636051241212  6.7298506037876589
  2.4960414151552630  3.2162999451241205  4.5680030847106616
  2.4381072038432627  1.1291787151241213  3.0933230763426600
  1.2478981682812629  1.1291787151241213  5.3555155927536617
  1.1320297456572632  3.2162999451241205  2.4061555760176594
  2.3801729925312625  5.3034211651241217  1.6186430679736601
  2.4960414151552630  9.4776636051241212  4.5680030847106616
  2.4381072038432627  7.3905423851241210  3.0933230763426600
  1.1899639569692635  5.3034211651241217  3.8808355843856588
  1.2478981682812629  7.3905423851241210  5.3555155927536617
  1.1320297456572632  9.4776636051241212  2.4061555760176594
  2.3801729925312625 11.5647848351241187  1.6186430679736601
  1.1899639569692635 11.5647848351241187  3.8808355843856588
  2.6119098377782644  1.1291787151241213  7.5173631014466604
  1.3058323795932634  3.2162999451241205  6.8301956011216589
  2.5539756264662632  5.3034211651241217  6.0426830930786606
  2.6119098377782644  7.3905423851241210  7.5173631014466604
  1.3058323795932634  9.4776636051241212  6.8301956011216589
  2.5539756264662632 11.5647848351241187  6.0426830930786606
  0.0576891423182628  1.1291787151241213  7.6177080987796604
  0.0576891423182628  7.3905423851241210  7.6177080987796604
  7.3876000242352644  3.2162999451241205  4.7686930793776598
  7.3296658129232641  1.1291787151241213  3.2940130710096600
  6.1394567773612625  1.1291787151241213  5.5562055874206600
  7.3876000242352644  9.4776636051241212  4.7686930793776598
  7.3296658129232641  7.3905423851241210  3.2940130710096600
  6.0815225660492622  5.3034211651241217  4.0815255790526601
  6.1394567773612625  7.3905423851241210  5.5562055874206600
  6.0815225660492622 11.5647848351241187  4.0815255790526601
  7.4455342355472620  5.3034211651241217  6.2433730877456597
  7.4455342355472620 11.5647848351241187  6.2433730877456597
  4.8333793287752629  3.2162999451241205  4.8690380767116608
  4.8333793287752629  9.4776636051241212  4.8690380767116608
  6.3687649579992627  1.1291787151241213  7.6773386040006599
  4.9002698242902625  5.3034211651241217  7.5305069242036602
  6.3687649579992627  7.3905423851241210  7.6773386040006599
  4.9002698242902625 11.5647848351241187  7.5305069242036602
  3.7845423681492649  1.1291787151241213  1.2723533572726602
  3.7845423681492649  7.3905423851241210  1.2723533572726602
  6.1144450288232637  1.1291787151241213  0.2208467823296596
  5.2530375018582625  3.2162999451241205  1.4191850370686603
  4.6459498951142626  5.3034211651241217  0.0740151025336602
  6.1144450288232637  7.3905423851241210  0.2208467823296596
  6.7215326355682627  5.3034211651241217  1.5660167168656596
  5.2530375018582625  9.4776636051241212  1.4191850370686603
  4.6459498951142626 11.5647848351241187  0.0740151025336602
  6.7215326355682627 11.5647848351241187  1.5660167168656596
  1.9884255636622630  3.2162999451241205  0.8081735015156598
  0.5199304299522627  1.1291787151241213  0.6613418217196596
  1.9884255636622630  9.4776636051241212  0.8081735015156598
  0.5199304299522627  7.3905423851241210  0.6613418217196596
  7.3286202333572632  3.2162999451241205  2.9111866404556599
  5.8601250996482630  1.1291787151241213  2.7643549606596594
  4.9987175726832627  3.2162999451241205  3.9626932153986600
  4.3916299659382636  5.3034211651241217  2.6175232808626596
  7.3286202333572632  9.4776636051241212  2.9111866404556599
  5.8601250996482630  7.3905423851241210  2.7643549606596594
  4.9987175726832627  9.4776636051241212  3.9626932153986600
  4.3916299659382636 11.5647848351241187  2.6175232808626596
  3.7441846524292650  5.3034211651241217 13.7804905870516610
  3.7441846524292650 11.5647848351241187 13.7804905870516610
  2.4960414151552630  3.2162999451241205 14.5680030847106625
  2.4381072038432627  1.1291787151241213 13.0933230763426600
  1.1320297456572632  3.2162999451241205 12.4061555760176585
  2.3801729925312625  5.3034211651241217 11.6186430679736592
  2.4960414151552630  9.4776636051241212 14.5680030847106625
  2.4381072038432627  7.3905423851241210 13.0933230763426600
  1.1899639569692635  5.3034211651241217 13.8808355843856592
  1.1320297456572632  9.4776636051241212 12.4061555760176585
  2.3801729925312625 11.5647848351241187 11.6186430679736592
  1.1899639569692635 11.5647848351241187 13.8808355843856592
  2.6698440490902628  3.2162999451241205  8.9920431098146594
  2.6698440490902628  9.4776636051241212  8.9920431098146594
  1.3637665909042624  5.3034211651241217  8.3048756094896596
  1.3637665909042624 11.5647848351241187  8.3048756094896596
  7.3296658129232641  1.1291787151241213 13.2940130710096600
  7.3296658129232641  7.3905423851241210 13.2940130710096600
  6.0815225660492622  5.3034211651241217 14.0815255790526610
  6.0815225660492622 11.5647848351241187 14.0815255790526610
  4.0388622973252648  1.1291787151241213  8.7288451789436596
  4.0388622973252648  7.3905423851241210  8.7288451789436596
  5.5073574310342632  3.2162999451241205  8.8756768587396593
  6.9758525647442635  5.3034211651241217  9.0225085385356607
  5.5073574310342632  9.4776636051241212  8.8756768587396593
  6.9758525647442635 11.5647848351241187  9.0225085385356607
  1.3813379658732634  5.3034211651241217  9.4630035779256598
  1.3813379658732634 11.5647848351241187  9.4630035779256598
  3.1774547614042632  3.2162999451241205  9.9271834227366593
  3.7845423681492649  1.1291787151241213 11.2723533572726602
  3.1774547614042632  9.4776636051241212  9.9271834227366593
  3.7845423681492649  7.3905423851241210 11.2723533572726602
  6.1144450288232637  1.1291787151241213 10.2208467823296605
  5.2530375018582625  3.2162999451241205 11.4191850370686598
  4.6459498951142626  5.3034211651241217 10.0740151025336608
  6.1144450288232637  7.3905423851241210 10.2208467823296605
  6.7215326355682627  5.3034211651241217 11.5660167168656596
  5.2530375018582625  9.4776636051241212 11.4191850370686598
  4.6459498951142626 11.5647848351241187 10.0740151025336608
  6.7215326355682627 11.5647848351241187 11.5660167168656596
  1.9884255636622630  3.2162999451241205 10.8081735015156593
  0.5199304299522627  1.1291787151241213 10.6613418217196596
  1.9884255636622630  9.4776636051241212 10.8081735015156593
  0.5199304299522627  7.3905423851241210 10.6613418217196596
  7.3286202333572632  3.2162999451241205 12.9111866404556590
  5.8601250996482630  1.1291787151241213 12.7643549606596594
  4.9987175726832627  3.2162999451241205 13.9626932153986605
  4.3916299659382636  5.3034211651241217 12.6175232808626596
  7.3286202333572632  9.4776636051241212 12.9111866404556590
  5.8601250996482630  7.3905423851241210 12.7643549606596594
  4.9987175726832627  9.4776636051241212 13.9626932153986605
  4.3916299659382636 11.5647848351241187 12.6175232808626596
 13.8021188637402652  1.1291787151241213  5.2551705954196608
 13.7441846524292650  5.3034211651241217  3.7804905870516610
 13.8021188637402652  7.3905423851241210  5.2551705954196608
 13.7441846524292650 11.5647848351241187  3.7804905870516610
 13.8600530750522637  3.2162999451241205  6.7298506037876589
 13.8600530750522637  9.4776636051241212  6.7298506037876589
 12.4960414151552630  3.2162999451241205  4.5680030847106616
 12.4381072038432627  1.1291787151241213  3.0933230763426600
 11.2478981682812638  1.1291787151241213  5.3555155927536617
 11.1320297456572632  3.2162999451241205  2.4061555760176594
 12.3801729925312625  5.3034211651241217  1.6186430679736601
 12.4960414151552630  9.4776636051241212  4.5680030847106616
 12.4381072038432627  7.3905423851241210  3.0933230763426600
 11.1899639569692635  5.3034211651241217  3.8808355843856588
 11.2478981682812638  7.3905423851241210  5.3555155927536617
 11.1320297456572632  9.4776636051241212  2.4061555760176594
 12.3801729925312625 11.5647848351241187  1.6186430679736601
 11.1899639569692635 11.5647848351241187  3.8808355843856588
 12.6119098377782635  1.1291787151241213  7.5173631014466604
 11.3058323795932623  3.2162999451241205  6.8301956011216589
 12.5539756264662632  5.3034211651241217  6.0426830930786606
 12.6119098377782635  7.3905423851241210  7.5173631014466604
 11.3058323795932623  9.4776636051241212  6.8301956011216589
 12.5539756264662632 11.5647848351241187  6.0426830930786606
  9.9418207196952633  3.2162999451241205  4.6683480820436598
  9.8838865083832630  1.1291787151241213  3.1936680736756600
  8.6936774728212622  1.1291787151241213  5.4558605900876600
  9.9418207196952633  9.4776636051241212  4.6683480820436598
  9.8838865083832630  7.3905423851241210  3.1936680736756600
  8.6357432615092637  5.3034211651241217  3.9811805817196593
  8.6936774728212622  7.3905423851241210  5.4558605900876600
  8.6357432615092637 11.5647848351241187  3.9811805817196593
 10.0576891423182637  1.1291787151241213  7.6177080987796604
  8.7516116841332625  3.2162999451241205  6.9305405984556590
  9.9997549310072635  5.3034211651241217  6.1430280904116596
 10.0576891423182637  7.3905423851241210  7.6177080987796604
  8.7516116841332625  9.4776636051241212  6.9305405984556590
  9.9997549310072635 11.5647848351241187  6.1430280904116596
 16.1394567773612607  1.1291787151241213  5.5562055874206600
 16.0815225660492622  5.3034211651241217  4.0815255790526601
 16.1394567773612607  7.3905423851241210  5.5562055874206600
 16.0815225660492622 11.5647848351241187  4.0815255790526601
 14.8333793287752620  3.2162999451241205  4.8690380767116608
 14.8333793287752620  9.4776636051241212  4.8690380767116608
  7.8372600917092630  3.2162999451241205  7.8241702837966596
 16.3687649579992609  1.1291787151241213  7.6773386040006599
 14.9002698242902625  5.3034211651241217  7.5305069242036602
  7.8372600917092630  9.4776636051241212  7.8241702837966596
 16.3687649579992609  7.3905423851241210  7.6773386040006599
 14.9002698242902625 11.5647848351241187  7.5305069242036602
 13.7845423681492640  1.1291787151241213  1.2723533572726602
 13.7845423681492640  7.3905423851241210  1.2723533572726602
  7.5829401625332631  3.2162999451241205  0.3676784621266598
 16.1144450288232619  1.1291787151241213  0.2208467823296596
  8.1900277692782630  1.1291787151241213  1.7128483966616597
 15.2530375018582625  3.2162999451241205  1.4191850370686603
 14.6459498951142635  5.3034211651241217  0.0740151025336602
  7.5829401625332631  9.4776636051241212  0.3676784621266598
 16.1144450288232619  7.3905423851241210  0.2208467823296596
 16.7215326355682627  5.3034211651241217  1.5660167168656596
  8.1900277692782630  7.3905423851241210  1.7128483966616597
 15.2530375018582625  9.4776636051241212  1.4191850370686603
 14.6459498951142635 11.5647848351241187  0.0740151025336602
 16.7215326355682627 11.5647848351241187  1.5660167168656596
 11.9884255636622630  3.2162999451241205  0.8081735015156598
 10.5199304299522645  1.1291787151241213  0.6613418217196596
  9.6585229029872632  3.2162999451241205  1.8596800764586598
  9.0514352962432625  5.3034211651241217  0.5145101419226599
 11.9884255636622630  9.4776636051241212  0.8081735015156598
 10.5199304299522645  7.3905423851241210  0.6613418217196596
  9.6585229029872632  9.4776636051241212  1.8596800764586598
  9.0514352962432625 11.5647848351241187  0.5145101419226599
 15.8601250996482630  1.1291787151241213  2.7643549606596594
 14.9987175726832618  3.2162999451241205  3.9626932153986600
 14.3916299659382645  5.3034211651241217  2.6175232808626596
 15.8601250996482630  7.3905423851241210  2.7643549606596594
 14.9987175726832618  9.4776636051241212  3.9626932153986600
 14.3916299659382645 11.5647848351241187  2.6175232808626596
 13.7441846524292650  5.3034211651241217 13.7804905870516610
 13.7441846524292650 11.5647848351241187 13.7804905870516610
 12.4960414151552630  3.2162999451241205 14.5680030847106625
 12.4381072038432627  1.1291787151241213 13.0933230763426600
 11.1320297456572632  3.2162999451241205 12.4061555760176585
 12.3801729925312625  5.3034211651241217 11.6186430679736592
 12.4960414151552630  9.4776636051241212 14.5680030847106625
 12.4381072038432627  7.3905423851241210 13.0933230763426600
 11.1899639569692635  5.3034211651241217 13.8808355843856592
 11.1320297456572632  9.4776636051241212 12.4061555760176585
 12.3801729925312625 11.5647848351241187 11.6186430679736592
 11.1899639569692635 11.5647848351241187 13.8808355843856592
 12.6698440490902620  3.2162999451241205  8.9920431098146594
 12.6698440490902620  9.4776636051241212  8.9920431098146594
 11.3637665909042624  5.3034211651241217  8.3048756094896596
 11.3637665909042624 11.5647848351241187  8.3048756094896596
  9.9418207196952633  3.2162999451241205 14.6683480820436589
  9.8838865083832630  1.1291787151241213 13.1936680736756600
  9.9418207196952633  9.4776636051241212 14.6683480820436589
  9.8838865083832630  7.3905423851241210 13.1936680736756600
  8.6357432615092637  5.3034211651241217 13.9811805817196593
  8.6357432615092637 11.5647848351241187 13.9811805817196593
 16.0815225660492622  5.3034211651241217 14.0815255790526610
 16.0815225660492622 11.5647848351241187 14.0815255790526610
 14.0388622973252648  1.1291787151241213  8.7288451789436596
 14.0388622973252648  7.3905423851241210  8.7288451789436596
  8.4443476984542620  1.1291787151241213  9.1693402183326604
 15.5073574310342632  3.2162999451241205  8.8756768587396593
 16.9758525647442653  5.3034211651241217  9.0225085385356607
  8.4443476984542620  7.3905423851241210  9.1693402183326604
 15.5073574310342632  9.4776636051241212  8.8756768587396593
 16.9758525647442653 11.5647848351241187  9.0225085385356607
  9.9128428321632640  3.2162999451241205  9.3161718981286601
 11.3813379658732643  5.3034211651241217  9.4630035779256598
  9.9128428321632640  9.4776636051241212  9.3161718981286601
 11.3813379658732643 11.5647848351241187  9.4630035779256598
 13.1774547614042632  3.2162999451241205  9.9271834227366593
 13.7845423681492640  1.1291787151241213 11.2723533572726602
 13.1774547614042632  9.4776636051241212  9.9271834227366593
 13.7845423681492640  7.3905423851241210 11.2723533572726602
  7.5829401625332631  3.2162999451241205 10.3676784621266602
 16.1144450288232619  1.1291787151241213 10.2208467823296605
  8.1900277692782630  1.1291787151241213 11.7128483966616592
 15.2530375018582625  3.2162999451241205 11.4191850370686598
 14.6459498951142635  5.3034211651241217 10.0740151025336608
  7.5829401625332631  9.4776636051241212 10.3676784621266602
 16.1144450288232619  7.3905423851241210 10.2208467823296605
 16.7215326355682627  5.3034211651241217 11.5660167168656596
  8.1900277692782630  7.3905423851241210 11.7128483966616592
 15.2530375018582625  9.4776636051241212 11.4191850370686598
 14.6459498951142635 11.5647848351241187 10.0740151025336608
 16.7215326355682627 11.5647848351241187 11.5660167168656596
 11.9884255636622630  3.2162999451241205 10.8081735015156593
 10.5199304299522645  1.1291787151241213 10.6613418217196596
  9.6585229029872632  3.2162999451241205 11.8596800764586607
  9.0514352962432625  5.3034211651241217 10.5145101419226599
 11.9884255636622630  9.4776636051241212 10.8081735015156593
 10.5199304299522645  7.3905423851241210 10.6613418217196596
  9.6585229029872632  9.4776636051241212 11.8596800764586607
  9.0514352962432625 11.5647848351241187 10.5145101419226599
 15.8601250996482630  1.1291787151241213 12.7643549606596594
 14.9987175726832618  3.2162999451241205 13.9626932153986605
 14.3916299659382645  5.3034211651241217 12.6175232808626596
 15.8601250996482630  7.3905423851241210 12.7643549606596594
 14.9987175726832618  9.4776636051241212 13.9626932153986605
 14.3916299659382645 11.5647848351241187 12.6175232808626596
