Cu
 1.0000000000000000
    16.5499295676231490    0.0000000000000000    0.0000000000000000
     0.0000000000000000   13.1183759850212596    0.0000000000000000
     0.0000000000000000    0.0000000000000000   12.9162405882877884
 Cu 
 222
Cartesian
  0.1185441530492231  7.4918753884461173  1.3642553258394949
  0.1185441530492231  1.2305117184461132  1.3642553258394949
  1.1373792192852239 11.6661178284461116  8.4556098012164949
  1.1373792192852239  5.4047541584461136  8.4556098012164949
  1.0794450079732236  7.4918753884461173  6.9809297928484959
  1.0794450079732236  1.2305117184461132  6.9809297928484959
  1.1953134305972224  9.5789966084461096  9.9302898095844938
  1.1953134305972224  3.3176329384461130  9.9302898095844938
  0.1185441530492231  7.4918753884461173 11.3642553258394940
  0.7256317597942239  9.5789966084461096  2.7094252603744948
  0.1185441530492231  1.2305117184461132 11.3642553258394940
  0.7256317597942239  3.3176329384461130  2.7094252603744948
  0.4713118306182232  9.5789966084461096  5.2529334387044946
  0.4713118306182232  3.3176329384461130  5.2529334387044946
  1.0783994284072236 11.6661178284461116  6.5981033622944958
  1.0783994284072236  5.4047541584461136  6.5981033622944958
  0.7256317597942239  9.5789966084461096 12.7094252603744948
  0.7256317597942239  3.3176329384461130 12.7094252603744948
  7.6098322701022232 11.6661178284461116  0.4167673256264939
  7.6098322701022232  5.4047541584461136  0.4167673256264939
  5.0556115746432253 11.6661178284461116  0.5171123229604939
  6.3616890328282247  7.4918753884461173  1.2042798232854954
  5.0556115746432253  5.4047541584461136  0.5171123229604939
  6.3616890328282247  1.2305117184461132  1.2042798232854954
  2.5013908791832242 11.6661178284461116  0.6174573202944940
  3.8074683373682241  7.4918753884461173  1.3046248206184954
  2.5013908791832242  5.4047541584461136  0.6174573202944940
  3.8074683373682241  1.2305117184461132  1.3046248206184954
  1.5870392867592233 11.6661178284461116  1.5110870056354946
  8.6500490193402229  9.5789966084461096  1.2174236460424952
  1.5870392867592233  5.4047541584461136  1.5110870056354946
 10.1185441530492231  7.4918753884461173  1.3642553258394949
  8.6500490193402229  3.3176329384461130  1.2174236460424952
 10.1185441530492231  1.2305117184461132  1.3642553258394949
  7.4939638474792254  9.5789966084461096  7.4674073088904960
  7.5518980587902247  7.4918753884461173  8.9420873172584958
  7.4939638474792254  3.3176329384461130  7.4674073088904960
  7.5518980587902247  1.2305117184461132  8.9420873172584958
  7.6098322701022232 11.6661178284461116 10.4167673256264948
  7.6098322701022232  5.4047541584461136 10.4167673256264948
  6.2458206102052252 11.6661178284461116  8.2549198065494966
  4.8818089407072236 11.6661178284461116  6.0930722978564944
  6.1299521875812228  9.5789966084461096  5.3055597898124951
  6.2458206102052252  5.4047541584461136  8.2549198065494966
  6.1878863988932231  7.4918753884461173  6.7802397981814950
  4.9397431520192239  9.5789966084461096  7.5677523062244942
  4.9976773633312233  7.4918753884461173  9.0424323145924959
  4.8818089407072236  5.4047541584461136  6.0930722978564944
  6.1299521875812228  3.3176329384461130  5.3055597898124951
  6.1878863988932231  1.2305117184461132  6.7802397981814950
  4.9397431520192239  3.3176329384461130  7.5677523062244942
  4.9976773633312233  1.2305117184461132  9.0424323145924959
  6.4196232441402232 11.6661178284461116  2.6789598316534948
  5.0556115746432253 11.6661178284461116 10.5171123229604930
  6.3037548215162253  9.5789966084461096  9.7295998149174956
  6.4196232441402232  5.4047541584461136  2.6789598316534948
  6.3616890328282247  7.4918753884461173 11.2042798232854963
  5.1135457859542246  9.5789966084461096  1.9917923313284946
  5.0556115746432253  5.4047541584461136 10.5171123229604930
  6.3037548215162253  3.3176329384461130  9.7295998149174956
  6.3616890328282247  1.2305117184461132 11.2042798232854963
  5.1135457859542246  3.3176329384461130  1.9917923313284946
  3.6915999147452245 11.6661178284461116  8.3552648038824948
  3.6915999147452245  5.4047541584461136  8.3552648038824948
  3.6336657034332234  7.4918753884461173  6.8805847955144959
  2.3855224565592232  9.5789966084461096  7.6680973035584943
  2.4434566678712235  7.4918753884461173  9.1427773119264941
  3.6336657034332234  1.2305117184461132  6.8805847955144959
  2.3855224565592232  3.3176329384461130  7.6680973035584943
  2.4434566678712235  1.2305117184461132  9.1427773119264941
  2.5013908791832242 11.6661178284461116 10.6174573202944948
  3.7495341260572244  9.5789966084461096  9.8299448122504955
  3.8074683373682241  7.4918753884461173 11.3046248206184963
  2.5013908791832242  5.4047541584461136 10.6174573202944948
  3.7495341260572244  3.3176329384461130  9.8299448122504955
  3.8074683373682241  1.2305117184461132 11.3046248206184963
 11.1373792192852239 11.6661178284461116  8.4556098012164949
 11.1373792192852239  5.4047541584461136  8.4556098012164949
 11.0794450079732272  7.4918753884461173  6.9809297928484959
  9.8313017610992226  9.5789966084461096  7.7684423008914951
  9.8892359724112229  7.4918753884461173  9.2431223092594941
 11.0794450079732272  1.2305117184461132  6.9809297928484959
  9.8313017610992226  3.3176329384461130  7.7684423008914951
  9.8892359724112229  1.2305117184461132  9.2431223092594941
 11.1953134305972224  9.5789966084461096  9.9302898095844938
 11.1953134305972224  3.3176329384461130  9.9302898095844938
  8.5831585238252224 11.6661178284461116  8.5559547985504949
  8.5831585238252224  5.4047541584461136  8.5559547985504949
  7.7886414923752252  7.4918753884461173  2.4157619007824946
  7.7886414923752252  1.2305117184461132  2.4157619007824946
  1.5870392867592233 11.6661178284461116 11.5110870056354955
  9.2571366260842236 11.6661178284461116  2.5625935805784947
  8.6500490193402229  9.5789966084461096 11.2174236460424943
  1.5870392867592233  5.4047541584461136 11.5110870056354955
 10.1185441530492231  7.4918753884461173 11.3642553258394940
 10.7256317597942274  9.5789966084461096  2.7094252603744948
  2.1941268935042233  7.4918753884461173  2.8562569401714950
  9.2571366260842236  5.4047541584461136  2.5625935805784947
  8.6500490193402229  3.3176329384461130 11.2174236460424943
 10.1185441530492231  1.2305117184461132 11.3642553258394940
 10.7256317597942274  3.3176329384461130  2.7094252603744948
  2.1941268935042233  1.2305117184461132  2.8562569401714950
  3.6626220272132235 11.6661178284461116  3.0030886199674947
  5.1311171609232238  9.5789966084461096  3.1499202997644948
  3.6626220272132235  5.4047541584461136  3.0030886199674947
  5.1311171609232238  3.3176329384461130  3.1499202997644948
  6.9272339564542236 11.6661178284461116  3.6141001445754957
  6.9272339564542236  5.4047541584461136  3.6141001445754957
  7.5343215631992253  7.4918753884461173  4.9592700791114952
  7.5343215631992253  1.2305117184461132  4.9592700791114952
  1.3327193575832232 11.6661178284461116  4.0545951839654943
  9.0028166969082264 11.6661178284461116  5.1061017589074957
  8.3957290901642239  9.5789966084461096  3.7609318243724954
  1.3327193575832232  5.4047541584461136  4.0545951839654943
  9.8642242238732276  7.4918753884461173  3.9077635041684942
 10.4713118306182249  9.5789966084461096  5.2529334387044946
  1.9398069643282234  7.4918753884461173  5.3997651185004951
  9.0028166969082264  5.4047541584461136  5.1061017589074957
  8.3957290901642239  3.3176329384461130  3.7609318243724954
  9.8642242238732276  1.2305117184461132  3.9077635041684942
 10.4713118306182249  3.3176329384461130  5.2529334387044946
  1.9398069643282234  1.2305117184461132  5.3997651185004951
  5.7382047587122234 11.6661178284461116  4.4950902233544960
  3.4083020980372232 11.6661178284461116  5.5465967982974949
  2.8012144912932233  9.5789966084461096  4.2014268637614958
  5.7382047587122234  5.4047541584461136  4.4950902233544960
  4.2697096250022231  7.4918753884461173  4.3482585435584946
  3.4083020980372232  5.4047541584461136  5.5465967982974949
  2.8012144912932233  3.3176329384461130  4.2014268637614958
  4.2697096250022231  1.2305117184461132  4.3482585435584946
 11.0783994284072236 11.6661178284461116  6.5981033622944958
  8.7484967677332222 11.6661178284461116  7.6496099372374937
  8.1414091609882249  9.5789966084461096  6.3044400027014946
 11.0783994284072236  5.4047541584461136  6.5981033622944958
  9.6099042946982269  7.4918753884461173  6.4512716824984944
  8.7484967677332222  5.4047541584461136  7.6496099372374937
  8.1414091609882249  3.3176329384461130  6.3044400027014946
  9.6099042946982269  1.2305117184461132  6.4512716824984944
  6.4196232441402232 11.6661178284461116 12.6789598316534935
  6.4196232441402232  5.4047541584461136 12.6789598316534935
  5.1135457859542246  9.5789966084461096 11.9917923313284938
  5.1135457859542246  3.3176329384461130 11.9917923313284938
  7.7886414923752252  7.4918753884461173 12.4157619007824955
  7.7886414923752252  1.2305117184461132 12.4157619007824955
  9.2571366260842236 11.6661178284461116 12.5625935805784952
 10.7256317597942274  9.5789966084461096 12.7094252603744948
  2.1941268935042233  7.4918753884461173 12.8562569401714946
  9.2571366260842236  5.4047541584461136 12.5625935805784952
 10.7256317597942274  3.3176329384461130 12.7094252603744948
  2.1941268935042233  1.2305117184461132 12.8562569401714946
 15.0556115746432244 11.6661178284461116  0.5171123229604939
 16.3616890328282238  7.4918753884461173  1.2042798232854954
 15.0556115746432244  5.4047541584461136  0.5171123229604939
 16.3616890328282238  1.2305117184461132  1.2042798232854954
 12.5013908791832264 11.6661178284461116  0.6174573202944940
 13.8074683373682259  7.4918753884461173  1.3046248206184954
 12.5013908791832264  5.4047541584461136  0.6174573202944940
 13.8074683373682259  1.2305117184461132  1.3046248206184954
 11.5870392867592269 11.6661178284461116  1.5110870056354946
 11.5870392867592269  5.4047541584461136  1.5110870056354946
 16.2458206102052216 11.6661178284461116  8.2549198065494966
 14.8818089407072236 11.6661178284461116  6.0930722978564944
 16.1299521875812246  9.5789966084461096  5.3055597898124951
 16.2458206102052216  5.4047541584461136  8.2549198065494966
 16.1878863988932231  7.4918753884461173  6.7802397981814950
 14.9397431520192274  9.5789966084461096  7.5677523062244942
 14.9976773633312224  7.4918753884461173  9.0424323145924959
 14.8818089407072236  5.4047541584461136  6.0930722978564944
 16.1299521875812246  3.3176329384461130  5.3055597898124951
 16.1878863988932231  1.2305117184461132  6.7802397981814950
 14.9397431520192274  3.3176329384461130  7.5677523062244942
 14.9976773633312224  1.2305117184461132  9.0424323145924959
 16.4196232441402259 11.6661178284461116  2.6789598316534948
 15.0556115746432244 11.6661178284461116 10.5171123229604930
 16.3037548215162218  9.5789966084461096  9.7295998149174956
 16.4196232441402259  5.4047541584461136  2.6789598316534948
 16.3616890328282238  7.4918753884461173 11.2042798232854963
 15.1135457859542228  9.5789966084461096  1.9917923313284946
 15.0556115746432244  5.4047541584461136 10.5171123229604930
 16.3037548215162218  3.3176329384461130  9.7295998149174956
 16.3616890328282238  1.2305117184461132 11.2042798232854963
 15.1135457859542228  3.3176329384461130  1.9917923313284946
 13.6915999147452236 11.6661178284461116  8.3552648038824948
 13.6915999147452236  5.4047541584461136  8.3552648038824948
 13.6336657034332234  7.4918753884461173  6.8805847955144959
 12.3855224565592241  9.5789966084461096  7.6680973035584943
 12.4434566678712226  7.4918753884461173  9.1427773119264941
 13.6336657034332234  1.2305117184461132  6.8805847955144959
 12.3855224565592241  3.3176329384461130  7.6680973035584943
 12.4434566678712226  1.2305117184461132  9.1427773119264941
 12.5013908791832264 11.6661178284461116 10.6174573202944948
 13.7495341260572275  9.5789966084461096  9.8299448122504955
 13.8074683373682259  7.4918753884461173 11.3046248206184963
 12.5013908791832264  5.4047541584461136 10.6174573202944948
 13.7495341260572275  3.3176329384461130  9.8299448122504955
 13.8074683373682259  1.2305117184461132 11.3046248206184963
 11.5870392867592269 11.6661178284461116 11.5110870056354955
 11.5870392867592269  5.4047541584461136 11.5110870056354955
 12.1941268935042277  7.4918753884461173  2.8562569401714950
 12.1941268935042277  1.2305117184461132  2.8562569401714950
 13.6626220272132226 11.6661178284461116  3.0030886199674947
 15.1311171609232229  9.5789966084461096  3.1499202997644948
 13.6626220272132226  5.4047541584461136  3.0030886199674947
 15.1311171609232229  3.3176329384461130  3.1499202997644948
 11.3327193575832226 11.6661178284461116  4.0545951839654943
 11.3327193575832226  5.4047541584461136  4.0545951839654943
 11.9398069643282234  7.4918753884461173  5.3997651185004951
 11.9398069643282234  1.2305117184461132  5.3997651185004951
 15.7382047587122269 11.6661178284461116  4.4950902233544960
 13.4083020980372236 11.6661178284461116  5.5465967982974949
 12.8012144912932229  9.5789966084461096  4.2014268637614958
 15.7382047587122269  5.4047541584461136  4.4950902233544960
 14.2697096250022231  7.4918753884461173  4.3482585435584946
 13.4083020980372236  5.4047541584461136  5.5465967982974949
 12.8012144912932229  3.3176329384461130  4.2014268637614958
 14.2697096250022231  1.2305117184461132  4.3482585435584946
 16.4196232441402259 11.6661178284461116 12.6789598316534935
 16.4196232441402259  5.4047541584461136 12.6789598316534935
 15.1135457859542228  9.5789966084461096 11.9917923313284938
 15.1135457859542228  3.3176329384461130 11.9917923313284938
 12.1941268935042277  7.4918753884461173 12.8562569401714946
 12.1941268935042277  1.2305117184461132 12.8562569401714946
