Cu
 1.0000000000000000
    14.9816187304538744    0.0000000000000000    0.0000000000000000
     0.0000000000000000   12.3895877785108102    0.0000000000000000
     0.0000000000000000    0.0000000000000000   12.8742583289164649
 Cu 
 202
Cartesian
  4.5723797542700515 11.8164640260325768  3.1405466709444907
  4.5144455429590522  7.6422215760325756  1.6658666625764915
  4.5723797542700515  5.5551003560325825  3.1405466709444907
  4.5144455429590522  1.3808579060325779  1.6658666625764915
  4.6303139655820500  9.7293427960325758  4.6152266793124888
  4.6303139655820500  3.4679791260325787  4.6152266793124888
  3.2663023056850493  9.7293427960325758  2.4533791602354915
  3.2083680943730499 11.8164640260325768  0.9786991518674907
  2.0181590588110501 11.8164640260325768  3.2408916682784925
  1.9022906361870502  9.7293427960325758  0.2915316515424902
  3.2663023056850493  3.4679791260325787  2.4533791602354915
  3.2083680943730499  5.5551003560325825  0.9786991518674907
  1.9602248474990511  7.6422215760325756  1.7662116599104900
  2.0181590588110501  5.5551003560325825  3.2408916682784925
  1.9022906361870502  3.4679791260325787  0.2915316515424902
  1.9602248474990511  1.3808579060325779  1.7662116599104900
  3.3821707283080507 11.8164640260325768  5.4027391769714912
  2.0760932701230503  9.7293427960325758  4.7155716766464879
  3.3242365169960504  7.6422215760325756  3.9280591686034909
  3.3821707283080507  5.5551003560325825  5.4027391769714912
  2.0760932701230503  3.4679791260325787  4.7155716766464879
  3.3242365169960504  1.3808579060325779  3.9280591686034909
  0.7120816102250505  9.7293427960325758  2.5537241575684901
  0.6541473989130502 11.8164640260325768  1.0790441492004903
  0.7120816102250505  3.4679791260325787  2.5537241575684901
  0.6541473989130502  5.5551003560325825  1.0790441492004903
  0.8279500328480498 11.8164640260325768  5.5030841743044911
  0.7700158215370502  7.6422215760325756  4.0284041659364904
  0.8279500328480498  5.5551003560325825  5.5030841743044911
  0.7700158215370502  1.3808579060325779  4.0284041659364904
  8.1578609147650507  9.7293427960325758  2.6540691549024906
  8.0999267034530504 11.8164640260325768  1.1793891465344906
  6.9097176678910479 11.8164640260325768  3.4415816629454898
  8.1578609147650507  3.4679791260325787  2.6540691549024906
  8.0999267034530504  5.5551003560325825  1.1793891465344906
  6.8517834565790476  7.6422215760325756  1.9669016545774907
  6.9097176678910479  5.5551003560325825  3.4415816629454898
  6.8517834565790476  1.3808579060325779  1.9669016545774907
  8.2157951260770457  7.6422215760325756  4.1287491632704896
  8.2157951260770457  1.3808579060325779  4.1287491632704896
  5.6036402193050501  9.7293427960325758  2.7544141522364907
  5.6036402193050501  3.4679791260325787  2.7544141522364907
  7.1390258485290481 11.8164640260325768  5.5627146795254907
  5.6705307148200497  7.6422215760325756  5.4158829997284892
  7.1390258485290481  5.5551003560325825  5.5627146795254907
  5.6705307148200497  1.3808579060325779  5.4158829997284892
  8.0988811238870504  9.7293427960325758  0.7965627159804907
  6.6303859901780484 11.8164640260325768  0.6497310361844901
  5.7689784632130499  9.7293427960325758  1.8480692909234899
  5.1618908564680490  7.6422215760325756  0.5028993563874904
  8.0988811238870504  3.4679791260325787  0.7965627159804907
  6.6303859901780484  5.5551003560325825  0.6497310361844901
  5.7689784632130499  3.4679791260325787  1.8480692909234899
  5.1618908564680490  1.3808579060325779  0.5028993563874904
  4.5144455429590522  7.6422215760325756 11.6658666625764909
  4.5144455429590522  1.3808579060325779 11.6658666625764909
  3.2663023056850493  9.7293427960325758 12.4533791602354924
  3.2083680943730499 11.8164640260325768 10.9786991518674881
  1.9022906361870502  9.7293427960325758 10.2915316515424866
  3.1504338830610488  7.6422215760325756  9.5040191434984891
  3.2663023056850493  3.4679791260325787 12.4533791602354924
  3.2083680943730499  5.5551003560325825 10.9786991518674881
  1.9602248474990511  7.6422215760325756 11.7662116599104891
  1.9022906361870502  3.4679791260325787 10.2915316515424866
  3.1504338830610488  1.3808579060325779  9.5040191434984891
  1.9602248474990511  1.3808579060325779 11.7662116599104891
  3.4401049396200492  9.7293427960325758  6.8774191853394884
  3.4401049396200492  3.4679791260325787  6.8774191853394884
  2.1340274814340501  7.6422215760325756  6.1902516850144895
  2.1340274814340501  1.3808579060325779  6.1902516850144895
  0.7120816102250505  9.7293427960325758 12.5537241575684906
  0.6541473989130502 11.8164640260325768 11.0790441492004916
  0.7120816102250505  3.4679791260325787 12.5537241575684906
  0.6541473989130502  5.5551003560325825 11.0790441492004916
  8.1578609147650507  9.7293427960325758 12.6540691549024888
  8.0999267034530504 11.8164640260325768 11.1793891465344899
  8.1578609147650507  3.4679791260325787 12.6540691549024888
  8.0999267034530504  5.5551003560325825 11.1793891465344899
  6.8517834565790476  7.6422215760325756 11.9669016545774873
  6.8517834565790476  1.3808579060325779 11.9669016545774873
  5.6036402193050501  9.7293427960325758 12.7544141522364889
  5.6036402193050501  3.4679791260325787 12.7544141522364889
  4.8091231878550520 11.8164640260325768  6.6142212544684886
  4.8091231878550520  5.5551003560325825  6.6142212544684886
  6.2776183215640486  9.7293427960325758  6.7610529342644901
  7.7461134552740480  7.6422215760325756  6.9078846140604906
  6.2776183215640486  3.4679791260325787  6.7610529342644901
  7.7461134552740480  1.3808579060325779  6.9078846140604906
  0.6831037226930503  9.7293427960325758  7.2015479736534891
  2.1515988564030506  7.6422215760325756  7.3483796534504888
  0.6831037226930503  3.4679791260325787  7.2015479736534891
  2.1515988564030506  1.3808579060325779  7.3483796534504888
  3.9477156519340504  9.7293427960325758  7.8125594982614910
  4.5548032586790521 11.8164640260325768  9.1577294327974919
  3.9477156519340504  3.4679791260325787  7.8125594982614910
  4.5548032586790521  5.5551003560325825  9.1577294327974919
  6.8847059193530500 11.8164640260325768  8.1062228578544904
  6.0232983923880496  9.7293427960325758  9.3045611125934879
  5.4162107856440498  7.6422215760325756  7.9593911780584907
  6.8847059193530500  5.5551003560325825  8.1062228578544904
  7.4917935260980490  7.6422215760325756  9.4513927923904859
  6.0232983923880496  3.4679791260325787  9.3045611125934879
  5.4162107856440498  1.3808579060325779  7.9593911780584907
  7.4917935260980490  1.3808579060325779  9.4513927923904859
  2.7586864541920502  9.7293427960325758  8.6935495770404874
  1.2901913204820499 11.8164640260325768  8.5467178972444913
  0.4287837935170499  9.7293427960325758  9.7450561519834888
  2.7586864541920502  3.4679791260325787  8.6935495770404874
  1.2901913204820499  5.5551003560325825  8.5467178972444913
  0.4287837935170499  3.4679791260325787  9.7450561519834888
  8.0988811238870504  9.7293427960325758 10.7965627159804907
  6.6303859901780484 11.8164640260325768 10.6497310361844892
  5.7689784632130499  9.7293427960325758 11.8480692909234868
  5.1618908564680490  7.6422215760325756 10.5028993563874913
  8.0988811238870504  3.4679791260325787 10.7965627159804907
  6.6303859901780484  5.5551003560325825 10.6497310361844892
  5.7689784632130499  3.4679791260325787 11.8480692909234868
  5.1618908564680490  1.3808579060325779 10.5028993563874913
 14.5723797542700488 11.8164640260325768  3.1405466709444907
 14.5144455429590540  7.6422215760325756  1.6658666625764915
 14.5723797542700488  5.5551003560325825  3.1405466709444907
 14.5144455429590540  1.3808579060325779  1.6658666625764915
 14.6303139655820491  9.7293427960325758  4.6152266793124888
 14.6303139655820491  3.4679791260325787  4.6152266793124888
 13.2663023056850484  9.7293427960325758  2.4533791602354915
 13.2083680943730464 11.8164640260325768  0.9786991518674907
 12.0181590588110492 11.8164640260325768  3.2408916682784925
 11.9022906361870469  9.7293427960325758  0.2915316515424902
 13.2663023056850484  3.4679791260325787  2.4533791602354915
 13.2083680943730464  5.5551003560325825  0.9786991518674907
 11.9602248474990471  7.6422215760325756  1.7662116599104900
 12.0181590588110492  5.5551003560325825  3.2408916682784925
 11.9022906361870469  3.4679791260325787  0.2915316515424902
 11.9602248474990471  1.3808579060325779  1.7662116599104900
 13.3821707283080524 11.8164640260325768  5.4027391769714912
 12.0760932701230512  9.7293427960325758  4.7155716766464879
 13.3242365169960504  7.6422215760325756  3.9280591686034909
 13.3821707283080524  5.5551003560325825  5.4027391769714912
 12.0760932701230512  3.4679791260325787  4.7155716766464879
 13.3242365169960504  1.3808579060325779  3.9280591686034909
 10.7120816102250505  9.7293427960325758  2.5537241575684901
 10.6541473989130502 11.8164640260325768  1.0790441492004903
  9.4639383633510494 11.8164640260325768  3.3412366656124903
 10.7120816102250505  3.4679791260325787  2.5537241575684901
 10.6541473989130502  5.5551003560325825  1.0790441492004903
  9.4060041520390509  7.6422215760325756  1.8665566572444898
  9.4639383633510494  5.5551003560325825  3.3412366656124903
  9.4060041520390509  1.3808579060325779  1.8665566572444898
 10.8279500328480456 11.8164640260325768  5.5030841743044911
  9.5218725746630497  9.7293427960325758  4.8159166739804897
 10.7700158215370507  7.6422215760325756  4.0284041659364904
 10.8279500328480456  5.5551003560325825  5.5030841743044911
  9.5218725746630497  3.4679791260325787  4.8159166739804897
 10.7700158215370507  1.3808579060325779  4.0284041659364904
  8.6075209822390502  9.7293427960325758  5.7095463593214903
  8.6075209822390502  3.4679791260325787  5.7095463593214903
 14.5144455429590540  7.6422215760325756 11.6658666625764909
 14.5144455429590540  1.3808579060325779 11.6658666625764909
 13.2663023056850484  9.7293427960325758 12.4533791602354924
 13.2083680943730464 11.8164640260325768 10.9786991518674881
 11.9022906361870469  9.7293427960325758 10.2915316515424866
 13.1504338830610461  7.6422215760325756  9.5040191434984891
 13.2663023056850484  3.4679791260325787 12.4533791602354924
 13.2083680943730464  5.5551003560325825 10.9786991518674881
 11.9602248474990471  7.6422215760325756 11.7662116599104891
 11.9022906361870469  3.4679791260325787 10.2915316515424866
 13.1504338830610461  1.3808579060325779  9.5040191434984891
 11.9602248474990471  1.3808579060325779 11.7662116599104891
 13.4401049396200474  9.7293427960325758  6.8774191853394884
 13.4401049396200474  3.4679791260325787  6.8774191853394884
 12.1340274814340461  7.6422215760325756  6.1902516850144895
 12.1340274814340461  1.3808579060325779  6.1902516850144895
 10.7120816102250505  9.7293427960325758 12.5537241575684906
 10.6541473989130502 11.8164640260325768 11.0790441492004916
 10.7120816102250505  3.4679791260325787 12.5537241575684906
 10.6541473989130502  5.5551003560325825 11.0790441492004916
  9.4060041520390509  7.6422215760325756 11.8665566572444892
  9.4060041520390509  1.3808579060325779 11.8665566572444892
 14.8091231878550502 11.8164640260325768  6.6142212544684886
 14.8091231878550502  5.5551003560325825  6.6142212544684886
  9.2146085889840474 11.8164640260325768  7.0547162938574903
  9.2146085889840474  5.5551003560325825  7.0547162938574903
 10.6831037226930494  9.7293427960325758  7.2015479736534891
 12.1515988564030497  7.6422215760325756  7.3483796534504888
 10.6831037226930494  3.4679791260325787  7.2015479736534891
 12.1515988564030497  1.3808579060325779  7.3483796534504888
 13.9477156519340468  9.7293427960325758  7.8125594982614910
 14.5548032586790530 11.8164640260325768  9.1577294327974919
 13.9477156519340468  3.4679791260325787  7.8125594982614910
 14.5548032586790530  5.5551003560325825  9.1577294327974919
  8.3532010530630494  9.7293427960325758  8.2530545376514883
  8.9602886598080485 11.8164640260325768  9.5982244721864891
  8.3532010530630494  3.4679791260325787  8.2530545376514883
  8.9602886598080485  5.5551003560325825  9.5982244721864891
 12.7586864541920466  9.7293427960325758  8.6935495770404874
 11.2901913204820463 11.8164640260325768  8.5467178972444913
 10.4287837935170504  9.7293427960325758  9.7450561519834888
  9.8216961867730497  7.6422215760325756  8.3998862174474915
 12.7586864541920466  3.4679791260325787  8.6935495770404874
 11.2901913204820463  5.5551003560325825  8.5467178972444913
 10.4287837935170504  3.4679791260325787  9.7450561519834888
  9.8216961867730497  1.3808579060325779  8.3998862174474915
