Cu
 1.0000000000000000
    15.3300994056255391    0.0000000000000000    0.0000000000000000
     0.0000000000000000   12.3940329594207519    0.0000000000000000
     0.0000000000000000    0.0000000000000000   14.9889131076765736
 Cu 
 196
Cartesian
  1.6841222643228089  2.0457816989862891  0.3299348232765587
  1.6841222643228089  8.3071453689862871  0.3299348232765587
  0.4359790270488108  6.2200241389862887  1.1174473209355602
  2.7243390135608090  4.1329029189862885  1.1305911436925600
  4.1928341472698092  6.2200241389862887  1.2774228234895602
  2.7243390135608090 10.3942665889862891  1.1305911436925600
  1.5682538416998111  4.1329029189862885  7.3805748065405608
  1.6261880530108104  6.2200241389862887  8.8552548149085624
  1.5682538416998111 10.3942665889862891  7.3805748065405608
  1.6841222643228089  2.0457816989862891 10.3299348232765613
  1.6841222643228089  8.3071453689862871 10.3299348232765613
  0.3201106044258095  2.0457816989862891  8.1680873041995614
  0.2042421818018089  4.1329029189862885  5.2187272874625608
  0.3201106044258095  8.3071453689862871  8.1680873041995614
  0.2621763931138092  6.2200241389862887  6.6934072958315598
  0.2042421818018089 10.3942665889862891  5.2187272874625608
  0.4939132383608091  2.0457816989862891  2.5921273293035596
  0.3780448157368096  4.1329029189862885  9.6427673125675604
  0.4939132383608091  8.3071453689862871  2.5921273293035596
  0.4359790270488108  6.2200241389862887 11.1174473209355611
  0.3780448157368096 10.3942665889862891  9.6427673125675604
  5.2116692135058083  2.0457816989862891  8.3687772988665596
  5.2116692135058083  8.3071453689862871  8.3687772988665596
  5.1537350021938080  6.2200241389862887  6.8940972904985598
  3.9055917553198083  4.1329029189862885  7.6816097985415599
  3.9635259666318072  6.2200241389862887  9.1562898069095588
  3.9055917553198083 10.3942665889862891  7.6816097985415599
  5.2696034248178085  4.1329029189862885  9.8434573072345586
  5.2696034248178085 10.3942665889862891  9.8434573072345586
  2.6574485180458094  2.0457816989862891  8.4691222962005632
  2.6574485180458094  8.3071453689862871  8.4691222962005632
  1.8629314865958109  6.2200241389862887  2.3289293984325594
  3.3314266203048088  2.0457816989862891  2.4757610782285595
  2.7243390135608090  4.1329029189862885 11.1305911436925591
  4.1928341472698092  6.2200241389862887 11.2774228234895588
  4.7999217540148100  4.1329029189862885  2.6225927580245596
  3.3314266203048088  8.3071453689862871  2.4757610782285595
  2.7243390135608090 10.3942665889862891 11.1305911436925591
  4.7999217540148100 10.3942665889862891  2.6225927580245596
  1.0015239506748097  2.0457816989862891  3.5272676422255600
  1.0015239506748097  8.3071453689862871  3.5272676422255600
  1.6086115574198114  6.2200241389862887  4.8724375767615600
  3.0771066911288081  2.0457816989862891  5.0192692565575605
  2.4700190843848082  4.1329029189862885  3.6740993220225597
  3.9385142180938102  6.2200241389862887  3.8209310018185594
  4.5456018248388084  4.1329029189862885  5.1661009363545594
  3.0771066911288081  8.3071453689862871  5.0192692565575605
  2.4700190843848082 10.3942665889862891  3.6740993220225597
  4.5456018248388084 10.3942665889862891  5.1661009363545594
  5.1526894226278079  2.0457816989862891  6.5112708599445597
  2.8227867619538083  2.0457816989862891  7.5627774348875594
  2.2156991552088092  4.1329029189862885  6.2176075003515594
  5.1526894226278079  8.3071453689862871  6.5112708599445597
  3.6841942889188086  6.2200241389862887  6.3644391801485591
  2.8227867619538083  8.3071453689862871  7.5627774348875594
  2.2156991552088092 10.3942665889862891  6.2176075003515594
  0.4939132383608091  2.0457816989862891 12.5921273293035583
  0.4939132383608091  8.3071453689862871 12.5921273293035583
  1.8629314865958109  6.2200241389862887 12.3289293984325603
  3.3314266203048088  2.0457816989862891 12.4757610782285600
  4.7999217540148100  4.1329029189862885 12.6225927580245596
  3.3314266203048088  8.3071453689862871 12.4757610782285600
  4.7999217540148100 10.3942665889862891 12.6225927580245596
  1.0015239506748097  2.0457816989862891 13.5272676422255635
  1.0015239506748097  8.3071453689862871 13.5272676422255635
  1.6086115574198114  6.2200241389862887 14.8724375767615591
  2.4700190843848082  4.1329029189862885 13.6740993220225597
  3.9385142180938102  6.2200241389862887 13.8209310018185612
  2.4700190843848082 10.3942665889862891 13.6740993220225597
 11.6841222643228093  2.0457816989862891  0.3299348232765587
 11.6841222643228093  8.3071453689862871  0.3299348232765587
  9.1299015688638061  2.0457816989862891  0.4302798206105587
 10.4359790270488073  6.2200241389862887  1.1174473209355602
  9.1299015688638061  8.3071453689862871  0.4302798206105587
  6.5756808734038081  2.0457816989862891  0.5306248179445587
  7.8817583315888058  6.2200241389862887  1.2177923182685602
  6.5756808734038081  8.3071453689862871  0.5306248179445587
  5.6613292809798095  2.0457816989862891  1.4242545032855594
 12.7243390135608045  4.1329029189862885  1.1305911436925600
  5.6613292809798095  8.3071453689862871  1.4242545032855594
 14.1928341472698101  6.2200241389862887  1.2774228234895602
 12.7243390135608045 10.3942665889862891  1.1305911436925600
 11.5682538416998071  4.1329029189862885  7.3805748065405608
 11.6261880530108108  6.2200241389862887  8.8552548149085624
 11.5682538416998071 10.3942665889862891  7.3805748065405608
 11.6841222643228093  2.0457816989862891 10.3299348232765613
 11.6841222643228093  8.3071453689862871 10.3299348232765613
 10.3201106044258104  2.0457816989862891  8.1680873041995614
  8.9560989349278088  2.0457816989862891  6.0062397955065592
 10.2042421818018063  4.1329029189862885  5.2187272874625608
 10.3201106044258104  8.3071453689862871  8.1680873041995614
 10.2621763931138048  6.2200241389862887  6.6934072958315598
  9.0140331462398073  4.1329029189862885  7.4809198038745590
  9.0719673575518058  6.2200241389862887  8.9555998122425606
  8.9560989349278088  8.3071453689862871  6.0062397955065592
 10.2042421818018063 10.3942665889862891  5.2187272874625608
  9.0140331462398073 10.3942665889862891  7.4809198038745590
 10.4939132383608094  2.0457816989862891  2.5921273293035596
  9.1299015688638061  2.0457816989862891 10.4302798206105578
 10.3780448157368070  4.1329029189862885  9.6427673125675604
 10.4939132383608094  8.3071453689862871  2.5921273293035596
 10.4359790270488073  6.2200241389862887 11.1174473209355611
  9.1878357801748081  4.1329029189862885  1.9049598289785596
  9.1299015688638061  8.3071453689862871 10.4302798206105578
 10.3780448157368070 10.3942665889862891  9.6427673125675604
  9.1878357801748081 10.3942665889862891  1.9049598289785596
  7.7658899089658089  2.0457816989862891  8.2684323015325596
  7.7658899089658089  8.3071453689862871  8.2684323015325596
  7.7079556976538068  6.2200241389862887  6.7937522931645598
  6.4598124507798076  4.1329029189862885  7.5812648012085591
  6.5177466620918096  6.2200241389862887  9.0559448095765624
  6.4598124507798076 10.3942665889862891  7.5812648012085591
  6.5756808734038081  2.0457816989862891 10.5306248179445614
  7.8238241202778065  4.1329029189862885  9.7431123099005621
  7.8817583315888058  6.2200241389862887 11.2177923182685610
  6.5756808734038081  8.3071453689862871 10.5306248179445614
  7.8238241202778065 10.3942665889862891  9.7431123099005621
 15.2116692135058074  2.0457816989862891  8.3687772988665596
 15.2116692135058074  8.3071453689862871  8.3687772988665596
 15.1537350021938053  6.2200241389862887  6.8940972904985598
 13.9055917553198043  4.1329029189862885  7.6816097985415599
 13.9635259666318063  6.2200241389862887  9.1562898069095588
 13.9055917553198043 10.3942665889862891  7.6816097985415599
 15.2696034248178094  4.1329029189862885  9.8434573072345586
 15.2696034248178094 10.3942665889862891  9.8434573072345586
 12.6574485180458058  2.0457816989862891  8.4691222962005632
 12.6574485180458058  8.3071453689862871  8.4691222962005632
 11.8629314865958122  6.2200241389862887  2.3289293984325594
  5.6613292809798095  2.0457816989862891 11.4242545032855602
 13.3314266203048106  2.0457816989862891  2.4757610782285595
 12.7243390135608045  4.1329029189862885 11.1305911436925591
  5.6613292809798095  8.3071453689862871 11.4242545032855602
 14.1928341472698101  6.2200241389862887 11.2774228234895588
 14.7999217540148074  4.1329029189862885  2.6225927580245596
  6.2684168877248077  6.2200241389862887  2.7694244378215598
 13.3314266203048106  8.3071453689862871  2.4757610782285595
 12.7243390135608045 10.3942665889862891 11.1305911436925591
 14.7999217540148074 10.3942665889862891  2.6225927580245596
  7.7369120214338087  2.0457816989862891  2.9162561176175594
  9.2054071551438099  4.1329029189862885  3.0630877974145601
  7.7369120214338087  8.3071453689862871  2.9162561176175594
  9.2054071551438099 10.3942665889862891  3.0630877974145601
 11.0015239506748088  2.0457816989862891  3.5272676422255600
 11.0015239506748088  8.3071453689862871  3.5272676422255600
 11.6086115574198114  6.2200241389862887  4.8724375767615600
  5.4070093518038078  2.0457816989862891  3.9677626816155596
 13.0771066911288081  2.0457816989862891  5.0192692565575605
 12.4700190843848091  4.1329029189862885  3.6740993220225597
  5.4070093518038078  8.3071453689862871  3.9677626816155596
 13.9385142180938111  6.2200241389862887  3.8209310018185594
 14.5456018248388048  4.1329029189862885  5.1661009363545594
  6.0140969585488078  6.2200241389862887  5.3129326161505599
 13.0771066911288081  8.3071453689862871  5.0192692565575605
 12.4700190843848091 10.3942665889862891  3.6740993220225597
 14.5456018248388048 10.3942665889862891  5.1661009363545594
  9.8124947529328104  2.0457816989862891  4.4082577210045599
  7.4825920922578071  2.0457816989862891  5.4597642959475596
  6.8755044855138081  4.1329029189862885  4.1145943614115597
  9.8124947529328104  8.3071453689862871  4.4082577210045599
  8.3439996192228065  6.2200241389862887  4.2614260412085594
  7.4825920922578071  8.3071453689862871  5.4597642959475596
  6.8755044855138081 10.3942665889862891  4.1145943614115597
 15.1526894226278053  2.0457816989862891  6.5112708599445597
 12.8227867619538056  2.0457816989862891  7.5627774348875594
 12.2156991552088101  4.1329029189862885  6.2176075003515594
 15.1526894226278053  8.3071453689862871  6.5112708599445597
 13.6841942889188068  6.2200241389862887  6.3644391801485591
 12.8227867619538056  8.3071453689862871  7.5627774348875594
 12.2156991552088101 10.3942665889862891  6.2176075003515594
 10.4939132383608094  2.0457816989862891 12.5921273293035583
 10.4939132383608094  8.3071453689862871 12.5921273293035583
  9.1878357801748081  4.1329029189862885 11.9049598289785585
  9.1878357801748081 10.3942665889862891 11.9049598289785585
 11.8629314865958122  6.2200241389862887 12.3289293984325603
 13.3314266203048106  2.0457816989862891 12.4757610782285600
 14.7999217540148074  4.1329029189862885 12.6225927580245596
  6.2684168877248077  6.2200241389862887 12.7694244378215593
 13.3314266203048106  8.3071453689862871 12.4757610782285600
 14.7999217540148074 10.3942665889862891 12.6225927580245596
  7.7369120214338087  2.0457816989862891 12.9162561176175608
  9.2054071551438099  4.1329029189862885 13.0630877974145623
  7.7369120214338087  8.3071453689862871 12.9162561176175608
  9.2054071551438099 10.3942665889862891 13.0630877974145623
 11.0015239506748088  2.0457816989862891 13.5272676422255635
 11.0015239506748088  8.3071453689862871 13.5272676422255635
 11.6086115574198114  6.2200241389862887 14.8724375767615591
  5.4070093518038078  2.0457816989862891 13.9677626816155609
 12.4700190843848091  4.1329029189862885 13.6740993220225597
  5.4070093518038078  8.3071453689862871 13.9677626816155609
 13.9385142180938111  6.2200241389862887 13.8209310018185612
 12.4700190843848091 10.3942665889862891 13.6740993220225597
  9.8124947529328104  2.0457816989862891 14.4082577210045599
  6.8755044855138081  4.1329029189862885 14.1145943614115588
  9.8124947529328104  8.3071453689862871 14.4082577210045599
  8.3439996192228065  6.2200241389862887 14.2614260412085585
  6.8755044855138081 10.3942665889862891 14.1145943614115588
