Cu
1.0
    7.668573041968    0.000000000000    0.000000000000
    3.834286520984    6.641179065121    0.000000000000
    0.000000000000    0.000000000000   33.393939569928
 Cu
 144
Selective dynamics
Direct
    0.000000000000    0.000000000000    0.000000000000   T  T  T
    0.333333333333    0.000000000000    0.000000000000   T  T  T
    0.666666666667    0.000000000000    0.000000000000   T  T  T
    0.000000000000    0.333333333333    0.000000000000   T  T  T
    0.333333333333    0.333333333333    0.000000000000   T  T  T
    0.666666666667    0.333333333333    0.000000000000   T  T  T
    0.000000000000    0.666666666667    0.000000000000   T  T  T
    0.333333333333    0.666666666667    0.000000000000   T  T  T
    0.666666666667    0.666666666667    0.000000000000   T  T  T
    0.111111111111    0.111111111111    0.062500000000   T  T  T
    0.444444444444    0.111111111111    0.062500000000   T  T  T
    0.777777777778    0.111111111111    0.062500000000   T  T  T
    0.111111111111    0.444444444444    0.062500000000   T  T  T
    0.444444444444    0.444444444444    0.062500000000   T  T  T
    0.777777777778    0.444444444444    0.062500000000   T  T  T
    0.111111111111    0.777777777778    0.062500000000   T  T  T
    0.444444444444    0.777777777778    0.062500000000   T  T  T
    0.777777777778    0.777777777778    0.062500000000   T  T  T
    0.222222222222    0.222222222222    0.125000000000   T  T  T
    0.555555555556    0.222222222222    0.125000000000   T  T  T
    0.888888888889    0.222222222222    0.125000000000   T  T  T
    0.222222222222    0.555555555556    0.125000000000   T  T  T
    0.555555555556    0.555555555556    0.125000000000   T  T  T
    0.888888888889    0.555555555556    0.125000000000   T  T  T
    0.222222222222    0.888888888889    0.125000000000   T  T  T
    0.555555555556    0.888888888889    0.125000000000   T  T  T
    0.888888888889    0.888888888889    0.125000000000   T  T  T
    0.000000000000    0.000000000000    0.187500000000   T  T  T
    0.333333333333    0.000000000000    0.187500000000   T  T  T
    0.666666666667    0.000000000000    0.187500000000   T  T  T
    0.000000000000    0.333333333333    0.187500000000   T  T  T
    0.333333333333    0.333333333333    0.187500000000   T  T  T
    0.666666666667    0.333333333333    0.187500000000   T  T  T
    0.000000000000    0.666666666667    0.187500000000   T  T  T
    0.333333333333    0.666666666667    0.187500000000   T  T  T
    0.666666666667    0.666666666667    0.187500000000   T  T  T
    0.222222222222    0.222222222222    0.250000000000   T  T  T
    0.555555555556    0.222222222222    0.250000000000   T  T  T
    0.888888888889    0.222222222222    0.250000000000   T  T  T
    0.222222222222    0.555555555556    0.250000000000   T  T  T
    0.555555555556    0.555555555556    0.250000000000   T  T  T
    0.888888888889    0.555555555556    0.250000000000   T  T  T
    0.222222222222    0.888888888889    0.250000000000   T  T  T
    0.555555555556    0.888888888889    0.250000000000   T  T  T
    0.888888888889    0.888888888889    0.250000000000   T  T  T
    0.111111111111    0.111111111111    0.312500000000   T  T  T
    0.444444444444    0.111111111111    0.312500000000   T  T  T
    0.777777777778    0.111111111111    0.312500000000   T  T  T
    0.111111111111    0.444444444444    0.312500000000   T  T  T
    0.444444444444    0.444444444444    0.312500000000   T  T  T
    0.777777777778    0.444444444444    0.312500000000   T  T  T
    0.111111111111    0.777777777778    0.312500000000   T  T  T
    0.444444444444    0.777777777778    0.312500000000   T  T  T
    0.777777777778    0.777777777778    0.312500000000   T  T  T
    0.000000000000    0.000000000000    0.375000000000   T  T  T
    0.333333333333    0.000000000000    0.375000000000   T  T  T
    0.666666666667    0.000000000000    0.375000000000   T  T  T
    0.000000000000    0.333333333333    0.375000000000   T  T  T
    0.333333333333    0.333333333333    0.375000000000   T  T  T
    0.666666666667    0.333333333333    0.375000000000   T  T  T
    0.000000000000    0.666666666667    0.375000000000   T  T  T
    0.333333333333    0.666666666667    0.375000000000   T  T  T
    0.666666666667    0.666666666667    0.375000000000   T  T  T
    0.222222222222    0.222222222222    0.437500000000   T  T  T
    0.555555555556    0.222222222222    0.437500000000   T  T  T
    0.888888888889    0.222222222222    0.437500000000   T  T  T
    0.222222222222    0.555555555556    0.437500000000   T  T  T
    0.555555555556    0.555555555556    0.437500000000   T  T  T
    0.888888888889    0.555555555556    0.437500000000   T  T  T
    0.222222222222    0.888888888889    0.437500000000   T  T  T
    0.555555555556    0.888888888889    0.437500000000   T  T  T
    0.888888888889    0.888888888889    0.437500000000   T  T  T
    0.111111111111    0.111111111111    0.500000000000   T  T  T
    0.444444444444    0.111111111111    0.500000000000   T  T  T
    0.777777777778    0.111111111111    0.500000000000   T  T  T
    0.111111111111    0.444444444444    0.500000000000   T  T  T
    0.444444444444    0.444444444444    0.500000000000   T  T  T
    0.777777777778    0.444444444444    0.500000000000   T  T  T
    0.111111111111    0.777777777778    0.500000000000   T  T  T
    0.444444444444    0.777777777778    0.500000000000   T  T  T
    0.777777777778    0.777777777778    0.500000000000   T  T  T
    0.000000000000    0.000000000000    0.562500000000   T  T  T
    0.333333333333    0.000000000000    0.562500000000   T  T  T
    0.666666666667    0.000000000000    0.562500000000   T  T  T
    0.000000000000    0.333333333333    0.562500000000   T  T  T
    0.333333333333    0.333333333333    0.562500000000   T  T  T
    0.666666666667    0.333333333333    0.562500000000   T  T  T
    0.000000000000    0.666666666667    0.562500000000   T  T  T
    0.333333333333    0.666666666667    0.562500000000   T  T  T
    0.666666666667    0.666666666667    0.562500000000   T  T  T
    0.222222222222    0.222222222222    0.625000000000   T  T  T
    0.555555555556    0.222222222222    0.625000000000   T  T  T
    0.888888888889    0.222222222222    0.625000000000   T  T  T
    0.222222222222    0.555555555556    0.625000000000   T  T  T
    0.555555555556    0.555555555556    0.625000000000   T  T  T
    0.888888888889    0.555555555556    0.625000000000   T  T  T
    0.222222222222    0.888888888889    0.625000000000   T  T  T
    0.555555555556    0.888888888889    0.625000000000   T  T  T
    0.888888888889    0.888888888889    0.625000000000   T  T  T
    0.111111111111    0.111111111111    0.687500000000   T  T  T
    0.444444444444    0.111111111111    0.687500000000   T  T  T
    0.777777777778    0.111111111111    0.687500000000   T  T  T
    0.111111111111    0.444444444444    0.687500000000   T  T  T
    0.444444444444    0.444444444444    0.687500000000   T  T  T
    0.777777777778    0.444444444444    0.687500000000   T  T  T
    0.111111111111    0.777777777778    0.687500000000   T  T  T
    0.444444444444    0.777777777778    0.687500000000   T  T  T
    0.777777777778    0.777777777778    0.687500000000   T  T  T
    0.222222222222    0.222222222222    0.750000000000   T  T  T
    0.555555555556    0.222222222222    0.750000000000   T  T  T
    0.888888888889    0.222222222222    0.750000000000   T  T  T
    0.222222222222    0.555555555556    0.750000000000   T  T  T
    0.555555555556    0.555555555556    0.750000000000   T  T  T
    0.888888888889    0.555555555556    0.750000000000   T  T  T
    0.222222222222    0.888888888889    0.750000000000   T  T  T
    0.555555555556    0.888888888889    0.750000000000   T  T  T
    0.888888888889    0.888888888889    0.750000000000   T  T  T
    0.000000000000    0.000000000000    0.812500000000   T  T  T
    0.333333333333    0.000000000000    0.812500000000   T  T  T
    0.666666666667    0.000000000000    0.812500000000   T  T  T
    0.000000000000    0.333333333333    0.812500000000   T  T  T
    0.333333333333    0.333333333333    0.812500000000   T  T  T
    0.666666666667    0.333333333333    0.812500000000   T  T  T
    0.000000000000    0.666666666667    0.812500000000   T  T  T
    0.333333333333    0.666666666667    0.812500000000   T  T  T
    0.666666666667    0.666666666667    0.812500000000   T  T  T
    0.111111111111    0.111111111111    0.875000000000   T  T  T
    0.444444444444    0.111111111111    0.875000000000   T  T  T
    0.777777777778    0.111111111111    0.875000000000   T  T  T
    0.111111111111    0.444444444444    0.875000000000   T  T  T
    0.444444444444    0.444444444444    0.875000000000   T  T  T
    0.777777777778    0.444444444444    0.875000000000   T  T  T
    0.111111111111    0.777777777778    0.875000000000   T  T  T
    0.444444444444    0.777777777778    0.875000000000   T  T  T
    0.777777777778    0.777777777778    0.875000000000   T  T  T
    0.222222222222    0.222222222222    0.937500000000   T  T  T
    0.555555555556    0.222222222222    0.937500000000   T  T  T
    0.888888888889    0.222222222222    0.937500000000   T  T  T
    0.222222222222    0.555555555556    0.937500000000   T  T  T
    0.555555555556    0.555555555556    0.937500000000   T  T  T
    0.888888888889    0.555555555556    0.937500000000   T  T  T
    0.222222222222    0.888888888889    0.937500000000   T  T  T
    0.555555555556    0.888888888889    0.937500000000   T  T  T
    0.888888888889    0.888888888889    0.937500000000   T  T  T
