Cu
 1.0000000000000000
     7.6685730419681093    0.0000000000000000    0.0000000000000000
     3.8342865209840546    6.6411790651208911    0.0000000000000000
     0.0000000000000000    0.0000000000000000   39.6553032392894522
 Cu 
 171
Direct
  0.0000000000000000  0.0000000000000000  0.0000000000000000
  0.3333333333333333  0.0000000000000000  0.6315789473684210
  0.6666666666666666  0.0000000000000000  0.6315789473684210
  0.0000000000000000  0.3333333333333333  0.6315789473684210
  0.3333333333333333  0.3333333333333333  0.6315789473684210
  0.6666666666666666  0.3333333333333333  0.6315789473684210
  0.0000000000000000  0.6666666666666666  0.6315789473684210
  0.3333333333333333  0.6666666666666666  0.6315789473684210
  0.6666666666666666  0.6666666666666666  0.6315789473684210
  0.2222222222222222  0.2222222222222222  0.6842105263157894
  0.5555555555555556  0.2222222222222222  0.6842105263157894
  0.8888888888888886  0.2222222222222222  0.6842105263157894
  0.2222222222222222  0.5555555555555556  0.6842105263157894
  0.5555555555555555  0.5555555555555556  0.6842105263157894
  0.8888888888888887  0.5555555555555556  0.6842105263157894
  0.2222222222222223  0.8888888888888887  0.6842105263157894
  0.5555555555555556  0.8888888888888887  0.6842105263157894
  0.8888888888888888  0.8888888888888887  0.6842105263157894
  0.0000000000000000  0.0000000000000000  0.6315789473684210
  0.7777777777777778  0.7777777777777777  0.5789473684210527
  0.4444444444444444  0.7777777777777777  0.5789473684210527
  0.1111111111111111  0.7777777777777777  0.5789473684210527
  0.0000000000000000  0.6666666666666666  0.4736842105263158
  0.3333333333333333  0.6666666666666666  0.4736842105263158
  0.6666666666666666  0.6666666666666666  0.4736842105263158
  0.2222222222222222  0.2222222222222222  0.5263157894736842
  0.5555555555555556  0.2222222222222222  0.5263157894736842
  0.8888888888888886  0.2222222222222222  0.5263157894736842
  0.2222222222222222  0.5555555555555556  0.5263157894736842
  0.5555555555555555  0.5555555555555556  0.5263157894736842
  0.1111111111111111  0.1111111111111111  0.7368421052631579
  0.8888888888888887  0.5555555555555556  0.5263157894736842
  0.5555555555555556  0.8888888888888887  0.5263157894736842
  0.8888888888888888  0.8888888888888887  0.5263157894736842
  0.1111111111111111  0.1111111111111111  0.5789473684210527
  0.4444444444444443  0.1111111111111111  0.5789473684210527
  0.7777777777777778  0.1111111111111111  0.5789473684210527
  0.1111111111111111  0.4444444444444444  0.5789473684210527
  0.4444444444444444  0.4444444444444444  0.5789473684210527
  0.7777777777777778  0.4444444444444444  0.5789473684210527
  0.2222222222222223  0.8888888888888887  0.5263157894736842
  0.6666666666666666  0.3333333333333333  0.4736842105263158
  0.4444444444444443  0.1111111111111111  0.7368421052631579
  0.1111111111111111  0.4444444444444444  0.7368421052631579
  0.8888888888888888  0.8888888888888887  0.8421052631578947
  0.1111111111111111  0.1111111111111111  0.8947368421052632
  0.4444444444444443  0.1111111111111111  0.8947368421052632
  0.7777777777777778  0.1111111111111111  0.8947368421052632
  0.1111111111111111  0.4444444444444444  0.8947368421052632
  0.4444444444444444  0.4444444444444444  0.8947368421052632
  0.7777777777777778  0.4444444444444444  0.8947368421052632
  0.1111111111111111  0.7777777777777777  0.8947368421052632
  0.4444444444444444  0.7777777777777777  0.8947368421052632
  0.7777777777777778  0.7777777777777777  0.8947368421052632
  0.0000000000000000  0.0000000000000000  0.9473684210526315
  0.3333333333333333  0.0000000000000000  0.9473684210526315
  0.6666666666666666  0.0000000000000000  0.9473684210526315
  0.0000000000000000  0.3333333333333333  0.9473684210526315
  0.3333333333333333  0.3333333333333333  0.9473684210526315
  0.6666666666666666  0.3333333333333333  0.9473684210526315
  0.0000000000000000  0.6666666666666666  0.9473684210526315
  0.5555555555555556  0.8888888888888887  0.8421052631578947
  0.2222222222222223  0.8888888888888887  0.8421052631578947
  0.8888888888888887  0.5555555555555556  0.8421052631578947
  0.5555555555555555  0.5555555555555556  0.8421052631578947
  0.4444444444444444  0.4444444444444444  0.7368421052631579
  0.7777777777777778  0.4444444444444444  0.7368421052631579
  0.1111111111111111  0.7777777777777777  0.7368421052631579
  0.4444444444444444  0.7777777777777777  0.7368421052631579
  0.7777777777777778  0.7777777777777777  0.7368421052631579
  0.0000000000000000  0.0000000000000000  0.7894736842105262
  0.3333333333333333  0.0000000000000000  0.7894736842105262
  0.6666666666666666  0.0000000000000000  0.7894736842105262
  0.7777777777777778  0.1111111111111111  0.7368421052631579
  0.0000000000000000  0.3333333333333333  0.7894736842105262
  0.6666666666666666  0.3333333333333333  0.7894736842105262
  0.0000000000000000  0.6666666666666666  0.7894736842105262
  0.3333333333333333  0.6666666666666666  0.7894736842105262
  0.6666666666666666  0.6666666666666666  0.7894736842105262
  0.2222222222222222  0.2222222222222222  0.8421052631578947
  0.5555555555555556  0.2222222222222222  0.8421052631578947
  0.8888888888888886  0.2222222222222222  0.8421052631578947
  0.2222222222222222  0.5555555555555556  0.8421052631578947
  0.3333333333333333  0.3333333333333333  0.7894736842105262
  0.3333333333333333  0.6666666666666666  0.9473684210526315
  0.3333333333333333  0.3333333333333333  0.4736842105263158
  0.6666666666666666  0.0000000000000000  0.4736842105263158
  0.8888888888888887  0.5555555555555556  0.1052631578947368
  0.2222222222222223  0.8888888888888887  0.1052631578947368
  0.5555555555555556  0.8888888888888887  0.1052631578947368
  0.8888888888888888  0.8888888888888887  0.1052631578947368
  0.0000000000000000  0.0000000000000000  0.1578947368421053
  0.3333333333333333  0.0000000000000000  0.1578947368421053
  0.6666666666666666  0.0000000000000000  0.1578947368421053
  0.0000000000000000  0.3333333333333333  0.1578947368421053
  0.3333333333333333  0.3333333333333333  0.1578947368421053
  0.6666666666666666  0.3333333333333333  0.1578947368421053
  0.0000000000000000  0.6666666666666666  0.1578947368421053
  0.3333333333333333  0.6666666666666666  0.1578947368421053
  0.6666666666666666  0.6666666666666666  0.1578947368421053
  0.1111111111111111  0.1111111111111111  0.2105263157894737
  0.4444444444444443  0.1111111111111111  0.2105263157894737
  0.7777777777777778  0.1111111111111111  0.2105263157894737
  0.1111111111111111  0.4444444444444444  0.2105263157894737
  0.5555555555555555  0.5555555555555556  0.1052631578947368
  0.2222222222222222  0.5555555555555556  0.1052631578947368
  0.8888888888888886  0.2222222222222222  0.1052631578947368
  0.5555555555555556  0.2222222222222222  0.1052631578947368
  0.3333333333333333  0.0000000000000000  0.0000000000000000
  0.6666666666666666  0.0000000000000000  0.0000000000000000
  0.0000000000000000  0.3333333333333333  0.0000000000000000
  0.3333333333333333  0.3333333333333333  0.0000000000000000
  0.6666666666666666  0.3333333333333333  0.0000000000000000
  0.0000000000000000  0.6666666666666666  0.0000000000000000
  0.3333333333333333  0.6666666666666666  0.0000000000000000
  0.6666666666666666  0.6666666666666666  0.0000000000000000
  0.4444444444444444  0.4444444444444444  0.2105263157894737
  0.1111111111111111  0.1111111111111111  0.0526315789473684
  0.7777777777777778  0.1111111111111111  0.0526315789473684
  0.1111111111111111  0.4444444444444444  0.0526315789473684
  0.4444444444444444  0.4444444444444444  0.0526315789473684
  0.7777777777777778  0.4444444444444444  0.0526315789473684
  0.1111111111111111  0.7777777777777777  0.0526315789473684
  0.4444444444444444  0.7777777777777777  0.0526315789473684
  0.7777777777777778  0.7777777777777777  0.0526315789473684
  0.2222222222222222  0.2222222222222222  0.1052631578947368
  0.4444444444444443  0.1111111111111111  0.0526315789473684
  0.0000000000000000  0.3333333333333333  0.4736842105263158
  0.7777777777777778  0.4444444444444444  0.2105263157894737
  0.4444444444444444  0.7777777777777777  0.2105263157894737
  0.1111111111111111  0.4444444444444444  0.3684210526315789
  0.4444444444444444  0.4444444444444444  0.3684210526315789
  0.7777777777777778  0.4444444444444444  0.3684210526315789
  0.1111111111111111  0.7777777777777777  0.3684210526315789
  0.4444444444444444  0.7777777777777777  0.3684210526315789
  0.7777777777777778  0.7777777777777777  0.3684210526315789
  0.2222222222222222  0.2222222222222222  0.4210526315789473
  0.5555555555555556  0.2222222222222222  0.4210526315789473
  0.8888888888888886  0.2222222222222222  0.4210526315789473
  0.2222222222222222  0.5555555555555556  0.4210526315789473
  0.5555555555555555  0.5555555555555556  0.4210526315789473
  0.8888888888888887  0.5555555555555556  0.4210526315789473
  0.2222222222222223  0.8888888888888887  0.4210526315789473
  0.5555555555555556  0.8888888888888887  0.4210526315789473
  0.8888888888888888  0.8888888888888887  0.4210526315789473
  0.0000000000000000  0.0000000000000000  0.4736842105263158
  0.3333333333333333  0.0000000000000000  0.4736842105263158
  0.7777777777777778  0.1111111111111111  0.3684210526315789
  0.4444444444444443  0.1111111111111111  0.3684210526315789
  0.1111111111111111  0.1111111111111111  0.3684210526315789
  0.6666666666666666  0.6666666666666666  0.3157894736842105
  0.7777777777777778  0.7777777777777777  0.2105263157894737
  0.2222222222222222  0.2222222222222222  0.2631578947368421
  0.5555555555555556  0.2222222222222222  0.2631578947368421
  0.8888888888888886  0.2222222222222222  0.2631578947368421
  0.2222222222222222  0.5555555555555556  0.2631578947368421
  0.5555555555555555  0.5555555555555556  0.2631578947368421
  0.8888888888888887  0.5555555555555556  0.2631578947368421
  0.2222222222222223  0.8888888888888887  0.2631578947368421
  0.1111111111111111  0.7777777777777777  0.2105263157894737
  0.5555555555555556  0.8888888888888887  0.2631578947368421
  0.0000000000000000  0.0000000000000000  0.3157894736842105
  0.3333333333333333  0.0000000000000000  0.3157894736842105
  0.6666666666666666  0.0000000000000000  0.3157894736842105
  0.0000000000000000  0.3333333333333333  0.3157894736842105
  0.3333333333333333  0.3333333333333333  0.3157894736842105
  0.6666666666666666  0.3333333333333333  0.3157894736842105
  0.0000000000000000  0.6666666666666666  0.3157894736842105
  0.3333333333333333  0.6666666666666666  0.3157894736842105
  0.8888888888888888  0.8888888888888887  0.2631578947368421
  0.6666666666666666  0.6666666666666666  0.9473684210526315
