Generated generic
1.0
    7.66857304    0.00000000    0.00000000
    3.83428652    6.64117907    0.00000000
    0.00000000    0.00000000   16.69696978
 Cu
 72
Selective dynamics
Direct
    0.00000000    0.00000000    0.00000000 F F F
    0.33333333    0.00000000    0.00000000 F F F
    0.66666667    0.00000000    0.00000000 F F F
    0.00000000    0.33333333    0.00000000 F F F
    0.33333333    0.33333333    0.00000000 F F F
    0.66666667    0.33333333    0.00000000 F F F
    0.00000000    0.66666667    0.00000000 F F F
    0.33333333    0.66666667    0.00000000 F F F
    0.66666667    0.66666667    0.00000000 F F F
    0.11111111    0.11111111    0.12500000 T T T
    0.44444444    0.11111111    0.12500000 T T T
    0.77777778    0.11111111    0.12500000 T T T
    0.11111111    0.44444444    0.12500000 T T T
    0.44444444    0.44444444    0.12500000 T T T
    0.77777778    0.44444444    0.12500000 T T T
    0.11111111    0.77777778    0.12500000 T T T
    0.44444444    0.77777778    0.12500000 T T T
    0.77777778    0.77777778    0.12500000 T T T
    0.00000000    0.00000000    0.25000000 T T T
    0.33333333    0.00000000    0.25000000 T T T
    0.66666667    0.00000000    0.25000000 T T T
    0.00000000    0.33333333    0.25000000 T T T
    0.33333333    0.33333333    0.25000000 T T T
    0.66666667    0.33333333    0.25000000 T T T
    0.00000000    0.66666667    0.25000000 T T T
    0.33333333    0.66666667    0.25000000 T T T
    0.66666667    0.66666667    0.25000000 T T T
    0.22222222    0.22222222    0.37500000 T T T
    0.55555556    0.22222222    0.37500000 T T T
    0.88888889    0.22222222    0.37500000 T T T
    0.22222222    0.55555556    0.37500000 T T T
    0.55555556    0.55555556    0.37500000 T T T
    0.88888889    0.55555556    0.37500000 T T T
    0.22222222    0.88888889    0.37500000 T T T
    0.55555556    0.88888889    0.37500000 T T T
    0.88888889    0.88888889    0.37500000 T T T
    0.00000000    0.00000000    0.50000000 T T T
    0.33333333    0.00000000    0.50000000 T T T
    0.66666667    0.00000000    0.50000000 T T T
    0.00000000    0.33333333    0.50000000 T T T
    0.33333333    0.33333333    0.50000000 T T T
    0.66666667    0.33333333    0.50000000 T T T
    0.00000000    0.66666667    0.50000000 T T T
    0.33333333    0.66666667    0.50000000 T T T
    0.66666667    0.66666667    0.50000000 T T T
    0.11111111    0.11111111    0.62500000 T T T
    0.44444444    0.11111111    0.62500000 T T T
    0.77777778    0.11111111    0.62500000 T T T
    0.11111111    0.44444444    0.62500000 T T T
    0.44444444    0.44444444    0.62500000 T T T
    0.77777778    0.44444444    0.62500000 T T T
    0.11111111    0.77777778    0.62500000 T T T
    0.44444444    0.77777778    0.62500000 T T T
    0.77777778    0.77777778    0.62500000 T T T
    0.00000000    0.00000000    0.75000000 T T T
    0.33333333    0.00000000    0.75000000 T T T
    0.66666667    0.00000000    0.75000000 T T T
    0.00000000    0.33333333    0.75000000 T T T
    0.33333333    0.33333333    0.75000000 T T T
    0.66666667    0.33333333    0.75000000 T T T
    0.00000000    0.66666667    0.75000000 T T T
    0.33333333    0.66666667    0.75000000 T T T
    0.66666667    0.66666667    0.75000000 T T T
    0.22222222    0.22222222    0.87500000 F F F
    0.55555556    0.22222222    0.87500000 F F F
    0.88888889    0.22222222    0.87500000 F F F
    0.22222222    0.55555556    0.87500000 F F F
    0.55555556    0.55555556    0.87500000 F F F
    0.88888889    0.55555556    0.87500000 F F F
    0.22222222    0.88888889    0.87500000 F F F
    0.55555556    0.88888889    0.87500000 F F F
    0.88888889    0.88888889    0.87500000 F F F
