Generated generic
1.0
    7.66857304    0.00000000    0.00000000
    3.83428652    6.64117907    0.00000000
    0.00000000    0.00000000   25.04509091
 Cu
 108
Selective dynamics
Direct
    0.10962146    0.10888350    0.99942261 F F F
    0.44345852    0.11183793    0.00053838 F F F
    0.77564218    0.11147536    0.99963945 F F F
    0.11237939    0.44529821    0.99954436 F F F
    0.44207314    0.44439353    0.99972001 F F F
    0.77936277    0.44612834    0.00041020 F F F
    0.11288776    0.77940679    0.00040551 F F F
    0.44479025    0.77711382    0.99934118 F F F
    0.77449197    0.77950745    0.00028392 F F F
    0.88945137    0.22049619    0.08381411 T T T
    0.21905589    0.22484775    0.08382187 T T T
    0.55662788    0.22123719    0.08319502 T T T
    0.88534760    0.55775993    0.08372273 T T T
    0.22003353    0.55573082    0.08306459 T T T
    0.55539614    0.55614884    0.08329654 T T T
    0.89011428    0.88940775    0.08345223 T T T
    0.22240757    0.89047932    0.08317111 T T T
    0.55434489    0.88944587    0.08387338 T T T
    0.00037121    0.00284673    0.16645186 T T T
    0.33564767    0.00042812    0.16588110 T T T
    0.66575596    0.99964438    0.16677039 T T T
    0.00007682    0.33611141    0.16692550 T T T
    0.33126325    0.33319794    0.16647341 T T T
    0.66684963    0.33355725    0.16641924 T T T
    0.99678369    0.66796362    0.16672891 T T T
    0.33426617    0.66933548    0.16723323 T T T
    0.66631782    0.66493798    0.16619677 T T T
    0.10987739    0.11386417    0.24994291 T T T
    0.44239740    0.11147277    0.25005200 T T T
    0.77663940    0.11038038    0.24929606 T T T
    0.11169128    0.44722507    0.24925089 T T T
    0.44766523    0.44221410    0.25077382 T T T
    0.77635468    0.44673988    0.25007185 T T T
    0.11205605    0.77533497    0.25076413 T T T
    0.44225028    0.77984209    0.24951974 T T T
    0.77533392    0.77833206    0.24948950 T T T
    0.88902814    0.22269319    0.33372822 T T T
    0.22016486    0.22391940    0.33266828 T T T
    0.55736037    0.22200718    0.33352041 T T T
    0.89132401    0.55576758    0.33301054 T T T
    0.22284038    0.55365228    0.33398020 T T T
    0.55524286    0.55631023    0.33261325 T T T
    0.88657939    0.89152150    0.33304704 T T T
    0.22420263    0.88751907    0.33373362 T T T
    0.55443493    0.88958727    0.33351194 T T T
    0.00047504    0.99947478    0.41602202 T T T
    0.33552495    0.99947384    0.41699183 T T T
    0.66562274    0.99990608    0.41654935 T T T
    0.00094702    0.33093922    0.41606858 T T T
    0.33066306    0.33536053    0.41627997 T T T
    0.66392348    0.33482504    0.41596749 T T T
    0.00183400    0.66787091    0.41719647 T T T
    0.33394290    0.66545049    0.41705478 T T T
    0.66626861    0.66562421    0.41724409 T T T
    0.11055181    0.17793836    0.49935444 T T T
    0.44585860    0.17770893    0.49937336 T T T
    0.77786139    0.17776238    0.50054605 T T T
    0.11075626    0.51057456    0.49962710 T T T
    0.44344222    0.51390225    0.49972154 T T T
    0.77831863    0.51410981    0.50033188 T T T
    0.11340610    0.84404668    0.50014741 T T T
    0.44334329    0.84338421    0.49967423 T T T
    0.77788545    0.84453413    0.50058911 T T T
    0.88860944    0.29143117    0.58297298 T T T
    0.22502373    0.28720049    0.58320856 T T T
    0.55646480    0.28933017    0.58285602 T T T
    0.88931543    0.61967930    0.58282920 T T T
    0.22136548    0.62508320    0.58404711 T T T
    0.55510168    0.62146148    0.58307942 T T T
    0.88918994    0.95534850    0.58269262 T T T
    0.22090934    0.95453511    0.58340086 T T T
    0.55828453    0.95297276    0.58294404 T T T
    0.99957217    0.06815739    0.66740698 T T T
    0.33537104    0.06643481    0.66696701 T T T
    0.66769931    0.06555789    0.66598189 T T T
    0.00089507    0.40270709    0.66726832 T T T
    0.33317307    0.40195504    0.66588398 T T T
    0.66716107    0.39931982    0.66649739 T T T
    0.99882091    0.73510023    0.66665497 T T T
    0.33597885    0.73144320    0.66732400 T T T
    0.66880468    0.73212712    0.66741300 T T T
    0.11273910    0.17500174    0.74936594 T T T
    0.44125032    0.17997970    0.74967273 T T T
    0.78079315    0.17563482    0.75055325 T T T
    0.11044300    0.51314970    0.75056496 T T T
    0.44208030    0.51095609    0.74953057 T T T
    0.77917070    0.51102731    0.74941837 T T T
    0.11368522    0.84366967    0.75035214 T T T
    0.44775346    0.84154104    0.75023014 T T T
    0.77564956    0.84359843    0.75048598 T T T
    0.89276007    0.28623446    0.83382231 T T T
    0.22331025    0.29189784    0.83338978 T T T
    0.55508350    0.28606854    0.83407137 T T T
    0.88701842    0.62454247    0.83380581 T T T
    0.21925765    0.62444606    0.83360775 T T T
    0.55217740    0.62493669    0.83385935 T T T
    0.88674513    0.95819842    0.83377832 T T T
    0.22188356    0.95313367    0.83392811 T T T
    0.55672758    0.95619554    0.83324927 T T T
    0.99794237    0.06795472    0.91650431 F F F
    0.33216601    0.06785253    0.91599489 F F F
    0.66506811    0.06907819    0.91645484 F F F
    0.00046350    0.40057584    0.91720137 F F F
    0.33170872    0.39877754    0.91713371 F F F
    0.66389514    0.40255019    0.91638631 F F F
    0.99857230    0.73123541    0.91696370 F F F
    0.33616882    0.73163721    0.91661847 F F F
    0.66983866    0.73071281    0.91591936 F F F
