Generated generic
1.0
    7.66857304    0.00000000    0.00000000
    3.83428652    6.64117907    0.00000000
    0.00000000    0.00000000   25.04509091
 Cu
 108
Selective dynamics
Direct
    0.10858083    0.11315226    0.00077323 F F F
    0.44154040    0.11292047    0.99934821 F F F
    0.77476919    0.11316121    0.99992482 F F F
    0.10730619    0.44726992    0.00029989 F F F
    0.44623982    0.44362232    0.99969023 F F F
    0.77899534    0.44179821    0.99947324 F F F
    0.11125311    0.77817214    0.99994722 F F F
    0.44620975    0.77819992    0.00041741 F F F
    0.77658269    0.77946583    0.00072394 F F F
    0.88874482    0.22167231    0.08330584 T T T
    0.22397785    0.21943200    0.08294254 T T T
    0.55506053    0.22213111    0.08387563 T T T
    0.88850663    0.55435490    0.08357954 T T T
    0.22362648    0.55460183    0.08387153 T T T
    0.55623351    0.55799176    0.08352523 T T T
    0.88706236    0.88906597    0.08272344 T T T
    0.22180275    0.88992390    0.08385126 T T T
    0.55765925    0.88971043    0.08384652 T T T
    0.00053901    0.99787897    0.16688261 T T T
    0.33025645    0.00163327    0.16618786 T T T
    0.66567399    0.00204496    0.16701035 T T T
    0.99863162    0.33563173    0.16731376 T T T
    0.33665777    0.33133798    0.16746002 T T T
    0.66724073    0.33451356    0.16712594 T T T
    0.00040033    0.66500812    0.16663250 T T T
    0.33232713    0.66494150    0.16589872 T T T
    0.66660531    0.66893697    0.16670588 T T T
    0.11242166    0.10887810    0.24927645 T T T
    0.44137505    0.11238478    0.25032282 T T T
    0.77829363    0.11025518    0.24921753 T T T
    0.10990358    0.44522805    0.24978877 T T T
    0.44338301    0.44577102    0.24935593 T T T
    0.77732461    0.44173582    0.24928133 T T T
    0.11274004    0.77907057    0.24968986 T T T
    0.44455844    0.77810153    0.25015932 T T T
    0.77728667    0.78053658    0.24989531 T T T
    0.88710449    0.22424957    0.33257019 T T T
    0.21922215    0.22380692    0.33255443 T T T
    0.55827909    0.22180790    0.33408281 T T T
    0.88856003    0.55549962    0.33321153 T T T
    0.22136796    0.55560726    0.33266278 T T T
    0.55211057    0.55818410    0.33362463 T T T
    0.88762567    0.88819507    0.33299812 T T T
    0.22322087    0.88981396    0.33353338 T T T
    0.55525288    0.88824266    0.33377712 T T T
    0.00075675    0.00142471    0.41609786 T T T
    0.33405475    0.00032792    0.41635695 T T T
    0.66597977    0.99940614    0.41668549 T T T
    0.00086577    0.33233906    0.41612602 T T T
    0.33520667    0.33372035    0.41625833 T T T
    0.66356777    0.33552844    0.41712421 T T T
    0.00402486    0.66376782    0.41590184 T T T
    0.33543919    0.66458273    0.41621914 T T T
    0.66565205    0.66474268    0.41684873 T T T
    0.37694857    0.44548444    0.50065629 T T T
    0.71254169    0.44332612    0.49956996 T T T
    0.04212949    0.44430872    0.50002626 T T T
    0.38057734    0.77692191    0.49953312 T T T
    0.71054594    0.77925290    0.49998683 T T T
    0.04715022    0.77728620    0.50020308 T T T
    0.37837352    0.11339400    0.49931089 T T T
    0.71058877    0.11021168    0.49993012 T T T
    0.04246424    0.11018515    0.49958276 T T T
    0.15761671    0.55274953    0.58319941 T T T
    0.48723845    0.55708187    0.58374335 T T T
    0.82313333    0.55278809    0.58366135 T T T
    0.15792021    0.88929091    0.58276446 T T T
    0.48665067    0.88862240    0.58389610 T T T
    0.82158182    0.88877416    0.58399417 T T T
    0.15699138    0.22347050    0.58260621 T T T
    0.49025730    0.22079800    0.58275441 T T T
    0.82075083    0.22447316    0.58272668 T T T
    0.26875657    0.33302794    0.66731888 T T T
    0.60108099    0.33529475    0.66657270 T T T
    0.93136513    0.33578663    0.66621452 T T T
    0.26444458    0.66728799    0.66696736 T T T
    0.59602066    0.66963229    0.66590322 T T T
    0.93276091    0.66620854    0.66646887 T T T
    0.26534620    0.99996947    0.66714987 T T T
    0.59910596    0.99761197    0.66632908 T T T
    0.93370730    0.00058905    0.66608039 T T T
    0.37902807    0.44410671    0.75066338 T T T
    0.70938508    0.44290429    0.75001658 T T T
    0.04372032    0.44243579    0.74996496 T T T
    0.37687768    0.77518043    0.75075559 T T T
    0.71182355    0.77999213    0.74999310 T T T
    0.04460575    0.77645604    0.74928533 T T T
    0.37832503    0.11245559    0.75031547 T T T
    0.71071819    0.11133121    0.74931562 T T T
    0.04352528    0.11123458    0.75036747 T T T
    0.15336693    0.55673499    0.83370042 T T T
    0.48592210    0.55758074    0.83399373 T T T
    0.82475082    0.55382784    0.83327371 T T T
    0.15614710    0.89012523    0.83361017 T T T
    0.48812975    0.88657662    0.83272206 T T T
    0.82356202    0.89085087    0.83254825 T T T
    0.15564028    0.22412207    0.83278777 T T T
    0.48574084    0.22433065    0.83369170 T T T
    0.82112586    0.22028465    0.83270767 T T T
    0.26493243    0.33618227    0.91638508 F F F
    0.59753064    0.33606423    0.91728271 F F F
    0.93456919    0.33111587    0.91728612 F F F
    0.26600687    0.66543274    0.91719245 F F F
    0.59920002    0.66817310    0.91668497 F F F
    0.93462751    0.66456301    0.91736790 F F F
    0.26942050    0.99758326    0.91643328 F F F
    0.59799622    0.99944938    0.91742971 F F F
    0.93318760    0.99834137    0.91614923 F F F
