Cu
 1.0000000000000000
    13.8589012000000000    0.0000000000000000    0.0000000000000000
     0.0000000000000000   13.4237228474734085    0.0000000000000000
     0.0000000000000000    0.0000000000000000   13.6655933333333337
 Cu 
 201
Direct
  0.0340070683237138  0.7590712010010371  0.0448126657752146
  0.6760781727775071  0.5855202400290970  0.0538272761909594
  0.6211676146446587  0.4652480906153538  0.2078813262895282
  0.6992834756625581  0.5603930823968545  0.3477076736270508
  0.5999610272133263  0.4441883590332755  0.4822155544898892
  0.6966570048136285  0.5532639125616762  0.6390938507853544
  0.6028328277569365  0.4473618452921949  0.7610530631917922
  0.7072422595811564  0.5513195935157186  0.9058429710821192
  0.9367481889545470  0.7706253728028777  0.0573565777604973
  0.5837404050474073  0.6472840301058603  0.2010993302400823
  0.6916710395482146  0.7444627349124433  0.3552258250526018
  0.6056901971420361  0.6361097827152987  0.4884487269487994
  0.6911875957381094  0.7435613456229380  0.6200245726615603
  0.6010722264186429  0.6446022107321255  0.7629066233982279
  0.7841170409671440  0.7245129785711608  0.9428314857898596
  0.6831710871854689  0.9326817579590604  0.0923488381282628
  0.5996651884638589  0.8320688344544450  0.2082069616199126
  0.6779686545423962  0.9297466556444729  0.3559349051315738
  0.6074075050047978  0.8307726217571397  0.4944030970237175
  0.7952290330203090  0.8974754291805314  0.6762836739861035
  0.6941604143912938  0.8046546808562673  0.8017779689038993
  0.6942397857631023  0.9893575407239883  0.5402095237723549
  0.7014192871221276  0.3760552479438921  0.9109741057712338
  0.7915418720208496  0.9689608144870834  0.8488187364958908
  0.6017793531856623  0.2619810810827805  0.7687717181690856
  0.6122347275265949  0.2544943353311042  0.4753596501969179
  0.5011725316289865  0.7359181604077937  0.6290972852014232
  0.4166131583361025  0.6362215251892044  0.7630017528205875
  0.6064261862260768  0.7074685265514243  0.9382118546871243
  0.4961577040465517  0.9316313787043476  0.0706571345359319
  0.4184459154669490  0.8348921942951268  0.2044793517929945
  0.5028393304369614  0.9229676122275322  0.3434890496278001
  0.4197735820499246  0.8189130205266240  0.4919736379296131
  0.5941019768580209  0.9048951294478644  0.6582599413905190
  0.4993758523944163  0.8096830921820202  0.7936583068231213
  0.5079623917082257  0.9882401159849321  0.5171287842606176
  0.5989219838005627  0.9572874507130767  0.8443125289351994
  0.6730981385450672  0.0278805982505177  0.2741294560206924
  0.6430885444222664  0.1488604499989966  0.1281826280015163
  0.5958770093548252  0.2017667866441750  0.2977822892432040
  0.5219245375672351  0.0873275943683048  0.4285567061608254
  0.6982011387742630  0.1762224571093514  0.6225244275282108
  0.6031647444026804  0.0681004393582788  0.7474780946210898
  0.6938429289040605  0.1705235909401649  0.8930070849466715
  0.5840651061138959  0.4232403699251031  0.0285301674912030
  0.5435640597538859  0.3034151904069823  0.1522598848007088
  0.6953726317061846  0.3637114293264520  0.3449006239026578
  0.6989371278583036  0.3601356701614722  0.6247637009540751
  0.8616051465898320  0.0258766832184772  0.2869331445054954
  0.8090901607697442  0.1551701750255335  0.1532931366804906
  0.7740296611682317  0.1950920362028795  0.3128068838577079
  0.8745643269323544  0.9396842863238123  0.3598717996876828
  0.7804010176506634  0.8444647995597081  0.4833805240313996
  0.9725158153230792  0.9101097782301264  0.6661657086239456
  0.8883100054137048  0.8134823362948113  0.8007066652551738
  0.8767362162882004  0.9904675159647839  0.5372430956772704
  0.9728621631273336  0.9619657356205915  0.8429514464306710
  0.8905540505621036  0.0095324840352159  0.0823865923128597
  0.9780357334533852  0.1641989669171073  0.1378829020230370
  0.9495414109741976  0.2048657779204906  0.3156644253524302
  0.8751343576935232  0.1032844196420264  0.4513943534101947
  0.9657115240853293  0.0822023395651673  0.7570810439258889
  0.9520091390795108  0.4280527458013048  0.0175880886254970
  0.8882522807796622  0.3240726490830003  0.1620911447191707
  0.9714046161177625  0.2779304568582417  0.4762370361769876
  0.9786346265315752  0.2636348696965834  0.7511010620834124
  0.9699109912119152  0.4786422884875068  0.2012654408468178
  0.9703511415464885  0.4611359675756272  0.4878611198245326
  0.9818022658246528  0.4559511167864066  0.7590977876799105
  0.9586619031528993  0.6615647182709979  0.2061836319828045
  0.9730569837672266  0.6523347899263940  0.4913209037392693
  0.9640519408566099  0.6503234253960931  0.7624843951159093
  0.7883598015692613  0.8485322256098720  0.2251685376266137
  0.8672693763052441  0.9435207779279049  0.0726460712280331
  0.9681287431358556  0.7258389892615075  0.9357823955930198
  0.7875733034304335  0.6512769611734209  0.7619238632887754
  0.6941099053365066  0.0932126979940005  0.4466583717062658
  0.8874513514823238  0.1758276337015515  0.6224854976415222
  0.7904667507118095  0.0781870600028254  0.7554601849218403
  0.8800120892701075  0.1796641253056443  0.8947391721984020
  0.7705950454427080  0.4191803933731990  0.0223672444518814
  0.7158720923704975  0.3209736578066844  0.1729358988681551
  0.8829416144477600  0.3679352948400842  0.3520141094007871
  0.8028991937686951  0.2772898000078497  0.4905027907069776
  0.8825664043264844  0.3643744346716251  0.6249260795603947
  0.7900698938527680  0.2677246442415289  0.7546471942430601
  0.4214331652786441  0.6352083934257934  0.4734797464581365
  0.8876245253844511  0.3714142105276788  0.8927714566851348
  0.8005252681937006  0.4860470897583188  0.2095475547103944
  0.8768949590318169  0.5621064669967405  0.3574855147160338
  0.7779621518623713  0.4709842042758419  0.4857082678200582
  0.8788792433270249  0.5547091152241889  0.6187545948730608
  0.8024085343793345  0.4587595776305678  0.7602964184016403
  0.8847022157860537  0.5594171981247453  0.9018965635837742
  0.7731132826028084  0.6570801203182525  0.2115679572883530
  0.8823860148451018  0.7417734660404480  0.3565115357840299
  0.7829986261825722  0.6474777170606298  0.4840266723386569
  0.8769887615621359  0.7402463188970712  0.6189361457168101
  0.8681063834988590  0.5952939817467080  0.0594362532862338
  0.9653363139640535  0.8484055841394456  0.2151726306309911
  0.5065697849119524  0.7393821770988679  0.3429329083893907
  0.7602839826868814  0.7576781448263472  0.0629911666233300
  0.0456602288210265  0.6423599117557528  0.1924740186912241
  0.1413821032218630  0.7285729551230649  0.3490972949582870
  0.0584967443162089  0.6334950088259074  0.4755425913937632
  0.1498315465298215  0.7364545242825408  0.6111324743065188
  0.0472332250986824  0.6431495585713525  0.7418391151695329
  0.2515351361333033  0.7034159994977807  0.9338776118514674
  0.1416562952335644  0.9256717800960483  0.0667136540967364
  0.0526737718571802  0.8289102471920462  0.2146055129207709
  0.1336686489979450  0.9199133179407789  0.3545357708581016
  0.0452417252242191  0.8101449610741634  0.4792043423898170
  0.2366061026540834  0.8941529529564043  0.6642889514737499
  0.1367713480777250  0.7942626307830454  0.7911461583080428
  0.3350843283304450  0.8635206161097451  0.9813128006638571
  0.1360353589936841  0.9835618310774169  0.5269234559397105
  0.2363752041179137  0.9572800012148162  0.8438851782993689
  0.2912785466715067  0.1280242033647295  0.1393427727738618
  0.2317139399189888  0.1623887388398363  0.3064383349131322
  0.1367929948154908  0.0747826392978343  0.4382811284203296
  0.3264184176448275  0.1566749736741293  0.6121256108406563
  0.2223914115211385  0.0690390761390859  0.7477788499487034
  0.3270317418815280  0.1609807836686254  0.8890928750989713
  0.4002265778473116  0.7533499863370697  0.0370932790331339
  0.2050451589913924  0.4300343123385644  0.0281964827481573
  0.1358116760367697  0.5525785587217218  0.8914959906607300
  0.1512674468016266  0.5394301942921611  0.6095336999637533
  0.2229253643860309  0.7554879923377972  0.0505738499462641
  0.0623642947970507  0.7032968075256147  0.9281969218070298
  0.0414751928529514  0.8912550981331188  0.6505161137045399
  0.1506685537234367  0.8575759164979665  0.9742102916375385
  0.0566495560268515  0.9512310086273925  0.8379498341089228
  0.1132413441261851  0.1360398634928924  0.1494908868452596
  0.0462302595821955  0.1679460645420756  0.3068195843673577
  0.1410862644723955  0.1651674016909558  0.6105520677477597
  0.0514832012800553  0.0705662232824625  0.7502075772780205
  0.1454300431840873  0.1732724557982432  0.8863355853801201
  0.0181977341753472  0.4276653718917654  0.0235849010580831
  0.0202036652083211  0.3099335013848098  0.1763115298323430
  0.1304721473878462  0.3450057391946521  0.3237218874262809
  0.0559063513635555  0.2558724925092735  0.4744193324451336
  0.1477823220213158  0.3483058669239978  0.6049806718966709
  0.0684253813715044  0.2595003981620758  0.7489504053733002
  0.1523497836899219  0.3637039798281916  0.8826943237981131
  0.1146988911357562  0.5876731450263452  0.0399193546419988
  0.1024035440847215  0.4760796610859379  0.1912431903188495
  0.1570182634681024  0.5439296912414272  0.3497573467965046
  0.0504080799710154  0.4514516198371404  0.4670687551558928
  0.0597522551066313  0.4579177843271454  0.7523896998739903
  0.1990057191547046  0.3024095081418318  0.1623289682750695
  0.3249536550560010  0.3419365459113778  0.3292598833371792
  0.2509795365306450  0.2396996317860009  0.4692786848137830
  0.5028176836991953  0.0182930939894161  0.2588941131474228
  0.4586655542360025  0.1299834214072079  0.1159738642888540
  0.4085461407286747  0.1682887414620528  0.2859716055748769
  0.3436347897479780  0.0762874379464301  0.4363821987970763
  0.5152501267560806  0.1648992197535824  0.6153125196661787
  0.4123992600510060  0.0738365530187669  0.7554660390401393
  0.5206690267768126  0.1653387401509445  0.8994788127262678
  0.3978670834308278  0.4294830494672967  0.0233368327951610
  0.3758018420681144  0.3016496593192735  0.1588969914222532
  0.5124288352672577  0.3541015765705691  0.3340668462254841
  0.4255965545089533  0.2516560764939016  0.4603738391161453
  0.5173065668438418  0.3580945076381296  0.6259350368492356
  0.4201199298541791  0.2595152971585964  0.7589558253111587
  0.5207772604656422  0.3553158447870102  0.8949469933980182
  0.4899378747284813  0.5874198620854925  0.0509024123357981
  0.4482606889498569  0.4713492296906004  0.1948383507192517
  0.5165417154427798  0.5483695922046103  0.3463422005337981
  0.4160286964164229  0.4389439122579720  0.4785120929009547
  0.5105600002401345  0.5434231253597217  0.6237672568430985
  0.4236122702137453  0.4410744687604391  0.7614504114713400
  0.5235119650034015  0.5370836023401431  0.9047475191954100
  0.4136764175791945  0.9594850526998872  0.8515438285640970
  0.3290521040730128  0.9898641066056937  0.5216342600565216
  0.5132514113023621  0.8736817317368958  0.9824119113745031
  0.3241960192341943  0.7956035404699128  0.7986379662012481
  0.3341679497650217  0.3394558629906732  0.6185996802675723
  0.2386048181078020  0.2568930737709447  0.7480100876215157
  0.3336484280586399  0.3487751853144014  0.8929953767100735
  0.3125139964198604  0.5849764266560895  0.0436952609448840
  0.2749857687130348  0.4722655179766264  0.1895872066050066
  0.3450418277027619  0.5449204745100569  0.3412396046713913
  0.2303429798604812  0.4326192882349141  0.4697631131030292
  0.3280419229772703  0.5315709736274662  0.6141830407168564
  0.2423497037413037  0.4463338145322633  0.7538920129824831
  0.3320393538847077  0.5422088571432808  0.8951804263651927
  0.4016047534850742  0.6547111798714534  0.1967936262311333
  0.5806232748091169  0.7627959501312243  0.0428017761394920
  0.3223055374693052  0.7369908881572877  0.3452328451161287
  0.2466501889774637  0.6292264463227131  0.4767587844703902
  0.3216200574400516  0.7197452996845212  0.6183722477716543
  0.2254291703876205  0.6300011941417920  0.7543398530323601
  0.4374806135424357  0.7042652422994635  0.9331626776541964
  0.3185534362565482  0.9295902161810051  0.0689967602333647
  0.2394634720391830  0.8369631548115108  0.2188599933946032
  0.3248598525256821  0.9296125646757859  0.3472159276899309
  0.2370246062508909  0.8313164351301471  0.4810747331863625
  0.4102923109084578  0.9033903307992686  0.6610566000549312
  0.2238200962136883  0.6490495611935689  0.2084982040052902
  0.9731940797730776  0.8362033059889529  0.4906725601376499
