Cu
 1.0000000000000000
    13.7663459599999989    0.0000000000000000    0.0000000000000000
     0.0000000000000000   13.4350387827040088    0.0000000000000000
     0.0000000000000000    0.0000000000000000   15.4757640000000016
 Cu 
 230
Direct
  0.0284660127777291  0.4288353375480490  0.6836723537526159
  0.7789338587855741  0.6094451622940578  0.4314650960043071
  0.6787765618524381  0.5331000160991345  0.5523250419171551
  0.6744544272661880  0.5993893669826272  0.7107404842823914
  0.5802246291941944  0.5197468726581973  0.8413770072999303
  0.6580448440219206  0.6118493235713278  0.9589350160677043
  0.6040799064735983  0.7156897383676009  0.0341360853008613
  0.7817377981978306  0.7943571703783391  0.1831542533215162
  0.6907986336847808  0.6892290778700918  0.3017461367335403
  0.6789799564212028  0.7662887735468041  0.4670820774987263
  0.5826653640193710  0.6833563743166363  0.5924006078149031
  0.6657447812680133  0.7893553240058142  0.7130085467832152
  0.5934380120721588  0.5311573346955200  0.2782577971594810
  0.5749654267732782  0.7068248588591529  0.8445432483979465
  0.6905153341068584  0.8707320894683368  0.0645494464764388
  0.6758781892475407  0.9569171774854002  0.2161671630557302
  0.5870456113395541  0.8570142280627364  0.3502025489662417
  0.6770767643849042  0.9528382908601863  0.4661128200197417
  0.5843651614869048  0.8641225067617860  0.5874315478059757
  0.6776578917242322  0.9718185114702137  0.7044209255194122
  0.5813215070471758  0.8870774088642666  0.8353417640641198
  0.6782172267883351  0.9801400356435516  0.9608670693091467
  0.7966800349102952  0.0869010808405738  0.1282684331448839
  0.8011765076983431  0.0957213010064100  0.3729090208405865
  0.6293080970921637  0.0146645941659389  0.5201715404809739
  0.6639214942408724  0.7954587674960977  0.9572161994716382
  0.6989053600684024  0.6278150385550572  0.1493271673049549
  0.6599988847004100  0.4224490515545575  0.9597491923500512
  0.6750864032477066  0.3600673931495997  0.7998346317506519
  0.4886970732500753  0.9529127230978726  0.2195143322164902
  0.4028645652313677  0.8500622570628286  0.3492914469359960
  0.4862418102414157  0.9545130162081301  0.4707458707692879
  0.3974673450673618  0.8695709465604293  0.5931889372311440
  0.4966221973401572  0.9686179252496994  0.7088342779070550
  0.3936827532699896  0.8814205588001014  0.8273873910199198
  0.4724255077488983  0.9749744383481165  0.9553552251119878
  0.6205403383600565  0.0900867806135510  0.1193318791886462
  0.6184046953880273  0.1012069569238966  0.3616591723678391
  0.4495581469463518  0.0153568139764222  0.5220195914075711
  0.5565073696578813  0.1041842464313519  0.6409604075120295
  0.5489672424301039  0.0213188362151017  0.8045387613819904
  0.6470615373086266  0.0968303413479372  0.9320736604667788
  0.6017844534832539  0.2647717992397234  0.1077395597399908
  0.5199617241059077  0.1924683235511709  0.2476938779888346
  0.6013849284374658  0.2902797270948469  0.3700658655688984
  0.5157921354462310  0.1950064628562765  0.5040430960306708
  0.6782680754305259  0.2783184664986453  0.6523394903153084
  0.4510182293864127  0.1834173634485066  0.7821682987670269
  0.5740719434890621  0.2661562388606901  0.9281190899525218
  0.5868349526790475  0.4678155004244080  0.1135034108816858
  0.4985835021103884  0.3777003902575037  0.2483529730745442
  0.6935953090052954  0.4557649211429824  0.3954410263687143
  0.5949707354296361  0.3701529613561046  0.5234023987442558
  0.7656550990819352  0.4412952941367496  0.6749231895756486
  0.7291239817134453  0.0976342095149501  0.6431638528475879
  0.8304725896922031  0.0896401871874327  0.9335921638505211
  0.7924959180671354  0.2701309203531429  0.1159265545791470
  0.7014332639944785  0.1907489388606155  0.2434743770969885
  0.7733259799610616  0.8625371000990664  0.3384422248878955
  0.8590277343284202  0.9634151118354214  0.4614991544197753
  0.7699917618516684  0.8704864630839720  0.5837936014015204
  0.8632263793550632  0.9673749068803367  0.7090475145524318
  0.7635121920181642  0.8873230352486318  0.8242986905202224
  0.8718052717018888  0.9881936037612179  0.9657779738693352
  0.9812969265229770  0.0920071323458597  0.1282296628457244
  0.9147723743534334  0.0993014916391252  0.6538515319825242
  0.9751151844508777  0.2865581152105277  0.1213867050440935
  0.8837401744333321  0.1835513414763421  0.2434356067978292
  0.9646694205264618  0.2787204005821516  0.3673713297773215
  0.8780959751501114  0.1773511360770665  0.5043984904396318
  0.8091016317884256  0.1650772600825820  0.7777614080959103
  0.9372910587523836  0.2702574551572100  0.9321124307659381
  0.9551244039780036  0.4676517495014978  0.1244043266619986
  0.8673378552808066  0.3695277305595389  0.2404244468964504
  0.9661222388747813  0.3524306455629769  0.5241971898770231
  0.9650326251135417  0.5313434152897361  0.2723582499707283
  0.9524875386758043  0.5056866229592395  0.8346180518131445
  0.9678874131679891  0.7207957898728871  0.0330776561338102
  0.9526764050610853  0.6745808134934114  0.5732286948805887
  0.9374363405872157  0.6926604040274342  0.8365242581884810
  0.9553495908219933  0.8554883671901656  0.3421383267410901
  0.9483470063830939  0.8622617008196266  0.5971758163280338
  0.9426592225494237  0.8859609252989707  0.8363821004248964
  0.8608292290803361  0.9522130600636206  0.2175241235263086
  0.5054989174483885  0.8743271665485894  0.0547308682143253
  0.8672361579964245  0.8731139210743013  0.0550746315335384
  0.7592772265328132  0.6984735617907407  0.8405369841514770
  0.7847233399036269  0.2886496610895152  0.3767666656069450
  0.6922514520330998  0.1859182866347691  0.5009220869483406
  0.8584320788056091  0.2751550963969739  0.6431703145641144
  0.6340588130911683  0.1797180812354935  0.7892632635131938
  0.7561827234508929  0.2594350077976097  0.9144008657666268
  0.7774374558868050  0.4582062985390959  0.1061112071752969
  0.6766336547886671  0.3755567418121362  0.2454839709367499
  0.8808926504706261  0.4508896095745245  0.4082481485243636
  0.7744882346397169  0.3675924923796929  0.5278092894153723
  0.9504245366211904  0.4224862676734006  0.6850745462388802
  0.8590567906953865  0.3424790553843074  0.7989558383030393
  0.8448554913405647  0.4284185170170052  0.9597168837674183
  0.8662119210608594  0.6328243281513507  0.1488425385654626
  0.7818394954822128  0.5243244552759101  0.2718542360816563
  0.9595990844908271  0.6097726641398779  0.4169908509848044
  0.8716890462340230  0.5180721473102539  0.5531004479003425
  0.8510735538713715  0.5894377768039580  0.7160972472829127
  0.7571415835607840  0.5082470919356512  0.8290157435846139
  0.8559768157969495  0.6032002975521702  0.9612353871511609
  0.7803067721247361  0.7221504565987792  0.0270863525703803
  0.9635870708569640  0.7904643643473417  0.1799040099086546
  0.8744130806371220  0.6940746165434754  0.3044988279738564
  0.8601028199061761  0.7661845684140435  0.4642518456600913
  0.7650667076508659  0.6876213415360659  0.5792703998329257
  0.8448627554323065  0.7763073527393912  0.7110054146599806
  0.8563908690262203  0.7987635588493733  0.9551226033170316
  0.4734570087762052  0.7974386650185556  0.9651511873662586
  0.3923679526647603  0.7000217523346175  0.8367762651330168
  0.4881377381859724  0.7836240417039628  0.7160520152672268
  0.0302747716213866  0.6919309680981073  0.8394708009245940
  0.1091337515681610  0.8017482915805969  0.9648927187051959
  0.1367881488284200  0.8686182139180437  0.0770722531049194
  0.1265748358397350  0.9463924590765453  0.2248194014847991
  0.0358027454367417  0.8569397958250502  0.3488908205113491
  0.1194487618412284  0.9543120491663765  0.4697184578415643
  0.0304418457314434  0.8696825949169589  0.5816612349477542
  0.1205383756024679  0.9673228043139567  0.7036325961031713
  0.0389480971608530  0.8835939801405440  0.8295714512058983
  0.1185407503735288  0.9822911273126881  0.9567768027478319
  0.2461417859064176  0.1043331109067246  0.1131867867718840
  0.1656120648590759  0.0136225428383296  0.2426925093972742
  0.2432143569345542  0.0948355573779420  0.3694972345145610
  0.1819925917363766  0.0996438799324825  0.6579353368273126
  0.2884623843929605  0.0994354696669606  0.9340767925900134
  0.2378316649540309  0.2904062618989137  0.1137812646923278
  0.1597935273740570  0.1896026824002452  0.2436811520258385
  0.2341850908997493  0.2806854116570720  0.3735810393593492
  0.1530887706965631  0.1792938174806811  0.5042563326760475
  0.3063974269029630  0.2760259535779044  0.6552731096183684
  0.0815810515922844  0.1846157224752575  0.7891986463479280
  0.2013659244112152  0.2604547294539132  0.9362543910594654
  0.2297394667538921  0.4653220204619142  0.1219359509488513
  0.1378123857639851  0.3715746170959144  0.2476227991070424
  0.3182596887169905  0.4448754847694645  0.3976767802869054
  0.1095913893478816  0.7678220776431438  0.7023919465300710
  0.2217925503885854  0.3613922869804174  0.5344067019889939
  0.0307324094011071  0.6718417071465524  0.5874315478059757
  0.1369988074889263  0.6940150707533264  0.3190635370247309
  0.0476432149755445  0.6112836385649113  0.4354778219673031
  0.0428125939673825  0.7736054625113757  0.1927628257965163
  0.0576095488450152  0.0960115867333870  0.1264139205017601
  0.0692684160902780  0.0858069269465839  0.3827243682444369
  0.0055695956082160  0.0958106196916337  0.6414256511019423
  0.1011723070193709  0.0940242459871605  0.9380507482538503
  0.0531058119652252  0.2820251919354270  0.1240230853869313
  0.0531276042404499  0.2649950959527825  0.3796873614769519
  0.1186715040248775  0.2728253673573900  0.6442429595075241
  0.0180565693120209  0.2702202390383666  0.9299219088634331
  0.0432920240223281  0.4622702987167724  0.1142852785814000
  0.1294804725363736  0.4363008909879934  0.3984909565692524
  0.0455656847374477  0.3552590705950595  0.5205075497403553
  0.2141725181516504  0.4315595574473707  0.6809261242288263
  0.1294732084446320  0.3466770335898194  0.8076533087477942
  0.1194197054742621  0.4321029127824813  0.9729698643634006
  0.1301124485178926  0.6220465401343623  0.1531395800556276
  0.0488708464798743  0.5355413934952480  0.2733727394653990
  0.2252139375988773  0.6058277555424995  0.4335005367101746
  0.1305700862976132  0.5122813192182533  0.5529065964045456
  0.1211195029417956  0.5804091463725997  0.7103398578577444
  0.0256112247232815  0.5041979782055119  0.8405046755688441
  0.1153881345576760  0.6152806497286700  0.9620366400004547
  0.0499314038741475  0.7064080383281092  0.0270301356365993
  0.2237683833422995  0.7852168915904514  0.2008335097381944
  0.1306717835819955  0.7677625318529948  0.4701255459827378
  0.9944304043917838  0.0118063962387818  0.5360479779867409
  0.3991889348101200  0.4352588396603840  0.6794011591285574
  0.2982689082441160  0.4325495062085997  0.9613258511825328
  0.3412578031708856  0.1872134075705123  0.2494708500336396
  0.4214896964568218  0.2855830528968363  0.3762303431352403
  0.3270565038160640  0.2017649100382002  0.4975813795041071
  0.4946245721112184  0.2753560634387270  0.6423949085809268
  0.2721254420661093  0.1752670334218476  0.7906654559994580
  0.3861208337669872  0.2599709199089518  0.9267750529149965
  0.4078404680743615  0.4662524234329939  0.1187374012682024
  0.3219425832299799  0.3630446826570550  0.2381046906634141
  0.4996949081468530  0.4451881001677474  0.4094047957826186
  0.4090099868447587  0.3588467044515430  0.5244879671207184
  0.5782124757817724  0.4503983568057942  0.6801701033952182
  0.4882031150116469  0.3581619278648283  0.8035113484542669
  0.4778517842798711  0.4348792352481833  0.9644145516822301
  0.5151383671894874  0.6224559174416376  0.1464840120332668
  0.4108768584223491  0.5311052321291394  0.2711111386811016
  0.5868204244955644  0.6072866274011526  0.4297656645578207
  0.4925252495978969  0.5313508585135046  0.5539081624661631
  0.4912031849009263  0.5954891177278610  0.7211826181893184
  0.3934430382425167  0.5150427552364181  0.8542293614712656
  0.4763771736563270  0.6176475948870971  0.9633483684553471
  0.4194194303104671  0.7069439504394509  0.0332437222485429
  0.5919634014486148  0.7926080127927092  0.1916578722704740
  0.5088694560164897  0.6979599793507045  0.3064761132309849
  0.4953655094688611  0.7620982385650608  0.4701320076992643
  0.3986586561129834  0.6921542648111664  0.6005682175044798
  0.4253106087129020  0.2817870087748306  0.1220458001298028
  0.3102546596177506  0.3458657221990379  0.8161310808306458
  0.4701009983915876  0.1030156602996758  0.9421216296655853
  0.2674110465258131  0.0211997446348032  0.5241648812943903
  0.3276376311553917  0.6248079761525271  0.1569907631054595
  0.2309235137077724  0.5309117083111550  0.2750980177779914
  0.3980412083149478  0.6057235504097386  0.4339334717174544
  0.3078647734347654  0.5149980958938063  0.5476726060180290
  0.3019663309405889  0.5946629198895421  0.7161812495977580
  0.2111869764458541  0.5033271210245814  0.8313678084002829
  0.2921670711811747  0.6177741296911639  0.9632514427074487
  0.2333061357990163  0.7138735917680532  0.0274708247037109
  0.4120027926422968  0.7827606277468007  0.1808797291041657
  0.3256908545686439  0.6913727263154593  0.3124855096006892
  0.3047048935271707  0.7666981508540791  0.4646524720847385
  0.2089423720977008  0.6639816628468708  0.5834705155751923
  0.2951744051621958  0.7716478946602240  0.7113478856358884
  0.2117172551429907  0.6852618396014075  0.8367310331173310
  0.2956901556758492  0.7964412730335577  0.9606150623646108
  0.3185211960196878  0.8711935693419923  0.0653377758926796
  0.3155065979469252  0.9419265248153627  0.2214980791901453
  0.2285554198000120  0.8575054808314669  0.3508874909180574
  0.3085984467006666  0.9621720934660588  0.4713209635401521
  0.2235867810487598  0.8692360014908406  0.5822621745847248
  0.3074216638385280  0.9698460571715247  0.7037941390163353
  0.2056735308139821  0.8767983168397775  0.8291191310490389
  0.2988572996751855  0.9867942776927140  0.9580691460531446
  0.4308458466199988  0.0985199531434181  0.1239520065051393
  0.4296690637578597  0.0973364805642047  0.3858776859094000
  0.3709969947609829  0.1056877776326168  0.6409216372128703
  0.9885610182645738  0.1672432381992557  0.7950852701036277
