Generated generic
1.0
    7.66857304    0.00000000    0.00000000
    0.00000000    8.85490542    0.00000000
    0.00000000    0.00000000   25.04545468
 Cu
 144
Selective dynamics
Direct
    0.16408649    0.08127570    0.00065063 F F F
    0.49823926    0.08452997    0.99999696 F F F
    0.83494070    0.08194142    0.00001098 F F F
    0.99914509    0.33212070    0.99951653 F F F
    0.33108623    0.33534935    0.99941946 F F F
    0.66613599    0.33346528    0.00030046 F F F
    0.16492074    0.58472600    0.00023762 F F F
    0.50057923    0.58189046    0.00065103 F F F
    0.83429908    0.58158049    0.00007447 F F F
    0.99778437    0.83416011    0.00066404 F F F
    0.33262336    0.83166935    0.99952034 F F F
    0.66458975    0.83420701    0.00001661 F F F
    0.99745362    0.16460774    0.08255374 F F F
    0.33388044    0.16567851    0.08408526 F F F
    0.66911293    0.16796194    0.08352213 F F F
    0.16708362    0.41616462    0.08389540 F F F
    0.50180970    0.41634054    0.08298780 F F F
    0.83075865    0.41885022    0.08353882 F F F
    0.99945928    0.66545406    0.08379576 F F F
    0.33245918    0.66452802    0.08354648 F F F
    0.66843814    0.66465529    0.08288858 F F F
    0.16728574    0.91463275    0.08398648 F F F
    0.49863565    0.91573376    0.08352678 F F F
    0.83195224    0.91668266    0.08365219 F F F
    0.00170118    0.00081646    0.16595513 F F F
    0.33145230    0.00213802    0.16663216 F F F
    0.66818229    0.99863387    0.16693227 F F F
    0.16643006    0.24808314    0.16701363 F F F
    0.50161630    0.24911459    0.16657098 F F F
    0.83484239    0.25118488    0.16653992 F F F
    0.00222295    0.49970258    0.16693097 F F F
    0.33186512    0.50022533    0.16587780 F F F
    0.66803334    0.49919800    0.16680700 F F F
    0.16750279    0.74789648    0.16600487 F F F
    0.50149505    0.74978901    0.16746373 F F F
    0.83324777    0.74784781    0.16668807 F F F
    0.16423595    0.08191961    0.24944279 F F F
    0.49899913    0.08239597    0.25058842 F F F
    0.83384412    0.08226104    0.25070321 F F F
    0.99780606    0.33180638    0.25009283 F F F
    0.33229751    0.33280699    0.24933587 F F F
    0.66438490    0.33129029    0.25044437 F F F
    0.16461846    0.58273353    0.24921899 F F F
    0.49858896    0.58362107    0.24990292 F F F
    0.83570954    0.58539758    0.24953076 F F F
    0.00090387    0.83518104    0.24973309 F F F
    0.33325503    0.83552552    0.25030363 F F F
    0.66600110    0.83253869    0.25034091 F F F
    0.00250602    0.16710703    0.33395027 F F F
    0.33411894    0.16735550    0.33318684 F F F
    0.66882542    0.16767302    0.33387873 F F F
    0.16524139    0.41442602    0.33287812 F F F
    0.49914440    0.41796707    0.33393967 F F F
    0.83585467    0.41567627    0.33337310 F F F
    0.00039602    0.66764185    0.33265277 F F F
    0.33553484    0.66462547    0.33356100 F F F
    0.66455431    0.66605126    0.33255513 F F F
    0.16438548    0.91886397    0.33372911 F F F
    0.50094513    0.91666897    0.33389654 F F F
    0.83187145    0.91655002    0.33405897 F F F
    0.00185950    0.00017644    0.41707542 F F F
    0.33195118    0.00180589    0.41690848 F F F
    0.66722895    0.00003183    0.41739818 F F F
    0.16696254    0.24776965    0.41649186 F F F
    0.50245120    0.25124487    0.41640435 F F F
    0.83313865    0.25051759    0.41589893 F F F
    0.99785058    0.50087974    0.41600804 F F F
    0.33529782    0.50184635    0.41644319 F F F
    0.66563766    0.49815940    0.41635555 F F F
    0.16562825    0.75052568    0.41638176 F F F
    0.50009622    0.74991782    0.41729232 F F F
    0.83404874    0.74832188    0.41703991 F F F
    0.45152648    0.08236409    0.49922361 F F T
    0.78475303    0.08379108    0.49981011 F F T
    0.11483240    0.08490419    0.49993388 F F T
    0.28257512    0.33540761    0.50050038 F F T
    0.61810889    0.33150697    0.50069935 F F T
    0.94923153    0.33475676    0.50017279 F F T
    0.45221308    0.58456133    0.49922750 F F T
    0.78529436    0.58165152    0.49962905 F F T
    0.11763176    0.58117201    0.49944411 F F T
    0.28265305    0.83411488    0.50047222 F F T
    0.61477260    0.83244822    0.50066053 F F T
    0.95127353    0.83535028    0.50067150 F F T
    0.28296376    0.16818862    0.58310502 F F T
    0.61736386    0.16762556    0.58344952 F F T
    0.95254316    0.16607083    0.58278463 F F T
    0.45050458    0.41757364    0.58262543 F F T
    0.78397929    0.41622658    0.58358595 F F T
    0.11793338    0.41891197    0.58352894 F F T
    0.28151099    0.66647651    0.58351756 F F T
    0.61474932    0.66738741    0.58366450 F F T
    0.94907350    0.66442036    0.58289180 F F T
    0.44924865    0.91739167    0.58333987 F F T
    0.78299953    0.91473131    0.58310330 F F T
    0.11867491    0.91816350    0.58334482 F F T
    0.28200361    0.99919742    0.66738677 F F T
    0.61620348    0.99937351    0.66626489 F F T
    0.95057878    0.00137799    0.66729447 F F T
    0.44934156    0.25224899    0.66734382 F F T
    0.78540724    0.25157757    0.66741724 F F T
    0.11858592    0.25029168    0.66730081 F F T
    0.28316588    0.50212007    0.66662026 F F T
    0.61673729    0.49858552    0.66674239 F F T
    0.95026921    0.50209292    0.66656004 F F T
    0.44853592    0.75044994    0.66727045 F F T
    0.78348965    0.74821855    0.66643270 F F T
    0.11820442    0.75179036    0.66733873 F F T
    0.44853202    0.08530934    0.75035403 F F T
    0.78413447    0.08239073    0.75026865 F F T
    0.11602670    0.08472722    0.74981649 F F T
    0.28387190    0.33189061    0.75033392 F F T
    0.61470771    0.33318020    0.74939149 F F T
    0.94749666    0.33305328    0.74961045 F F T
    0.45185361    0.58510316    0.75045924 F F T
    0.78136619    0.58226580    0.75045352 F F T
    0.11594200    0.58207415    0.75004032 F F T
    0.28546020    0.83379786    0.75055427 F F T
    0.61716893    0.83212951    0.74988876 F F T
    0.95147494    0.83357713    0.75012253 F F T
    0.28145217    0.16500874    0.83288667 F F T
    0.61604691    0.16820739    0.83389165 F F T
    0.95165002    0.16767370    0.83256363 F F T
    0.44947811    0.41649649    0.83266377 F F T
    0.78078313    0.41740067    0.83360982 F F T
    0.11445320    0.41829086    0.83354602 F F T
    0.28306471    0.66561505    0.83361388 F F T
    0.61868188    0.66814203    0.83311366 F F T
    0.95169130    0.66444749    0.83343204 F F T
    0.45018081    0.91853974    0.83338528 F F T
    0.78224766    0.91773938    0.83407258 F F T
    0.11702586    0.91734052    0.83262774 F F T
    0.28501308    0.99913066    0.91737715 F F T
    0.61424339    0.00009878    0.91697396 F F T
    0.94999924    0.00161443    0.91707560 F F T
    0.44740587    0.24964163    0.91728312 F F T
    0.78181410    0.24886950    0.91634568 F F T
    0.11640360    0.25159779    0.91601644 F F T
    0.28286225    0.49788194    0.91666965 F F T
    0.61714651    0.49833450    0.91723144 F F T
    0.95084622    0.50055365    0.91694427 F F T
    0.44951141    0.74932419    0.91616803 F F T
    0.78098531    0.74923627    0.91683738 F F T
    0.11863408    0.74868861    0.91648933 F F T
