Generated generic
1.0
    7.66857304    0.00000000    0.00000000
    0.00000000    8.85490542    0.00000000
    0.00000000    0.00000000   25.04545468
 Cu
 144
Selective dynamics
Direct
    0.16633035    0.08372047    0.00063559 F F F
    0.50256935    0.08338480    0.99957352 F F F
    0.83512416    0.08399953    0.00013480 F F F
    0.00034704    0.33450041    0.99994419 F F F
    0.33249126    0.33344885    0.00015798 F F F
    0.66501764    0.33348257    0.00071926 F F F
    0.16678792    0.58305005    0.00079402 F F F
    0.49892325    0.58428462    0.99970008 F F F
    0.83575951    0.58387954    0.99921181 F F F
    0.99845651    0.83197839    0.99963506 F F F
    0.33303436    0.83383168    0.99991312 F F F
    0.66464536    0.83429720    0.99968661 F F F
    0.00243672    0.16831789    0.08362485 F F F
    0.33317167    0.16658044    0.08409062 F F F
    0.66696801    0.16538635    0.08364746 F F F
    0.16866507    0.41504871    0.08334426 F F F
    0.50238163    0.41777519    0.08302511 F F F
    0.83140973    0.41762687    0.08400326 F F F
    0.00191508    0.66763750    0.08288131 F F F
    0.33201433    0.66756496    0.08294394 F F F
    0.66880334    0.66606828    0.08284412 F F F
    0.16413115    0.91484358    0.08302752 F F F
    0.49769595    0.91584192    0.08356518 F F F
    0.83391261    0.91653393    0.08366056 F F F
    0.00125039    0.00200821    0.16610084 F F F
    0.33475519    0.99979703    0.16711417 F F F
    0.66703518    0.99847761    0.16736748 F F F
    0.16802823    0.24849001    0.16598398 F F F
    0.50062419    0.24919541    0.16738327 F F F
    0.83260936    0.24881450    0.16724528 F F F
    0.00076474    0.49781201    0.16636428 F F F
    0.33350879    0.50154132    0.16746264 F F F
    0.66438094    0.50074973    0.16622270 F F F
    0.16802127    0.74793547    0.16703713 F F F
    0.49850659    0.74809764    0.16599274 F F F
    0.83350812    0.74782089    0.16706518 F F F
    0.16556113    0.08472539    0.24956194 F F F
    0.49992614    0.08275690    0.25022766 F F F
    0.83537239    0.08411427    0.24990957 F F F
    0.00165955    0.33124332    0.24975860 F F F
    0.33228425    0.33540889    0.24935183 F F F
    0.66674126    0.33165126    0.24944108 F F F
    0.16784715    0.58495392    0.25016944 F F F
    0.50024164    0.58184270    0.24992509 F F F
    0.83143836    0.58207958    0.25013462 F F F
    0.99984110    0.83400619    0.25068453 F F F
    0.33467956    0.83289947    0.24926306 F F F
    0.66704365    0.83367949    0.24940768 F F F
    0.99845481    0.16785600    0.33286767 F F F
    0.33131524    0.16879917    0.33345079 F F F
    0.66893799    0.16454274    0.33303639 F F F
    0.16513486    0.41840583    0.33402430 F F F
    0.50006227    0.41827710    0.33303985 F F F
    0.83433183    0.41612025    0.33268318 F F F
    0.00021648    0.66781874    0.33399961 F F F
    0.33325940    0.66551282    0.33255985 F F F
    0.66826354    0.66522473    0.33277808 F F F
    0.16755617    0.91582091    0.33267690 F F F
    0.50006455    0.91534357    0.33287946 F F F
    0.83097453    0.91529624    0.33279869 F F F
    0.00104054    0.00206377    0.41657987 F F F
    0.33080349    0.00102525    0.41740176 F F F
    0.66560419    0.00059835    0.41594296 F F F
    0.16462774    0.25004441    0.41745320 F F F
    0.49962542    0.24967799    0.41687944 F F F
    0.83178215    0.24937698    0.41716910 F F F
    0.00162555    0.49902326    0.41609388 F F F
    0.33152377    0.49843153    0.41657630 F F F
    0.66682508    0.49843562    0.41723640 F F F
    0.16513815    0.75026259    0.41695007 F F F
    0.50018206    0.74778146    0.41672211 F F F
    0.83586825    0.74996275    0.41725381 F F F
    0.16464550    0.25965191    0.49996352 F F T
    0.50028165    0.25612957    0.50005355 F F T
    0.83446123    0.25700533    0.50042934 F F T
    0.00082211    0.50828005    0.50009500 F F T
    0.33368898    0.50967393    0.50011782 F F T
    0.66904653    0.50765900    0.50039140 F F T
    0.16540921    0.75729574    0.49929927 F F T
    0.49837861    0.75873778    0.50058521 F F T
    0.83116204    0.75824466    0.49973172 F F T
    0.00179264    0.01002878    0.50041862 F F T
    0.33112167    0.00755708    0.50040256 F F T
    0.66464086    0.00633676    0.50003809 F F T
    0.99948793    0.34036435    0.58267409 F F T
    0.33190669    0.33955727    0.58375820 F F T
    0.66581774    0.34112046    0.58329779 F F T
    0.16540467    0.59328393    0.58400510 F F T
    0.50259320    0.59145772    0.58305528 F F T
    0.83392744    0.59305135    0.58382551 F F T
    0.99889274    0.84264556    0.58393319 F F T
    0.33134528    0.84236967    0.58263474 F F T
    0.66646519    0.84290476    0.58399047 F F T
    0.16840598    0.09212928    0.58376587 F F T
    0.50036294    0.09031031    0.58306231 F F T
    0.83229612    0.09297959    0.58305269 F F T
    0.00250070    0.17587803    0.66668713 F F T
    0.33409503    0.17617498    0.66612096 F F T
    0.66822622    0.17681948    0.66673607 F F T
    0.16483994    0.42352403    0.66661407 F F T
    0.49830800    0.42718906    0.66656144 F F T
    0.83573713    0.42444979    0.66655992 F F T
    0.00104456    0.67620386    0.66619362 F F T
    0.33568037    0.67608091    0.66601272 F F T
    0.66530105    0.67639455    0.66587789 F F T
    0.16890485    0.92431871    0.66683304 F F T
    0.50160996    0.92412196    0.66625194 F F T
    0.83493897    0.92276149    0.66630930 F F T
    0.16675772    0.25825643    0.75002862 F F T
    0.49769977    0.25749145    0.74938061 F F T
    0.83158218    0.25773172    0.75065413 F F T
    0.99770862    0.51022802    0.75021282 F F T
    0.33135745    0.50987526    0.74934642 F F T
    0.66612935    0.50964769    0.75019582 F F T
    0.16818174    0.75790471    0.75044809 F F T
    0.50025608    0.75636965    0.75006911 F F T
    0.83240963    0.75657597    0.74954252 F F T
    0.00174179    0.00780607    0.74963064 F F T
    0.33131280    0.00783434    0.75066721 F F T
    0.66621598    0.01046201    0.75042871 F F T
    0.99886142    0.34381064    0.83380429 F F T
    0.33394813    0.34263407    0.83321290 F F T
    0.66410700    0.34309234    0.83288775 F F T
    0.16428085    0.59369510    0.83371600 F F T
    0.49817787    0.59335269    0.83258935 F F T
    0.83507016    0.59058399    0.83399986 F F T
    0.00225049    0.84323340    0.83292051 F F T
    0.33468431    0.83955467    0.83259823 F F T
    0.66570284    0.84019372    0.83327836 F F T
    0.16673934    0.09140997    0.83286785 F F T
    0.50092105    0.09199846    0.83273652 F F T
    0.83462316    0.09223399    0.83401603 F F T
    0.00103857    0.17606211    0.91618546 F F T
    0.33537322    0.17286343    0.91603896 F F T
    0.66913422    0.17343301    0.91660782 F F T
    0.16456081    0.42344967    0.91593270 F F T
    0.49913252    0.42621635    0.91710659 F F T
    0.83386499    0.42397424    0.91610311 F F T
    0.99832836    0.67413385    0.91668960 F F T
    0.33292033    0.67401956    0.91620329 F F T
    0.66771188    0.67550058    0.91699378 F F T
    0.16912243    0.92670547    0.91647721 F F T
    0.50218779    0.92386128    0.91616113 F F T
    0.83496084    0.92427975    0.91632067 F F T
