Generated generic
1.0
    7.66857304    0.00000000    0.00000000
    0.00000000    8.85490542    0.00000000
    0.00000000    0.00000000   25.04545468
 Cu
 144
Selective dynamics
Direct
    0.16448748    0.08527830    0.99966027 F F F
    0.50072273    0.08484568    0.00076137 F F F
    0.83157152    0.08331890    0.00034629 F F F
    0.99916544    0.33534168    0.99947390 F F F
    0.33420854    0.33331612    0.99991545 F F F
    0.66903386    0.33443639    0.99946771 F F F
    0.16818203    0.58483262    0.00002117 F F F
    0.49750864    0.58494497    0.00046681 F F F
    0.83101408    0.58498643    0.00016535 F F F
    0.99963885    0.83513658    0.99954085 F F F
    0.33563577    0.83323673    0.00010689 F F F
    0.66603309    0.83341737    0.00045356 F F F
    0.99780972    0.16634856    0.08370682 F F F
    0.33501833    0.16504598    0.08270508 F F F
    0.66608512    0.16585462    0.08386889 F F F
    0.16604989    0.41570465    0.08286318 F F F
    0.49841356    0.41742678    0.08323242 F F F
    0.83135601    0.41654642    0.08265253 F F F
    0.99759306    0.66650272    0.08322334 F F F
    0.33393016    0.66533114    0.08404618 F F F
    0.66915732    0.66879282    0.08297812 F F F
    0.16488928    0.91702951    0.08337995 F F F
    0.50225246    0.91715948    0.08296490 F F F
    0.83363996    0.91637407    0.08347658 F F F
    0.00095175    0.99864082    0.16649686 F F F
    0.33397403    0.99778266    0.16596298 F F F
    0.66456730    0.00184858    0.16717024 F F F
    0.16493489    0.25051947    0.16665727 F F F
    0.49839819    0.24832513    0.16652931 F F F
    0.83534046    0.25076450    0.16596007 F F F
    0.00014857    0.50153411    0.16699443 F F F
    0.33315695    0.49868090    0.16639861 F F F
    0.66489619    0.49842856    0.16691684 F F F
    0.16868825    0.74946072    0.16733909 F F F
    0.49768612    0.74816669    0.16628188 F F F
    0.83433154    0.74834813    0.16735044 F F F
    0.16438037    0.08473754    0.24989169 F F F
    0.49969638    0.08178851    0.24976329 F F F
    0.83439017    0.08476051    0.24931445 F F F
    0.99793678    0.33556533    0.25019147 F F F
    0.33412596    0.33490389    0.25012526 F F F
    0.66825437    0.33426730    0.25035718 F F F
    0.16486435    0.58224121    0.25030156 F F F
    0.49966254    0.58196692    0.25002560 F F F
    0.83551454    0.58333354    0.25045740 F F F
    0.00254836    0.83141402    0.25039968 F F F
    0.33417798    0.83285938    0.25016246 F F F
    0.66873094    0.83516430    0.24938575 F F F
    0.00167944    0.16559142    0.33401065 F F F
    0.33521345    0.16542372    0.33333278 F F F
    0.66595831    0.16710565    0.33353210 F F F
    0.16488819    0.41874347    0.33356217 F F F
    0.49874731    0.41615375    0.33346685 F F F
    0.83324884    0.41684168    0.33392410 F F F
    0.00234793    0.66613351    0.33271917 F F F
    0.33136161    0.66515379    0.33308985 F F F
    0.66612592    0.66707127    0.33319394 F F F
    0.16744433    0.91559143    0.33278909 F F F
    0.49756031    0.91834829    0.33341400 F F F
    0.83119739    0.91710555    0.33392590 F F F
    0.99838733    0.00216720    0.41684492 F F F
    0.33312181    0.99940187    0.41600731 F F F
    0.66621640    0.00136390    0.41738860 F F F
    0.16576166    0.25165482    0.41590492 F F F
    0.49830588    0.25110723    0.41727233 F F F
    0.83201551    0.25193892    0.41647365 F F F
    0.00026701    0.49991923    0.41665070 F F F
    0.33114064    0.50192462    0.41590983 F F F
    0.66545486    0.49954398    0.41590825 F F F
    0.16652399    0.75221463    0.41626557 F F F
    0.50120874    0.75083820    0.41691811 F F F
    0.83327876    0.75114191    0.41643302 F F F
    0.16626954    0.14808025    0.49989830 F F T
    0.50063884    0.14722849    0.50010509 F F T
    0.83294179    0.14471924    0.50009849 F F T
    0.00117403    0.39562715    0.49979602 F F T
    0.33392390    0.39401631    0.49935594 F F T
    0.66505510    0.39790020    0.50037334 F F T
    0.16638293    0.64775160    0.49956128 F F T
    0.49756712    0.64715033    0.49998367 F F T
    0.83365076    0.64463299    0.50079469 F F T
    0.00009618    0.89781037    0.50017380 F F T
    0.33246690    0.89594285    0.49945390 F F T
    0.66777562    0.89414593    0.50057832 F F T
    0.99844277    0.22863752    0.58378557 F F T
    0.33483501    0.23015020    0.58276109 F F T
    0.66570415    0.22761058    0.58313216 F F T
    0.16901370    0.47742266    0.58348610 F F T
    0.50146250    0.47884085    0.58405957 F F T
    0.83328486    0.48095584    0.58336945 F F T
    0.00187868    0.73057675    0.58262162 F F T
    0.33311230    0.72955129    0.58409573 F F T
    0.66438650    0.72988687    0.58343264 F F T
    0.16486848    0.97771807    0.58302722 F F T
    0.49784126    0.97802779    0.58345029 F F T
    0.83135982    0.98067600    0.58265172 F F T
    0.00031570    0.06274220    0.66636025 F F T
    0.33287211    0.06284116    0.66621283 F F T
    0.66800194    0.06414750    0.66594712 F F T
    0.16665535    0.31204676    0.66708481 F F T
    0.50107585    0.31303905    0.66639956 F F T
    0.83516565    0.31244805    0.66717013 F F T
    0.00112068    0.56158570    0.66684981 F F T
    0.33278106    0.56215566    0.66606124 F F T
    0.66903390    0.56063174    0.66660531 F F T
    0.16539904    0.81135145    0.66606009 F F T
    0.49962428    0.81395808    0.66603308 F F T
    0.83267699    0.81121882    0.66616858 F F T
    0.16638599    0.14670501    0.75060302 F F T
    0.50189560    0.14703783    0.74982008 F F T
    0.83465930    0.14572441    0.74952606 F F T
    0.00211919    0.39734617    0.75010918 F F T
    0.33441447    0.39585882    0.74979106 F F T
    0.66576532    0.39699391    0.75026492 F F T
    0.16530314    0.64635742    0.74973428 F F T
    0.50109973    0.64502067    0.74978651 F F T
    0.83160807    0.64577565    0.75035716 F F T
    0.99835419    0.89690676    0.75012113 F F T
    0.33361296    0.89663224    0.74930320 F F T
    0.66758763    0.89530438    0.75058625 F F T
    0.00040988    0.23056574    0.83322135 F F T
    0.33307567    0.22837445    0.83260049 F F T
    0.66805085    0.22902770    0.83270275 F F T
    0.16469146    0.47847016    0.83296975 F F T
    0.49839693    0.48071213    0.83331505 F F T
    0.83571538    0.47873543    0.83408671 F F T
    0.99955315    0.72850773    0.83327304 F F T
    0.33365859    0.72783382    0.83257752 F F T
    0.66841692    0.73062610    0.83298261 F F T
    0.16706535    0.98072667    0.83323837 F F T
    0.49985351    0.98134439    0.83286061 F F T
    0.83161028    0.97957708    0.83311861 F F T
    0.99774695    0.06351340    0.91590951 F F T
    0.33347857    0.06341259    0.91743166 F F T
    0.66465932    0.06423558    0.91606226 F F T
    0.16496473    0.31038831    0.91711570 F F T
    0.49804742    0.31033702    0.91720539 F F T
    0.83387426    0.31130859    0.91671351 F F T
    0.00183250    0.56094720    0.91734091 F F T
    0.33435972    0.56082611    0.91599547 F F T
    0.66714227    0.56141655    0.91662592 F F T
    0.16788423    0.81073869    0.91654607 F F T
    0.49854624    0.81470382    0.91736277 F F T
    0.83366294    0.81225003    0.91737365 F F T
