Generated generic
1.0
    7.66857304    0.00000000    0.00000000
    0.00000000    8.85490542    0.00000000
    0.00000000    0.00000000   25.04545468
 Cu
 144
Selective dynamics
Direct
    0.16518738    0.08454992    0.00020719 F F F
    0.49819374    0.08520041    0.00048457 F F F
    0.83113789    0.08184120    0.00013083 F F F
    0.99887529    0.33382353    0.99983878 F F F
    0.33107797    0.33514397    0.99945060 F F F
    0.66408579    0.33170476    0.99983998 F F F
    0.16485122    0.58492935    0.00072559 F F F
    0.50052433    0.58231092    0.00041457 F F F
    0.83186011    0.58204623    0.00004529 F F F
    0.99849911    0.83270810    0.00011944 F F F
    0.33136428    0.83400221    0.00074685 F F F
    0.66649508    0.83524391    0.99996762 F F F
    0.00183154    0.16591385    0.08358278 F F F
    0.33364160    0.16663619    0.08294113 F F F
    0.66492486    0.16550807    0.08270547 F F F
    0.16474102    0.41580712    0.08337494 F F F
    0.50039006    0.41848750    0.08365591 F F F
    0.83466143    0.41872536    0.08373129 F F F
    0.99963909    0.66812381    0.08285587 F F F
    0.33532994    0.66607983    0.08337313 F F F
    0.66640865    0.66605500    0.08377008 F F F
    0.16752767    0.91678769    0.08380666 F F F
    0.49863060    0.91498794    0.08269981 F F F
    0.83185325    0.91767431    0.08375568 F F F
    0.99909929    0.00090700    0.16689127 F F F
    0.33268327    0.99967400    0.16627745 F F F
    0.66689831    0.00221853    0.16740770 F F F
    0.16907494    0.25225333    0.16728236 F F F
    0.50213232    0.25198952    0.16603027 F F F
    0.83108471    0.25176358    0.16744924 F F F
    0.00185658    0.50080782    0.16733027 F F F
    0.33086736    0.49781123    0.16669596 F F F
    0.66521268    0.49981410    0.16733153 F F F
    0.16925065    0.75198870    0.16607377 F F F
    0.49900773    0.75224899    0.16686065 F F F
    0.83337044    0.75063225    0.16672474 F F F
    0.16800387    0.08137322    0.25015282 F F F
    0.49982464    0.08232204    0.24939456 F F F
    0.83102955    0.08207318    0.24927845 F F F
    0.99944959    0.33117404    0.25048090 F F F
    0.33072946    0.33108674    0.25033661 F F F
    0.66588989    0.33407127    0.24987273 F F F
    0.16539674    0.58275257    0.24982843 F F F
    0.49946094    0.58262550    0.25078085 F F F
    0.83352904    0.58311488    0.24962229 F F F
    0.00047294    0.83190813    0.25059166 F F F
    0.33431351    0.83486742    0.24939802 F F F
    0.66600332    0.83396715    0.24977858 F F F
    0.00220597    0.16698793    0.33278280 F F F
    0.33450524    0.16861232    0.33317478 F F F
    0.66811802    0.16513329    0.33264415 F F F
    0.16914841    0.41621360    0.33409341 F F F
    0.49946446    0.41503962    0.33348506 F F F
    0.83248517    0.41836889    0.33267236 F F F
    0.99852913    0.66815848    0.33358575 F F F
    0.33230912    0.66828846    0.33410980 F F F
    0.66606382    0.66490752    0.33378417 F F F
    0.16704348    0.91513757    0.33260926 F F F
    0.50243361    0.91817692    0.33308492 F F F
    0.83398091    0.91876210    0.33402020 F F F
    0.99876668    0.99790195    0.41740893 F F F
    0.33423267    0.00209990    0.41683831 F F F
    0.66691113    0.00194710    0.41647583 F F F
    0.16434596    0.24885899    0.41626002 F F F
    0.49754681    0.24872883    0.41703502 F F F
    0.83366895    0.24919051    0.41684153 F F F
    0.00189640    0.50065101    0.41716218 F F F
    0.33448354    0.50137708    0.41678196 F F F
    0.66593941    0.50040748    0.41621953 F F F
    0.16762877    0.74895492    0.41623668 F F F
    0.49743454    0.74970250    0.41638141 F F F
    0.83379421    0.75147983    0.41598186 F F F
    0.50131466    0.23157094    0.49988250 F F T
    0.83381217    0.23508104    0.49937744 F F T
    0.16499123    0.23473447    0.50001248 F F T
    0.33402168    0.48153484    0.50058289 F F T
    0.66649115    0.48546396    0.49948303 F F T
    0.99988558    0.48119501    0.50005945 F F T
    0.50012340    0.73465521    0.50023359 F F T
    0.83101495    0.73410281    0.49995491 F F T
    0.16665437    0.73210190    0.49961494 F F T
    0.33378720    0.98354146    0.49968172 F F T
    0.66654109    0.98282421    0.49954968 F F T
    0.00095644    0.98529995    0.49966558 F F T
    0.33162622    0.31858169    0.58363176 F F T
    0.66873007    0.31675248    0.58341031 F F T
    0.00067857    0.31715671    0.58264181 F F T
    0.50042572    0.56771371    0.58263460 F F T
    0.83420292    0.56790960    0.58374934 F F T
    0.16867441    0.56736202    0.58293920 F F T
    0.33131403    0.81632863    0.58315437 F F T
    0.66865215    0.81455059    0.58369973 F F T
    0.99745305    0.81504430    0.58355936 F F T
    0.50155729    0.06638315    0.58261095 F F T
    0.83399078    0.06466588    0.58311788 F F T
    0.16484962    0.06608641    0.58270797 F F T
    0.33099914    0.14910179    0.66746176 F F T
    0.66924275    0.14999530    0.66663788 F F T
    0.99870018    0.15110388    0.66676598 F F T
    0.49856650    0.40046339    0.66721346 F F T
    0.83150119    0.40117911    0.66613329 F F T
    0.16639053    0.39794459    0.66594780 F F T
    0.33442449    0.65184734    0.66678445 F F T
    0.66920486    0.64904075    0.66636689 F F T
    0.99790600    0.65191000    0.66630730 F F T
    0.50165602    0.89841391    0.66733597 F F T
    0.83077001    0.89860789    0.66603521 F F T
    0.16710456    0.89788904    0.66706435 F F T
    0.49991782    0.23472667    0.75008879 F F T
    0.83180522    0.23488991    0.75023591 F F T
    0.16639992    0.23210310    0.74933583 F F T
    0.33184329    0.48429187    0.75046364 F F T
    0.66620016    0.48249554    0.74960174 F F T
    0.99760344    0.48434446    0.74986217 F F T
    0.50226550    0.73371521    0.74962920 F F T
    0.83431774    0.73281754    0.74997557 F F T
    0.16436500    0.73557958    0.75075019 F F T
    0.33076070    0.98246869    0.75065705 F F T
    0.66502428    0.98235456    0.74980981 F F T
    0.00124302    0.98441770    0.74999229 F F T
    0.33114833    0.31735514    0.83329632 F F T
    0.66470444    0.31746676    0.83343359 F F T
    0.00008630    0.31491825    0.83364984 F F T
    0.49801359    0.56809607    0.83387022 F F T
    0.83265471    0.56630016    0.83389847 F F T
    0.16465689    0.56527521    0.83263272 F F T
    0.33136262    0.81563239    0.83300051 F F T
    0.66756584    0.81737526    0.83398955 F F T
    0.00115528    0.81566427    0.83319837 F F T
    0.49914915    0.06644890    0.83284130 F F T
    0.83447161    0.06853667    0.83333337 F F T
    0.16789306    0.06561005    0.83330072 F F T
    0.33108254    0.15201519    0.91646210 F F T
    0.66513843    0.15091706    0.91642097 F F T
    0.00237181    0.14815742    0.91734652 F F T
    0.50136341    0.39910252    0.91663918 F F T
    0.83316022    0.39938386    0.91619314 F F T
    0.16416241    0.39969505    0.91625740 F F T
    0.33368884    0.64778392    0.91737216 F F T
    0.66693000    0.64908619    0.91628161 F F T
    0.00001066    0.64841403    0.91603030 F F T
    0.49933667    0.90175242    0.91618888 F F T
    0.83254913    0.89835461    0.91623457 F F T
    0.16797343    0.90060423    0.91666903 F F T
