Generated generic
1.0
    7.66857304    0.00000000    0.00000000
    0.00000000    8.85490542    0.00000000
    0.00000000    0.00000000   25.04545468
 Cu
 144
Selective dynamics
Direct
    0.16725990    0.08136969    0.99943549 F F F
    0.49860730    0.08558706    0.00074802 F F F
    0.83494704    0.08238171    0.99965114 F F F
    0.99856943    0.33124931    0.00028929 F F F
    0.33336687    0.33147489    0.99952948 F F F
    0.66484225    0.33535015    0.99977238 F F F
    0.16426092    0.58496427    0.00035746 F F F
    0.50122096    0.58306344    0.99935033 F F F
    0.83325671    0.58118523    0.99929803 F F F
    0.99919401    0.83113944    0.99954909 F F F
    0.33109529    0.83521862    0.99988676 F F F
    0.66676695    0.83248482    0.00010880 F F F
    0.00062953    0.16682535    0.08318110 F F F
    0.33268093    0.16826079    0.08363005 F F F
    0.66925193    0.16671469    0.08284058 F F F
    0.16877660    0.41546437    0.08315751 F F F
    0.49922765    0.41642979    0.08374954 F F F
    0.83140490    0.41645039    0.08285720 F F F
    0.00072653    0.66663879    0.08280952 F F F
    0.33555015    0.66461769    0.08388688 F F F
    0.66585437    0.66855645    0.08259372 F F F
    0.16792886    0.91755163    0.08343028 F F F
    0.49761105    0.91605930    0.08382602 F F F
    0.83392008    0.91799185    0.08350235 F F F
    0.00114532    0.00122711    0.16695170 F F F
    0.33172836    0.00044293    0.16588894 F F F
    0.66414088    0.00089116    0.16645413 F F F
    0.16675247    0.24954620    0.16617137 F F F
    0.50024544    0.25022283    0.16697687 F F F
    0.83441448    0.24810678    0.16677380 F F F
    0.99865448    0.50102039    0.16612252 F F F
    0.33282881    0.50150202    0.16672256 F F F
    0.66901580    0.50026131    0.16598414 F F F
    0.16793525    0.75115967    0.16682594 F F F
    0.50031008    0.75219378    0.16655649 F F F
    0.83520299    0.74840295    0.16657562 F F F
    0.16876711    0.08526240    0.25075252 F F F
    0.50143309    0.08226283    0.24955868 F F F
    0.83199097    0.08376126    0.25062423 F F F
    0.00141426    0.33388297    0.24995984 F F F
    0.33461737    0.33373894    0.24996596 F F F
    0.66474313    0.33159201    0.25044760 F F F
    0.16575551    0.58416881    0.25073441 F F F
    0.50223731    0.58128955    0.24933298 F F F
    0.83440544    0.58390803    0.24982327 F F F
    0.99908873    0.83413783    0.25019337 F F F
    0.33280239    0.83306542    0.25061263 F F F
    0.66621706    0.83470792    0.25027933 F F F
    0.99998172    0.16542400    0.33323241 F F F
    0.33564593    0.16603775    0.33295783 F F F
    0.66650199    0.16599812    0.33347717 F F F
    0.16638917    0.41606386    0.33410334 F F F
    0.49964525    0.41642393    0.33353784 F F F
    0.83207664    0.41472678    0.33325065 F F F
    0.00125593    0.66816547    0.33328591 F F F
    0.33257633    0.66668558    0.33388385 F F F
    0.66914213    0.66559885    0.33377140 F F F
    0.16846516    0.91619205    0.33354510 F F F
    0.49754648    0.91662780    0.33368959 F F F
    0.83308386    0.91494795    0.33272938 F F F
    0.99811975    0.99890593    0.41652249 F F F
    0.33308017    0.99939630    0.41728504 F F F
    0.66874732    0.00028259    0.41595431 F F F
    0.16696466    0.25164207    0.41663408 F F F
    0.49979093    0.24831682    0.41694273 F F F
    0.83516122    0.25121618    0.41734140 F F F
    0.99886833    0.49990592    0.41661352 F F F
    0.33448402    0.49979018    0.41627408 F F F
    0.66619476    0.49898590    0.41609231 F F F
    0.16747113    0.75098823    0.41647574 F F F
    0.50138231    0.75043430    0.41700552 F F F
    0.83274797    0.75192976    0.41609304 F F F
    0.43250780    0.13227649    0.49920867 F F T
    0.76905680    0.13416268    0.49995469 F F T
    0.09853316    0.13210816    0.50001850 F F T
    0.26659124    0.38298545    0.50041076 F F T
    0.59760404    0.38475084    0.50043492 F F T
    0.93239877    0.38239807    0.50003431 F F T
    0.43467138    0.63493003    0.50021922 F F T
    0.76860446    0.63346982    0.50071889 F F T
    0.10130163    0.63213009    0.49932938 F F T
    0.26516308    0.88252959    0.49976967 F F T
    0.60045553    0.88335082    0.49989059 F F T
    0.93437974    0.88148127    0.49960344 F F T
    0.26581722    0.21874701    0.58290625 F F T
    0.60188420    0.21727193    0.58263511 F F T
    0.93165904    0.21442569    0.58392704 F F T
    0.43538813    0.46856810    0.58297382 F F T
    0.76487929    0.46787683    0.58332893 F F T
    0.09764130    0.46733352    0.58343543 F F T
    0.26723150    0.71499607    0.58297197 F F T
    0.60044139    0.71695267    0.58364071 F F T
    0.93296066    0.71440891    0.58332392 F F T
    0.43483931    0.96810985    0.58296930 F F T
    0.76436872    0.96659267    0.58411967 F F T
    0.10231451    0.96726520    0.58373643 F F T
    0.26772001    0.04940062    0.66713427 F F T
    0.60067870    0.04805091    0.66622936 F F T
    0.93174755    0.05046459    0.66641650 F F T
    0.43342926    0.29934960    0.66711322 F F T
    0.76816351    0.30159474    0.66669881 F F T
    0.10056759    0.30079512    0.66700751 F F T
    0.26596133    0.54860793    0.66594024 F F T
    0.60247744    0.55030403    0.66672825 F F T
    0.93118544    0.55170984    0.66675831 F F T
    0.43300907    0.79958932    0.66665842 F F T
    0.76543533    0.80104915    0.66690682 F F T
    0.09971365    0.80202257    0.66685581 F F T
    0.43455572    0.13386005    0.74997593 F F T
    0.76803432    0.13365559    0.74984996 F F T
    0.09796642    0.13484968    0.75058910 F F T
    0.26619728    0.38527438    0.75061720 F F T
    0.59892841    0.38551306    0.75022272 F F T
    0.93136589    0.38399716    0.74981261 F F T
    0.43282408    0.63453294    0.75070874 F F T
    0.76636485    0.63505947    0.75026243 F F T
    0.10126012    0.63519558    0.75055727 F F T
    0.26408833    0.88250018    0.75053021 F F T
    0.60096773    0.88250165    0.74998132 F F T
    0.93181278    0.88454009    0.75055106 F F T
    0.26653080    0.21739331    0.83357923 F F T
    0.59941855    0.21742855    0.83328557 F F T
    0.93078426    0.21716380    0.83282767 F F T
    0.43555026    0.46453294    0.83348990 F F T
    0.76583686    0.46776647    0.83313271 F F T
    0.09956794    0.46722469    0.83366074 F F T
    0.26818024    0.71518224    0.83280889 F F T
    0.59905785    0.71823326    0.83386908 F F T
    0.93095737    0.71826865    0.83347061 F F T
    0.43533922    0.96742168    0.83405990 F F T
    0.76569826    0.96782243    0.83410270 F F T
    0.09771286    0.96672394    0.83259108 F F T
    0.26856639    0.05105673    0.91669938 F F T
    0.60099664    0.04824071    0.91700300 F F T
    0.93505452    0.05110936    0.91597827 F F T
    0.43563669    0.30008786    0.91614962 F F T
    0.76665068    0.30147196    0.91685961 F F T
    0.10034792    0.30115629    0.91734970 F F T
    0.26866363    0.55031301    0.91628905 F F T
    0.59879892    0.54795390    0.91693158 F F T
    0.93478082    0.55126968    0.91669365 F F T
    0.43215443    0.79775203    0.91712145 F F T
    0.76626168    0.80024912    0.91683944 F F T
    0.10228490    0.80072619    0.91614497 F F T
