Generated generic
1.0
    7.66857304    0.00000000    0.00000000
    0.00000000    8.85490542    0.00000000
    0.00000000    0.00000000   25.04545468
 Cu
 144
Selective dynamics
Direct
    0.16825841    0.08256725    0.99983150 F F F
    0.49863756    0.08373996    0.99992510 F F F
    0.83540912    0.08391466    0.99923210 F F F
    0.00161829    0.33396613    0.99955211 F F F
    0.33269047    0.33401987    0.00030239 F F F
    0.66521100    0.33149826    0.99969468 F F F
    0.16887446    0.58305381    0.00053502 F F F
    0.50127052    0.58162277    0.99936830 F F F
    0.83515968    0.58318007    0.99977103 F F F
    0.00000688    0.83429547    0.99964424 F F F
    0.33276290    0.83195017    0.99973841 F F F
    0.66509766    0.83215306    0.99966768 F F F
    0.00091004    0.16851956    0.08410598 F F F
    0.33453438    0.16620881    0.08299319 F F F
    0.66529902    0.16683882    0.08374575 F F F
    0.16525440    0.41773350    0.08276060 F F F
    0.50203354    0.41859587    0.08347528 F F F
    0.83455621    0.41728941    0.08345609 F F F
    0.00018637    0.66507264    0.08330651 F F F
    0.33442811    0.66679881    0.08410710 F F F
    0.66557585    0.66494994    0.08362435 F F F
    0.16471758    0.91562221    0.08333476 F F F
    0.49796054    0.91784437    0.08274510 F F F
    0.83546808    0.91793816    0.08331049 F F F
    0.99870949    0.99820454    0.16633476 F F F
    0.33221604    0.99914970    0.16674205 F F F
    0.66571716    0.00181393    0.16695085 F F F
    0.16701290    0.25071826    0.16618096 F F F
    0.50052621    0.25178011    0.16601186 F F F
    0.83220620    0.25117227    0.16704630 F F F
    0.00253923    0.49991442    0.16667388 F F F
    0.33446027    0.49792859    0.16698524 F F F
    0.66696412    0.50176046    0.16661618 F F F
    0.16771261    0.74795413    0.16727064 F F F
    0.49842066    0.75199078    0.16686340 F F F
    0.83500185    0.75029548    0.16669301 F F F
    0.16545388    0.08472997    0.24948699 F F F
    0.50045269    0.08428206    0.24932420 F F F
    0.83393170    0.08404783    0.25023772 F F F
    0.99856771    0.33219744    0.25058734 F F F
    0.33285373    0.33490569    0.24974461 F F F
    0.66741115    0.33517743    0.24966476 F F F
    0.16652471    0.58148696    0.25057696 F F F
    0.50041300    0.58144429    0.24965402 F F F
    0.83140364    0.58249218    0.25039254 F F F
    0.00185400    0.83204495    0.25070793 F F F
    0.33328277    0.83193069    0.25003095 F F F
    0.66581948    0.83131387    0.25041869 F F F
    0.99949641    0.16566213    0.33269182 F F F
    0.33553130    0.16675569    0.33304265 F F F
    0.66440390    0.16861396    0.33276023 F F F
    0.16499593    0.41879740    0.33263563 F F F
    0.50104902    0.41566926    0.33264437 F F F
    0.83099777    0.41830568    0.33257795 F F F
    0.99979982    0.66686390    0.33368714 F F F
    0.33564585    0.66539822    0.33404553 F F F
    0.66422693    0.66565115    0.33358192 F F F
    0.16585073    0.91654274    0.33302362 F F F
    0.50200146    0.91539306    0.33363016 F F F
    0.83237234    0.91734978    0.33297237 F F F
    0.99827005    0.99888303    0.41727560 F F F
    0.33228189    0.99962981    0.41727346 F F F
    0.66724468    0.00139548    0.41697735 F F F
    0.16922696    0.24812085    0.41694813 F F F
    0.50114886    0.24849617    0.41671318 F F F
    0.83460287    0.24927907    0.41686844 F F F
    0.00144724    0.49946231    0.41656803 F F F
    0.33299747    0.49798758    0.41589106 F F F
    0.66835976    0.49793335    0.41677362 F F F
    0.16730669    0.75105439    0.41642580 F F F
    0.50017404    0.74951592    0.41687566 F F F
    0.83074779    0.74924887    0.41587309 F F F
    0.36721206    0.18261264    0.49962017 F F T
    0.69904868    0.18316834    0.50059766 F F T
    0.03138112    0.18551527    0.49993484 F F T
    0.19819762    0.43375087    0.49963346 F F T
    0.53111697    0.43192092    0.50069556 F F T
    0.86523871    0.43206867    0.50002829 F F T
    0.36716551    0.68511380    0.50048198 F F T
    0.69974199    0.68440457    0.50074590 F F T
    0.03389763    0.68494158    0.49993829 F F T
    0.20169245    0.93155571    0.50071915 F F T
    0.53351371    0.93444024    0.50072596 F F T
    0.86701089    0.93201536    0.50064919 F F T
    0.20178341    0.26765864    0.58253965 F F T
    0.53129761    0.26444457    0.58304566 F F T
    0.86779105    0.26718695    0.58263115 F F T
    0.36909198    0.51453810    0.58334971 F F T
    0.70196679    0.51445030    0.58354962 F F T
    0.03442634    0.51545331    0.58391385 F F T
    0.20229168    0.76833681    0.58357361 F F T
    0.53511869    0.76826617    0.58302351 F F T
    0.86719350    0.76692723    0.58260287 F F T
    0.36690548    0.01597375    0.58294630 F F T
    0.69905666    0.01632386    0.58411888 F F T
    0.03085443    0.01634789    0.58315975 F F T
    0.19919897    0.09912006    0.66708763 F F T
    0.53531416    0.09972638    0.66737816 F F T
    0.86425245    0.10022480    0.66617542 F F T
    0.36894821    0.35126909    0.66612413 F F T
    0.69953008    0.35052845    0.66722415 F F T
    0.03238525    0.35197740    0.66697309 F F T
    0.19867917    0.59881231    0.66631630 F F T
    0.53078148    0.60166517    0.66682422 F F T
    0.86469856    0.60157444    0.66587167 F F T
    0.36562334    0.84830049    0.66619148 F F T
    0.69965129    0.85153938    0.66735896 F F T
    0.03345021    0.85177494    0.66662491 F F T
    0.36705107    0.18294733    0.75079796 F F T
    0.69894721    0.18111031    0.74969224 F F T
    0.03263792    0.18547882    0.75062908 F F T
    0.19795974    0.43239486    0.74997962 F F T
    0.53257628    0.43397388    0.75069926 F F T
    0.86787304    0.43399501    0.75020289 F F T
    0.36428913    0.68182577    0.74953583 F F T
    0.69764486    0.68309583    0.75025917 F F T
    0.03344376    0.68419083    0.74950861 F F T
    0.20128926    0.93340940    0.74988933 F F T
    0.53439903    0.93154885    0.75031720 F F T
    0.86644007    0.93286274    0.75033980 F F T
    0.20128605    0.26744722    0.83374350 F F T
    0.53535904    0.26724980    0.83297853 F F T
    0.86767244    0.26536101    0.83282029 F F T
    0.36525838    0.51558393    0.83262414 F F T
    0.70083135    0.51849470    0.83409799 F F T
    0.03125706    0.51503553    0.83355472 F F T
    0.19933070    0.76546503    0.83278458 F F T
    0.53547963    0.76475888    0.83374131 F F T
    0.86497647    0.76470177    0.83346573 F F T
    0.36777648    0.01776927    0.83354305 F F T
    0.69828006    0.01795267    0.83318257 F F T
    0.03142427    0.01791344    0.83366852 F F T
    0.20210134    0.09778496    0.91618104 F F T
    0.53299816    0.09974729    0.91723509 F F T
    0.86440643    0.09926809    0.91732098 F F T
    0.36829186    0.35117710    0.91643566 F F T
    0.70029356    0.34808903    0.91741470 F F T
    0.03405514    0.34890449    0.91656569 F F T
    0.20095185    0.59970353    0.91622541 F F T
    0.53319177    0.60053906    0.91595493 F F T
    0.86747959    0.60036157    0.91687720 F F T
    0.36692663    0.85138804    0.91691735 F F T
    0.70136577    0.85167503    0.91589731 F F T
    0.03478258    0.84976075    0.91689392 F F T
