Cu
 1.0000000000000000
     7.6685730419681093    0.0000000000000000    0.0000000000000000
     3.8342865209840546    6.6411790651208911    0.0000000000000000
     0.0000000000000000    0.0000000000000000   64.7007579167354265
 Cu 
 279
Direct
  0.0000000000000000  0.0000000000000000  0.0000000000000000
  0.8888888888888887  0.5555555555555556  0.6129032258064516
  0.2222222222222223  0.8888888888888887  0.6129032258064516
  0.5555555555555556  0.8888888888888887  0.6129032258064516
  0.8888888888888888  0.8888888888888887  0.6129032258064516
  0.1111111111111111  0.1111111111111111  0.6451612903225806
  0.4444444444444443  0.1111111111111111  0.6451612903225806
  0.7777777777777778  0.1111111111111111  0.6451612903225806
  0.1111111111111111  0.4444444444444444  0.6451612903225806
  0.4444444444444444  0.4444444444444444  0.6451612903225806
  0.7777777777777778  0.4444444444444444  0.6451612903225806
  0.1111111111111111  0.7777777777777777  0.6451612903225806
  0.4444444444444444  0.7777777777777777  0.6451612903225806
  0.7777777777777778  0.7777777777777777  0.6451612903225806
  0.2222222222222222  0.2222222222222222  0.6774193548387096
  0.5555555555555556  0.2222222222222222  0.6774193548387096
  0.8888888888888886  0.2222222222222222  0.6774193548387096
  0.2222222222222222  0.5555555555555556  0.6774193548387096
  0.6666666666666666  0.6666666666666666  0.7096774193548386
  0.3333333333333333  0.6666666666666666  0.7096774193548386
  0.0000000000000000  0.6666666666666666  0.7096774193548386
  0.6666666666666666  0.3333333333333333  0.7096774193548386
  0.3333333333333333  0.3333333333333333  0.7096774193548386
  0.0000000000000000  0.3333333333333333  0.7096774193548386
  0.5555555555555555  0.5555555555555556  0.6129032258064516
  0.6666666666666666  0.0000000000000000  0.7096774193548386
  0.0000000000000000  0.0000000000000000  0.7096774193548386
  0.8888888888888888  0.8888888888888887  0.6774193548387096
  0.5555555555555556  0.8888888888888887  0.6774193548387096
  0.2222222222222223  0.8888888888888887  0.6774193548387096
  0.8888888888888887  0.5555555555555556  0.6774193548387096
  0.5555555555555555  0.5555555555555556  0.6774193548387096
  0.3333333333333333  0.0000000000000000  0.7096774193548386
  0.1111111111111111  0.1111111111111111  0.7419354838709677
  0.2222222222222222  0.5555555555555556  0.6129032258064516
  0.5555555555555556  0.2222222222222222  0.6129032258064516
  0.0000000000000000  0.6666666666666666  0.4838709677419354
  0.3333333333333333  0.6666666666666666  0.4838709677419354
  0.6666666666666666  0.6666666666666666  0.4838709677419354
  0.2222222222222222  0.2222222222222222  0.5161290322580645
  0.5555555555555556  0.2222222222222222  0.5161290322580645
  0.8888888888888886  0.2222222222222222  0.5161290322580645
  0.2222222222222222  0.5555555555555556  0.5161290322580645
  0.5555555555555555  0.5555555555555556  0.5161290322580645
  0.8888888888888887  0.5555555555555556  0.5161290322580645
  0.2222222222222223  0.8888888888888887  0.5161290322580645
  0.5555555555555556  0.8888888888888887  0.5161290322580645
  0.8888888888888888  0.8888888888888887  0.5161290322580645
  0.1111111111111111  0.1111111111111111  0.5483870967741935
  0.4444444444444443  0.1111111111111111  0.5483870967741935
  0.7777777777777778  0.1111111111111111  0.5483870967741935
  0.1111111111111111  0.4444444444444444  0.5483870967741935
  0.4444444444444444  0.4444444444444444  0.5483870967741935
  0.2222222222222222  0.2222222222222222  0.6129032258064516
  0.6666666666666666  0.6666666666666666  0.5806451612903225
  0.3333333333333333  0.6666666666666666  0.5806451612903225
  0.0000000000000000  0.6666666666666666  0.5806451612903225
  0.6666666666666666  0.3333333333333333  0.5806451612903225
  0.3333333333333333  0.3333333333333333  0.5806451612903225
  0.8888888888888886  0.2222222222222222  0.6129032258064516
  0.0000000000000000  0.3333333333333333  0.5806451612903225
  0.3333333333333333  0.0000000000000000  0.5806451612903225
  0.0000000000000000  0.0000000000000000  0.5806451612903225
  0.7777777777777778  0.7777777777777777  0.5483870967741935
  0.4444444444444444  0.7777777777777777  0.5483870967741935
  0.1111111111111111  0.7777777777777777  0.5483870967741935
  0.7777777777777778  0.4444444444444444  0.5483870967741935
  0.6666666666666666  0.0000000000000000  0.5806451612903225
  0.6666666666666666  0.3333333333333333  0.4838709677419354
  0.4444444444444443  0.1111111111111111  0.7419354838709677
  0.1111111111111111  0.4444444444444444  0.7419354838709677
  0.2222222222222222  0.5555555555555556  0.8709677419354838
  0.5555555555555555  0.5555555555555556  0.8709677419354838
  0.8888888888888887  0.5555555555555556  0.8709677419354838
  0.2222222222222223  0.8888888888888887  0.8709677419354838
  0.5555555555555556  0.8888888888888887  0.8709677419354838
  0.8888888888888888  0.8888888888888887  0.8709677419354838
  0.0000000000000000  0.0000000000000000  0.9032258064516128
  0.3333333333333333  0.0000000000000000  0.9032258064516128
  0.6666666666666666  0.0000000000000000  0.9032258064516128
  0.0000000000000000  0.3333333333333333  0.9032258064516128
  0.3333333333333333  0.3333333333333333  0.9032258064516128
  0.6666666666666666  0.3333333333333333  0.9032258064516128
  0.0000000000000000  0.6666666666666666  0.9032258064516128
  0.3333333333333333  0.6666666666666666  0.9032258064516128
  0.6666666666666666  0.6666666666666666  0.9032258064516128
  0.1111111111111111  0.1111111111111111  0.9354838709677418
  0.4444444444444443  0.1111111111111111  0.9354838709677418
  0.2222222222222223  0.8888888888888887  0.9677419354838709
  0.8888888888888887  0.5555555555555556  0.9677419354838709
  0.5555555555555555  0.5555555555555556  0.9677419354838709
  0.2222222222222222  0.5555555555555556  0.9677419354838709
  0.8888888888888886  0.2222222222222222  0.9677419354838709
  0.5555555555555556  0.2222222222222222  0.9677419354838709
  0.8888888888888886  0.2222222222222222  0.8709677419354838
  0.2222222222222222  0.2222222222222222  0.9677419354838709
  0.4444444444444444  0.7777777777777777  0.9354838709677418
  0.1111111111111111  0.7777777777777777  0.9354838709677418
  0.7777777777777778  0.4444444444444444  0.9354838709677418
  0.4444444444444444  0.4444444444444444  0.9354838709677418
  0.1111111111111111  0.4444444444444444  0.9354838709677418
  0.7777777777777778  0.1111111111111111  0.9354838709677418
  0.7777777777777778  0.7777777777777777  0.9354838709677418
  0.7777777777777778  0.1111111111111111  0.7419354838709677
  0.5555555555555556  0.2222222222222222  0.8709677419354838
  0.7777777777777778  0.7777777777777777  0.8387096774193548
  0.4444444444444444  0.4444444444444444  0.7419354838709677
  0.7777777777777778  0.4444444444444444  0.7419354838709677
  0.1111111111111111  0.7777777777777777  0.7419354838709677
  0.4444444444444444  0.7777777777777777  0.7419354838709677
  0.7777777777777778  0.7777777777777777  0.7419354838709677
  0.2222222222222222  0.2222222222222222  0.7741935483870966
  0.5555555555555556  0.2222222222222222  0.7741935483870966
  0.8888888888888886  0.2222222222222222  0.7741935483870966
  0.2222222222222222  0.5555555555555556  0.7741935483870966
  0.5555555555555555  0.5555555555555556  0.7741935483870966
  0.8888888888888887  0.5555555555555556  0.7741935483870966
  0.2222222222222223  0.8888888888888887  0.7741935483870966
  0.5555555555555556  0.8888888888888887  0.7741935483870966
  0.8888888888888888  0.8888888888888887  0.7741935483870966
  0.0000000000000000  0.0000000000000000  0.8064516129032256
  0.3333333333333333  0.0000000000000000  0.8064516129032256
  0.6666666666666666  0.0000000000000000  0.8064516129032256
  0.4444444444444444  0.7777777777777777  0.8387096774193548
  0.1111111111111111  0.7777777777777777  0.8387096774193548
  0.7777777777777778  0.4444444444444444  0.8387096774193548
  0.4444444444444444  0.4444444444444444  0.8387096774193548
  0.1111111111111111  0.4444444444444444  0.8387096774193548
  0.7777777777777778  0.1111111111111111  0.8387096774193548
  0.2222222222222222  0.2222222222222222  0.8709677419354838
  0.4444444444444443  0.1111111111111111  0.8387096774193548
  0.6666666666666666  0.6666666666666666  0.8064516129032256
  0.3333333333333333  0.6666666666666666  0.8064516129032256
  0.0000000000000000  0.6666666666666666  0.8064516129032256
  0.6666666666666666  0.3333333333333333  0.8064516129032256
  0.3333333333333333  0.3333333333333333  0.8064516129032256
  0.0000000000000000  0.3333333333333333  0.8064516129032256
  0.1111111111111111  0.1111111111111111  0.8387096774193548
  0.5555555555555556  0.8888888888888887  0.9677419354838709
  0.3333333333333333  0.3333333333333333  0.4838709677419354
  0.6666666666666666  0.0000000000000000  0.4838709677419354
  0.1111111111111111  0.1111111111111111  0.1290322580645161
  0.4444444444444443  0.1111111111111111  0.1290322580645161
  0.7777777777777778  0.1111111111111111  0.1290322580645161
  0.1111111111111111  0.4444444444444444  0.1290322580645161
  0.4444444444444444  0.4444444444444444  0.1290322580645161
  0.7777777777777778  0.4444444444444444  0.1290322580645161
  0.1111111111111111  0.7777777777777777  0.1290322580645161
  0.4444444444444444  0.7777777777777777  0.1290322580645161
  0.7777777777777778  0.7777777777777777  0.1290322580645161
  0.2222222222222222  0.2222222222222222  0.1612903225806452
  0.5555555555555556  0.2222222222222222  0.1612903225806452
  0.8888888888888886  0.2222222222222222  0.1612903225806452
  0.2222222222222222  0.5555555555555556  0.1612903225806452
  0.5555555555555555  0.5555555555555556  0.1612903225806452
  0.8888888888888887  0.5555555555555556  0.1612903225806452
  0.2222222222222223  0.8888888888888887  0.1612903225806452
  0.5555555555555556  0.8888888888888887  0.1612903225806452
  0.1111111111111111  0.4444444444444444  0.2258064516129032
  0.7777777777777778  0.1111111111111111  0.2258064516129032
  0.4444444444444443  0.1111111111111111  0.2258064516129032
  0.1111111111111111  0.1111111111111111  0.2258064516129032
  0.6666666666666666  0.6666666666666666  0.1935483870967742
  0.3333333333333333  0.6666666666666666  0.1935483870967742
  0.6666666666666666  0.6666666666666666  0.0967741935483871
  0.0000000000000000  0.6666666666666666  0.1935483870967742
  0.3333333333333333  0.3333333333333333  0.1935483870967742
  0.0000000000000000  0.3333333333333333  0.1935483870967742
  0.6666666666666666  0.0000000000000000  0.1935483870967742
  0.3333333333333333  0.0000000000000000  0.1935483870967742
  0.0000000000000000  0.0000000000000000  0.1935483870967742
  0.8888888888888888  0.8888888888888887  0.1612903225806452
  0.6666666666666666  0.3333333333333333  0.1935483870967742
  0.4444444444444444  0.4444444444444444  0.2258064516129032
  0.3333333333333333  0.6666666666666666  0.0967741935483871
  0.6666666666666666  0.3333333333333333  0.0967741935483871
  0.3333333333333333  0.0000000000000000  0.0000000000000000
  0.6666666666666666  0.0000000000000000  0.0000000000000000
  0.0000000000000000  0.3333333333333333  0.0000000000000000
  0.3333333333333333  0.3333333333333333  0.0000000000000000
  0.6666666666666666  0.3333333333333333  0.0000000000000000
  0.0000000000000000  0.6666666666666666  0.0000000000000000
  0.3333333333333333  0.6666666666666666  0.0000000000000000
  0.6666666666666666  0.6666666666666666  0.0000000000000000
  0.1111111111111111  0.1111111111111111  0.0322580645161290
  0.4444444444444443  0.1111111111111111  0.0322580645161290
  0.7777777777777778  0.1111111111111111  0.0322580645161290
  0.1111111111111111  0.4444444444444444  0.0322580645161290
  0.4444444444444444  0.4444444444444444  0.0322580645161290
  0.7777777777777778  0.4444444444444444  0.0322580645161290
  0.1111111111111111  0.7777777777777777  0.0322580645161290
  0.4444444444444444  0.7777777777777777  0.0322580645161290
  0.7777777777777778  0.7777777777777777  0.0322580645161290
  0.3333333333333333  0.3333333333333333  0.0967741935483871
  0.0000000000000000  0.3333333333333333  0.0967741935483871
  0.6666666666666666  0.0000000000000000  0.0967741935483871
  0.3333333333333333  0.0000000000000000  0.0967741935483871
  0.0000000000000000  0.0000000000000000  0.0967741935483871
  0.8888888888888888  0.8888888888888887  0.0645161290322581
  0.0000000000000000  0.6666666666666666  0.0967741935483871
  0.5555555555555556  0.8888888888888887  0.0645161290322581
  0.8888888888888887  0.5555555555555556  0.0645161290322581
  0.5555555555555555  0.5555555555555556  0.0645161290322581
  0.2222222222222222  0.5555555555555556  0.0645161290322581
  0.8888888888888886  0.2222222222222222  0.0645161290322581
  0.5555555555555556  0.2222222222222222  0.0645161290322581
  0.2222222222222222  0.2222222222222222  0.0645161290322581
  0.2222222222222223  0.8888888888888887  0.0645161290322581
  0.0000000000000000  0.3333333333333333  0.4838709677419354
  0.7777777777777778  0.4444444444444444  0.2258064516129032
  0.4444444444444444  0.7777777777777777  0.2258064516129032
  0.4444444444444444  0.7777777777777777  0.3548387096774193
  0.7777777777777778  0.7777777777777777  0.3548387096774193
  0.0000000000000000  0.0000000000000000  0.3870967741935483
  0.3333333333333333  0.0000000000000000  0.3870967741935483
  0.6666666666666666  0.0000000000000000  0.3870967741935483
  0.0000000000000000  0.3333333333333333  0.3870967741935483
  0.3333333333333333  0.3333333333333333  0.3870967741935483
  0.6666666666666666  0.3333333333333333  0.3870967741935483
  0.0000000000000000  0.6666666666666666  0.3870967741935483
  0.3333333333333333  0.6666666666666666  0.3870967741935483
  0.6666666666666666  0.6666666666666666  0.3870967741935483
  0.2222222222222222  0.2222222222222222  0.4193548387096774
  0.5555555555555556  0.2222222222222222  0.4193548387096774
  0.8888888888888886  0.2222222222222222  0.4193548387096774
  0.2222222222222222  0.5555555555555556  0.4193548387096774
  0.5555555555555555  0.5555555555555556  0.4193548387096774
  0.8888888888888887  0.5555555555555556  0.4193548387096774
  0.3333333333333333  0.0000000000000000  0.4838709677419354
  0.0000000000000000  0.0000000000000000  0.4838709677419354
  0.7777777777777778  0.7777777777777777  0.4516129032258064
  0.4444444444444444  0.7777777777777777  0.4516129032258064
  0.1111111111111111  0.7777777777777777  0.4516129032258064
  0.7777777777777778  0.4444444444444444  0.4516129032258064
  0.1111111111111111  0.7777777777777777  0.3548387096774193
  0.4444444444444444  0.4444444444444444  0.4516129032258064
  0.7777777777777778  0.1111111111111111  0.4516129032258064
  0.4444444444444443  0.1111111111111111  0.4516129032258064
  0.1111111111111111  0.1111111111111111  0.4516129032258064
  0.8888888888888888  0.8888888888888887  0.4193548387096774
  0.5555555555555556  0.8888888888888887  0.4193548387096774
  0.2222222222222223  0.8888888888888887  0.4193548387096774
  0.1111111111111111  0.4444444444444444  0.4516129032258064
  0.1111111111111111  0.7777777777777777  0.2258064516129032
  0.7777777777777778  0.4444444444444444  0.3548387096774193
  0.1111111111111111  0.4444444444444444  0.3548387096774193
  0.7777777777777778  0.7777777777777777  0.2258064516129032
  0.2222222222222222  0.2222222222222222  0.2580645161290323
  0.5555555555555556  0.2222222222222222  0.2580645161290323
  0.8888888888888886  0.2222222222222222  0.2580645161290323
  0.2222222222222222  0.5555555555555556  0.2580645161290323
  0.5555555555555555  0.5555555555555556  0.2580645161290323
  0.8888888888888887  0.5555555555555556  0.2580645161290323
  0.2222222222222223  0.8888888888888887  0.2580645161290323
  0.5555555555555556  0.8888888888888887  0.2580645161290323
  0.8888888888888888  0.8888888888888887  0.2580645161290323
  0.0000000000000000  0.0000000000000000  0.2903225806451613
  0.3333333333333333  0.0000000000000000  0.2903225806451613
  0.6666666666666666  0.0000000000000000  0.2903225806451613
  0.0000000000000000  0.3333333333333333  0.2903225806451613
  0.3333333333333333  0.3333333333333333  0.2903225806451613
  0.6666666666666666  0.3333333333333333  0.2903225806451613
  0.0000000000000000  0.6666666666666666  0.2903225806451613
  0.7777777777777778  0.1111111111111111  0.3548387096774193
  0.4444444444444443  0.1111111111111111  0.3548387096774193
  0.1111111111111111  0.1111111111111111  0.3548387096774193
  0.8888888888888888  0.8888888888888887  0.3225806451612903
  0.5555555555555556  0.8888888888888887  0.3225806451612903
  0.2222222222222223  0.8888888888888887  0.3225806451612903
  0.4444444444444444  0.4444444444444444  0.3548387096774193
  0.8888888888888887  0.5555555555555556  0.3225806451612903
  0.2222222222222222  0.5555555555555556  0.3225806451612903
  0.8888888888888886  0.2222222222222222  0.3225806451612903
  0.5555555555555556  0.2222222222222222  0.3225806451612903
  0.2222222222222222  0.2222222222222222  0.3225806451612903
  0.6666666666666666  0.6666666666666666  0.2903225806451613
  0.3333333333333333  0.6666666666666666  0.2903225806451613
  0.5555555555555555  0.5555555555555556  0.3225806451612903
  0.8888888888888888  0.8888888888888887  0.9677419354838709
