Cu
 1.0000000000000000
     7.6685730419681093    0.0000000000000000    0.0000000000000000
     3.8342865209840546    6.6411790651208911    0.0000000000000000
     0.0000000000000000    0.0000000000000000   25.0450909090909093
 Cu 
 108
Direct
  0.1087111458717939  0.1138145588029832 -0.0003728505270320
  0.0671699077481066  0.6652281670340046  0.6673375814901099
  0.7330151785169192  0.3308968253167069  0.6663208513088634
  0.4011147167851254  0.3311822715460025  0.6663693894687461
  0.0674051176033054  0.3328391191594163  0.6660857986168217
  0.7316632580623369  0.0007829435990719  0.6668766114314648
  0.4024468129778739  0.0000100531089413  0.6669647328430207
  0.0647924791224125  0.0003628586630218  0.6672811586924213
  0.6222245025878728  0.8875720849882360  0.5840248942227528
  0.2862788390575075  0.8891067415003210  0.5827799530750892
  0.9545139262583587  0.8901221910370871  0.5830197182612260
  0.6250573333729204  0.5530530104460282  0.5834142384787603
  0.2854778041082949  0.5583175371031508  0.5833316117925212
  0.9524126811222611  0.5571227943866121  0.5839837533232440
  0.6221174279033206  0.2194022959704995  0.5827194658385276
  0.2900785770661889  0.2195710497251847  0.5825509003406730
  0.9531885234996972  0.2239949735464853  0.5841315646468125
  0.8423751588093117  0.7784227526205313  0.4993573986793033
  0.5084981381333518  0.7797031385778297  0.5006082221827950
  0.1772226586758027  0.7786450416480637  0.4999803686368035
  0.8426047325293335  0.4467298835252283  0.5005782990476013
  0.5140682890253843  0.4419872115026596  0.4998335820550829
  0.1792329898919649  0.4458383798969820  0.5006748236536920
  0.8474863070848357  0.1093510433211703  0.5004308179375159
  0.3998762955737061  0.6647109527794317  0.6664765684006099
  0.5135655824629637  0.1083926244934845  0.4993678195663603
  0.7298883044692499  0.6692133348573479  0.6669751428444590
  0.5141998121998584  0.1101341914582060  0.7507252837322770
  0.0653539515452336  0.6682408606608006  0.9170634257874157
  0.7359719449352303  0.3315212528340825  0.9165340389214673
  0.3999776275197726  0.3328369016537983  0.9165733865275465
  0.0643896465662945  0.3358820344442286  0.9161696361533961
  0.7321451193824994  0.0021882654804926  0.9170068507031705
  0.4018190163718584 -0.0024726553396329  0.9172853290321155
  0.0666164730587421  0.0027940266868631  0.9164315980545928
  0.6233664985463406  0.8909643338147348  0.8338071637875150
  0.2890398011262760  0.8915687163197747  0.8333470971541727
  0.9520541052036114  0.8913335792032084  0.8341109168016270
  0.6191557347714163  0.5579309127493521  0.8338720906835754
  0.2876699427806588  0.5583950838273333  0.8336978219448246
  0.9558865220580155  0.5549118508741298  0.8335995877039266
  0.6221606557966330  0.2252040124045201  0.8332962138660415
  0.2879148559184622  0.2205896553586216  0.8329210003832733
  0.9578291863872753  0.2211722208790413  0.8337032848979685
  0.8433328778206890  0.7798534456427410  0.7507515218803732
  0.5091121281331128  0.7769917851981952  0.7498224162085578
  0.1760643728442071  0.7762835985061355  0.7500580309535423
  0.8461838503902253  0.4453819901521240  0.7493258838209376
  0.5107938954219940  0.4468257877959937  0.7507859161672773
  0.1783715321439343  0.4434589944366870  0.7499779324915632
  0.8411795102099048  0.1132036794356403  0.7499469554894488
  0.1757824345469704  0.1139737722910232  0.7504118795907783
  0.1763445274554228  0.1126555601595197  0.4993306690333396
  0.6676498084784869  0.6649042543697518  0.4161392753804152
  0.3339907993269139  0.6675618754185384  0.4172648040376266
  0.6640575602283951  0.3334045340431350  0.1661198157772276
  0.3354541490271807  0.3335877657084483  0.1660031314313450
 -0.0019209219373022  0.3352079517534496  0.1663621318390463
  0.6693014376135533 -0.0021561820852807  0.1660640932257715
  0.3330778226742732  0.0002361140767821  0.1658746145178895
  0.0008719828157201 -0.0027636969784673  0.1661954968712644
  0.5590339660460769  0.8869471770256501  0.0833693062286514
  0.2224395933723203  0.8878935427886891  0.0833422322638999
  0.8890439524343909  0.8887628935695794  0.0826311833259099
  0.5566282311154424  0.5555221888429177  0.0834033860081401
  0.2221932853333184  0.5583244284383720  0.0830854469792236
  0.8913362450022138  0.5556249299196334  0.0841222522807427
  0.5553985768633860  0.2194388531000354  0.0831999096383991
  0.2217839757904317  0.2213336598562516  0.0825636816969093
  0.8893407263024887  0.2235895180680005  0.0839072587014392
  0.7783794912555506  0.7756132271895678  0.0002587127144140
  0.4461360380761584  0.7755829202006639 -0.0004586541273882
  0.1090976615655996  0.7776435768392799  0.0007480000174027
  0.7776305372302473  0.4465042915781915 -0.0002814892069297
  0.4470407683319369  0.4419627125968273  0.0000357649778681
  0.1108055724512526  0.4445002105614796 -0.0004786392111553
  0.7782302766744456  0.1082317504884404 -0.0004352036416184
  0.4461535696268976  0.1083444534558184 -0.0002194984267889
 -0.0027046137766627  0.6684181995847119  0.1672106403473406
  0.3333580545569429  0.6660449692843556  0.1665976746461267
  0.6634431134594436  0.6682009278303674  0.1669217199897570
  0.1082146872160755  0.1119832229326537  0.2497759127921997
  0.0004581310938185  0.6687501371442844  0.4166118865681505
  0.6649965734849300  0.3340916608785989  0.4170253784588460
  0.3350523866800976  0.3303304472136944  0.4160703672439653
 -0.0008994819875650  0.3334373209463819  0.4170502084339807
  0.6672315879932180 -0.0007808864408932  0.4167229817382589
  0.3335075534872287  0.0002255893978242  0.4163947601820131
  0.0021214901246039 -0.0019099992219457  0.4170242750177157
  0.5536611234351133  0.8910621698752128  0.3332509699590410
  0.2209407926476527  0.8903647956943321  0.3329039475841122
  0.8883257734563388  0.8890442046154901  0.3333346394803297
  0.5566483790124780  0.5574443135511673  0.3331013356006212
  0.4014823876639848  0.6688806671512499  0.9163900149047298
  0.2224414080293530  0.5537550112476898  0.3328949667242703
  0.5546715440385970  0.2217898868609602  0.3326968752665123
  0.2225066037898020  0.2251015735196372  0.3330919285638492
  0.8896421780087725  0.2216331967886677  0.3329008987000657
  0.7770144294812131  0.7762272421618261  0.2494794519677407
  0.4448301041243649  0.7758564671589783  0.2492979992874014
  0.1093600933197189  0.7766920597404815  0.2501116377735695
  0.7777298064945308  0.4446664886381417  0.2492147878462581
  0.4433890655406085  0.4428383616856758  0.2502707672131476
  0.1098441313497553  0.4460999475316827  0.2497162602819179
  0.7755989457833017  0.1134851422220995  0.2493789921680255
  0.4434328637047665  0.1107104452203396  0.2503666273648045
  0.8866102358025254  0.5570685834233527  0.3325764518117632
  0.7315903046287223  0.6687841220757398  0.9164692284869005
