Cu
 1.0000000000000000
     7.6685730419681093    0.0000000000000000    0.0000000000000000
     3.8342865209840546    6.6411790651208911    0.0000000000000000
     0.0000000000000000    0.0000000000000000   25.0450909090909093
 Cu 
 108
Direct
  0.1125188065904341  0.1097245303008137 -0.0007331200796675
 -0.0023614602878203  0.6671410312489268  0.6661927977590018
  0.6664373807388243  0.3333783245041558  0.6671389804457637
  0.3347875864065793  0.3322372471692968  0.6670131500074077
  0.0007096460429391  0.3333126845529434  0.6661389883618282
  0.6657362988366795 -0.0025879365228226  0.6672654540324237
  0.3334696284037431  0.0025015073741530  0.6660812678172652
  0.0020317471687254 -0.0001668358162210  0.6673353561772430
  0.5579752139863227  0.8864060037915390  0.5831742549146114
  0.2208756950100430  0.8882147118060671  0.5826436979106719
  0.8866578660278623  0.8888887252050542  0.5837316587941845
  0.5556528882739699  0.5561713448627079  0.5840803508626369
  0.2200726667283843  0.5565946881085263  0.5828548560980896
  0.8911129231464412  0.5560968451515127  0.5830538160272478
  0.5574144180217215  0.2192493096565725  0.5837772593025579
  0.2235823858131584  0.2197463705355082  0.5841115259940400
  0.8902186287061390  0.2203799576236625  0.5833833666175559
  0.7759975039141075  0.7802487592838824  0.5001053266242519
  0.4446851764771272  0.7790704309922163  0.4994755060495144
  0.1137540346605914  0.7762548357989605  0.4994342901929221
  0.7788868613314538  0.4470085347846688  0.5004037447636466
  0.4454864698331773  0.4463256489417098  0.5002754016915099
  0.1142469351477284  0.4433358674714249  0.4995005160607794
  0.7797344691560930  0.1111755966817525  0.4997585839633832
  0.3349741939948164  0.6665994860424951  0.6674568544780528
  0.4441405660404011  0.1097248318842310  0.5005872085830506
  0.6636184807926229  0.6694554433919083  0.6671569501216408
  0.4440077352482965  0.1136027816934032  0.7493165783610296
 -0.0026247073359402  0.6680286146504009  0.9163287461683707
  0.6681696121603815  0.3329673075566102  0.9168211344111314
  0.3335445364935978  0.3313518866248288  0.9165069725489295
 -0.0007755867408055  0.3352200109385757  0.9174737655956242
  0.6675619295930988  0.0004157445753925  0.9172005734215203
  0.3351521665312974  0.0005018388819604  0.9159456544370090
  0.0017083091335188  0.0011085407953636  0.9171970983073185
  0.5548978681932978  0.8894086782380062  0.8327428290564372
  0.2200705886698394  0.8887453418677993  0.8332313063377966
  0.8904807281746976  0.8864426073320502  0.8331719586884339
  0.5572275560729616  0.5543143558107226  0.8337729097411485
  0.2244526719278077  0.5554118887289433  0.8339264471692418
  0.8913501629608117  0.5555777021001046  0.8337502214922600
  0.5575773538812995  0.2217651135443094  0.8341115572458365
  0.2223181817424295  0.2241562347537081  0.8341149744653945
  0.8891039227601033  0.2243415802987559  0.8327687679025016
  0.7760373620822691  0.7772173218801233  0.7492128139522037
  0.4439748358516498  0.7772805655388899  0.7500770300901883
  0.1092908090269506  0.7795644435480413  0.7495722101350094
  0.7779941166291041  0.4461860305144468  0.7504887457386108
  0.4429039334920634  0.4467183111911163  0.7493509874288694
  0.1128411923521839  0.4461380623958300  0.7499877912927674
  0.7798810242115141  0.1103992783544582  0.7497322689259138
  0.1100691520468329  0.1129995352063221  0.7501751553824205
  0.1096180766108017  0.1139808564817089  0.5004475740073090
  0.6647278513629933  0.6659485442337674  0.4165605593494858
  0.3367720887304618  0.6644189760437850  0.4172553130412192
  0.6642200819166286  0.3341109552000153  0.1673513042367251
  0.3304345479851151  0.3359961924803089  0.1664536522587575
  0.0010252506004289  0.3321208747309847  0.1669437837752698
  0.6670767320819716 -0.0018158640357953  0.1660154711818805
  0.3356901632726729 -0.0016223492145900  0.1659536119621312
  0.0001983592215498 -0.0021063761701104  0.1665897734630507
  0.5530622946769264  0.8911564635295907  0.0826295241660124
  0.2190506447134366  0.8908924135304719  0.0837930739815478
  0.8917462652786118  0.8872455517417273  0.0835312882872613
  0.5565355659264943  0.5545792905104274  0.0831614463170350
  0.2212650555143427  0.5559863816485031  0.0830500478642118
  0.8876420569379249  0.5579014512498582  0.0840277630214095
  0.5566345047376555  0.2223749319879256  0.0830314773338684
  0.2235396927605115  0.2215531929734596  0.0827517492687202
  0.8908382091707464  0.2233397465814442  0.0835748451370739
  0.7787299440065764  0.7770771645607722  0.0007941036230916
  0.4419708328733801  0.7788054532132422  0.0002350792210873
  0.1102992179207746  0.7773121208331646 -0.0007533297931585
  0.7749922487096836  0.4466318808546884  0.0000662185182710
  0.4477133121558645  0.4416352178289832  0.0003667871636219
  0.1124292926706172  0.4463468388899150 -0.0007941859770201
  0.7776428680606584  0.1124933750659519  0.0000696743192089
  0.4409791894731893  0.1129979461813808  0.0006592199306059
 -0.0016800037630205  0.6694046774279077  0.1666689210248915
  0.3325812943647107  0.6673907155190564  0.1674598156450710
  0.6691287238026157  0.6664260174668838  0.1670807111558302
  0.1110093936834448  0.1112876590397807  0.2504600650147025
  0.0014771084976976  0.6653045537094169  0.4169963781060983
  0.6645169587625191  0.3325205027144422  0.4159997404244716
  0.3352714218248924  0.3328236891162504  0.4171994548928105
 -0.0017222478201215  0.3358025271776335  0.4159429418307249
  0.6661077005035781  0.0020977673082436  0.4161064974752063
  0.3361212159716473 -0.0007865807419300  0.4167567454201031
 -0.0014123664679839  0.0019160511580943  0.4168747644796733
  0.5569889120209038  0.8892531371731960  0.3330002582674580
  0.2208587747270236  0.8894076104229310  0.3334245638348946
  0.8917388985423945  0.8872377930886121  0.3327385438912703
  0.5566063452300876  0.5541031905193801  0.3329256001230632
  0.3306265365608941  0.6688527242629112  0.9167828557905495
  0.2216200346982003  0.5551357429447604  0.3340825316260377
  0.5568626292375832  0.2222990683553379  0.3340235055117046
  0.2191019482079258  0.2235425888057891  0.3325651558581332
  0.8857934596606359  0.2236196017741457  0.3335208425746996
  0.7781532639436139  0.7774329765280954  0.2506920172416591
  0.4447436152374643  0.7803287113131064  0.2496301132603922
  0.1128529100262008  0.7776572445050205  0.2495761987383399
  0.7745223697260354  0.4472911004926463  0.2506264047662885
  0.4448921001105554  0.4473426951035392  0.2507338503717122
  0.1119314286124247  0.4472627764625173  0.2492285591702281
  0.7811910773883496  0.1087918400121495  0.2503693956155080
  0.4432931308807390  0.1125234119660615  0.2503408515161450
  0.8855976527066889  0.5576113187040300  0.3326461270623146
  0.6653847485599513  0.6690687929236929  0.9160187932654088
