Cu
 1.0000000000000000
     7.6685730419681093    0.0000000000000000    0.0000000000000000
     3.8342865209840546    6.6411790651208911    0.0000000000000000
     0.0000000000000000    0.0000000000000000   25.0450909090909093
 Cu 
 108
Direct
  0.1125676331290280  0.1116926586105603 -0.0003372106079793
  0.0181107998253875  0.6641923235012255  0.6659050872615613
  0.6841638996462787  0.3329641837359749  0.6659237097429010
  0.3524559551292455  0.3312824461065235  0.6665283700489614
  0.0144531243032551  0.3342076279411223  0.6665169736213862
  0.6837296949143492  0.0001411568432907  0.6664317482734879
  0.3477924056242336  0.0017432929827828  0.6671164469547913
  0.0138366247366377  0.0027902426303624  0.6660102534049446
  0.5725956632714394  0.8900988159148036  0.5833579649626428
  0.2410530869694555  0.8862467115418651  0.5828285505675294
  0.9051112516664430  0.8892029992975617  0.5828654135340964
  0.5734116533416483  0.5530705353360417  0.5837798889587110
  0.2382969310021817  0.5567117729539407  0.5832586479817675
  0.9030142468836034  0.5573357464096750  0.5830012742483489
  0.5736491656718750  0.2205225098812240  0.5837188466725872
  0.2387224428854480  0.2218948226397760  0.5835218708406377
  0.9064111356414368  0.2213611937711206  0.5837029413271068
  0.7914532691079346  0.7794840551978143  0.5003404134076362
  0.4622536334038169  0.7755984629300526  0.5000438328958948
  0.1281211240233235  0.7804199864727724  0.5005000847525056
  0.7940086288536687  0.4437923238136699  0.5007447065885202
  0.4598950890834022  0.4470546764890252  0.5007208158842241
  0.1309511882344324  0.4430944004968206  0.4992508681644428
  0.7912787628394313  0.1131875137341165  0.5004858128094513
  0.3494891848333871  0.6647548306123887  0.6670455667088068
  0.4627457075526876  0.1086040639847812  0.5005905796875026
  0.6834981732401990  0.6684178650893867  0.6671472100619847
  0.4614137235168095  0.1119983775386244  0.7494822808614240
  0.0161179732531354  0.6662910102353100  0.9163117138175381
  0.6849987448398260  0.3303804673071553  0.9171654693819850
  0.3489431315579347  0.3348750609787076  0.9162801319284847
  0.0179102693177137  0.3322725911428207  0.9166978322020958
  0.6830570983014898  0.0029137929167380  0.9164485883853410
  0.3517332742500644 -0.0003403760616885  0.9163646538810667
  0.0148443073708275  0.0004728913344348  0.9158986850941740
  0.5740010855027861  0.8875075592897078  0.8328792026807106
  0.2408851475895975  0.8883744109062917  0.8325800554424236
  0.9071494892975084  0.8888071861946354  0.8337924587432685
  0.5732584854902990  0.5547044583860062  0.8338167270183987
  0.2385251265107250  0.5529528123053555  0.8339365345957067
  0.9056572467988454  0.5562344955462408  0.8330630413740600
  0.5709328620007149  0.2200602644569896  0.8332644875046799
  0.2361277425706708  0.2249491046663697  0.8339698642138466
  0.9070485162234889  0.2225881571281789  0.8332882559927880
  0.7951958560410102  0.7755117843397871  0.7503842304884611
  0.4605566444702376  0.7784520398347275  0.7507624115394734
  0.1281459071525100  0.7794117806968783  0.7506939728890616
  0.7964467180666261  0.4445517357356117  0.7495592234653184
  0.4618479958424809  0.4462345302540564  0.7492405354621181
  0.1274030350742317  0.4429848741365212  0.7503108643802352
  0.7957057972245295  0.1124988137570408  0.7501882815413226
  0.1302875461469084  0.1108090695644613  0.7506001461683610
  0.1278121736621927  0.1092357526426985  0.5003998623292916
  0.6674444479895343  0.6691944233928090  0.4170092602539963
  0.3321905975264805  0.6695593522561677  0.4172347565044306
  0.6685915038210537  0.3324710532874102  0.1669408051053249
  0.3326238085402639  0.3326969885475566  0.1669991012359472
 -0.0020492780465631  0.3329845782995754  0.1662275016068293
  0.6679556675736085  0.0000094802886514  0.1666152774423087
  0.3316179421225171 -0.0010548431775933  0.1660411886757613
  0.0013712223433734 -0.0018975606700247  0.1670038738490163
  0.5535432116345639  0.8892505633924384  0.0834354297821742
  0.2224419781826087  0.8893837581983779  0.0834896963078221
  0.8895034211684231  0.8864572267507191  0.0840625197053872
  0.5544737293269612  0.5577683169218622  0.0835852163089035
  0.2194263321374558  0.5583019246075434  0.0830805439958783
  0.8865858419811474  0.5557008359225767  0.0834088904418171
  0.5578314363448169  0.2192991029088852  0.0838688315256771
  0.2241344328352671  0.2197070144528395  0.0829745098634944
  0.8887436831622647  0.2215582746536179  0.0827462422263354
  0.7787655252565666  0.7795806196673513  0.0003057375729397
  0.4472615027748678  0.7771367352521078 -0.0002844066134224
  0.1125423723044588  0.7777426140135459  0.0007948455766899
  0.7764685958069293  0.4474305232678410  0.0000031081295795
  0.4448747030412374  0.4449325293341048  0.0001595718274610
  0.1080440969875256  0.4473444052851691 -0.0003437958372979
  0.7780560752491675  0.1135825962330861  0.0003005051141954
  0.4406340201695484  0.1139639442629460  0.0001540768279338
 -0.0004620814949846  0.6676974791718040  0.1663981074863064
  0.3349212770004064  0.6676471673203600  0.1661768509928716
  0.6663076204927697  0.6681688269212696  0.1671161615890426
  0.1114539274034668  0.1097758824534251  0.2501889354458229
 -0.0024891689476801  0.6695096618202170  0.4164811002739049
  0.6673949611437890  0.3356425715801294  0.4165425351851419
  0.3345337124733643  0.3305991750317904  0.4171003751512325
 -0.0014006780743414  0.3328583546281768  0.4172960755240880
  0.6673100697902040 -0.0023622921483796  0.4163245677739399
  0.3329340043203828 -0.0007903010087366  0.4168638245482073
 -0.0020139662051970  0.0027567266531752  0.4173601248464621
  0.5566796936943434  0.8873556069294808  0.3339640049424116
  0.2220067898430776  0.8883139272317598  0.3331679629195945
  0.8872599424511183  0.8902255675498287  0.3325940144212774
  0.5582493744592796  0.5544070382530402  0.3331794796611782
  0.3491121725549284  0.6650147632446406  0.9165879752347232
  0.2224706000231396  0.5562387728783530  0.3336350188402997
  0.5564707500540534  0.2243533769068155  0.3329716039640854
  0.2231430696966022  0.2231708653517893  0.3337594859411342
  0.8899781701832195  0.2241286181005177  0.3339924333646781
  0.7758994877978117  0.7791421977780986  0.2492284687456843
  0.4436526059843411  0.7747690124925258  0.2497505822338171
  0.1141627739706297  0.7764772502951029  0.2497012297297981
  0.7796467323116174  0.4444688155935004  0.2496654454960217
  0.4440088281085326  0.4472929534649618  0.2500176344752851
  0.1140868816449893  0.4436510868244159  0.2504917030064391
  0.7775898930774663  0.1126792186141781  0.2506664587674038
  0.4456218427650149  0.1111546885928148  0.2494999122088732
  0.8897646322367424  0.5585227763974935  0.3336474844054720
  0.6848602767297164  0.6676351618050363  0.9164928890322214
