Cu
 1.0000000000000000
     7.6685730419681093    0.0000000000000000    0.0000000000000000
     3.8342865209840546    6.6411790651208911    0.0000000000000000
     0.0000000000000000    0.0000000000000000   25.0450909090909093
 Cu 
 108
Direct
  0.1110319544213727  0.1120532607370076 -0.0007553772478248
  0.3309172272384790  0.6679530590080677  0.6660221001266992
 -0.0025860556355293  0.3361284727952145  0.6665558165538925
  0.6632019709746756  0.3354016249701237  0.6668245714419551
  0.3305013349851954  0.3358684796685321  0.6669881151917940
 -0.0014973139024638 -0.0003793574121430  0.6667458668945890
  0.6697768766325930 -0.0010676349584704  0.6661337206770321
  0.3310523914132192  0.0014207943312301  0.6660449455980416
  0.8893520197060929  0.8908193921307813  0.5831101302891170
  0.5540704680878821  0.8878537416444049  0.5838445418135169
  0.2234049926229718  0.8892321747360995  0.5828736170502813
  0.8882977084664408  0.5545891784558313  0.5834889058024377
  0.5563178725944671  0.5567323248677987  0.5833396817815719
  0.2237735972762904  0.5554178679313476  0.5840538001761491
  0.8896857836092519  0.2205060049913899  0.5836302030664117
  0.5551189154392280  0.2229860023896109  0.5827513979543636
  0.2237068005221502  0.2211475195208562  0.5826220758552150
  0.1122523281559430  0.7794589253722932  0.5001604653613136
  0.7760475646352052  0.7762761984032139  0.4997381718333610
  0.4434156641182408  0.7761726394674168  0.5005152500772206
  0.1116285426579596  0.4426716762068703  0.5006215747753250
  0.7810242433845931  0.4417854618174818  0.4994645923801098
  0.4458784657576949  0.4435493275185763  0.4999146347124140
  0.1112506843759942  0.1086581863098214  0.4997207844903545
  0.6662689742407870  0.6694643979954448  0.6666396528581191
  0.7788742824424091  0.1114371965124936  0.4995513525480220
 -0.0014004946815452  0.6657722193327368  0.6669127346035540
  0.7780801544938278  0.1123211069881181  0.7497386418709732
  0.3318573758619659  0.6666912859310661  0.9159190368381175
 -0.0001826912615483  0.3312851605672752  0.9173820803006382
  0.6677285917891970  0.3333386532334275  0.9168050423173080
  0.3357062956813234  0.3333255460821318  0.9171375948312583
  0.0022858352182255  0.0000995476345832  0.9171645296358824
  0.6655011058290565  0.0005288320366797  0.9163709004432032
  0.3318965572162454 -0.0006205893541830  0.9167638324146379
  0.8897857721617710  0.8873686406525457  0.8331133617043222
  0.5536248397388882  0.8884742437541245  0.8330394750696196
  0.2199305526825315  0.8885699155329406  0.8332121584123483
  0.8881251936278384  0.5565942102518540  0.8335011385527078
  0.5518835155683407  0.5582286310557258  0.8329207579159205
  0.2198767520240330  0.5583094342159728  0.8331360300216960
  0.8875855295455536  0.2251176153165054  0.8335031126776360
  0.5537559679235826  0.2229482911823407  0.8335137100187098
  0.2231314700610825  0.2248266712653515  0.8340017415519345
  0.1109762214212216  0.7778697709088864  0.7498469586717516
  0.7739887779553527  0.7805629979405089  0.7501439589493497
  0.4462335723017595  0.7774967476290373  0.7506792157842510
  0.1111730565795988  0.4445614556736720  0.7503567021148028
  0.7754608945159349  0.4450320637908164  0.7507260474650559
  0.4449783579807512  0.4450906670627691  0.7500584384845348
  0.1115004083309356  0.1140042812913067  0.7499813195673488
  0.4463708046312611  0.1112737981853984  0.7492150012522911
  0.4431463822106870  0.1113018656892237  0.4997656049484314
  0.6705242071592442  0.6638381995411071  0.4168009324602069
  0.3309342623578554  0.6666671567665620  0.4168079831752338
  0.6652853473402462  0.3345806990923070  0.1659645947618301
  0.3300470730476409  0.3351123579442020  0.1660574667308732
 -0.0003133675697219  0.3340947251696027  0.1664007477876646
  0.6644377199779942  0.0002867431689439  0.1664302077918791
  0.3346493368770620  0.0006936074614785  0.1662146877719019
  0.0015179934965669 -0.0009092206195832  0.1666637399827286
  0.5579255722079312  0.8883786869766856  0.0829502050917331
  0.2186176166179163  0.8912657522961970  0.0832572053502788
  0.8882060213920453  0.8904398503366756  0.0837152375104001
  0.5544545360647449  0.5551650469711121  0.0833712821771523
  0.2226202507846635  0.5583170113233974  0.0840118095682454
  0.8883547615078775  0.5530650814667514  0.0837833859279731
  0.5537806517306867  0.2231825458004684  0.0827940923845076
  0.2232744210162229  0.2212093648225731  0.0831727214369897
  0.8899044202372985  0.2201213605021140  0.0834479788571137
  0.7782814177033794  0.7775112167234158 -0.0003177856448133
  0.4421209473126493  0.7799943744249203  0.0003120230128964
  0.1082797089605214  0.7794510995991399 -0.0000116332194207
  0.7774859279334357  0.4436432408351831 -0.0006968247171985
  0.4423774400412290  0.4459039140733562 -0.0007949602456931
  0.1100150010708436  0.4420676580603274  0.0000689854120934
  0.7804554784895970  0.1105697279428696  0.0000563223982883
  0.4440354477246812  0.1119975107960538 -0.0003688537892463
 -0.0015050377664837  0.6691230982157130  0.1670991338272274
  0.3345318669636874  0.6638669223336897  0.1672423819013243
  0.6671697774926004  0.6679481780404144  0.1670581505485151
  0.1095721637325579  0.1115199066541307  0.2502333308267820
 -0.0000380687920311  0.6686854786229165  0.4172246401684638
  0.6646595412657509  0.3344078418472604  0.4162705338038449
  0.3340861931248391  0.3331066897298492  0.4163547798590400
  0.0007428967789654  0.3336710157948704  0.4174463022339724
  0.6668092996492037  0.0018774778699052  0.4159126513173724
  0.3328913705435532  0.0018382100103450  0.4158881127620284
 -0.0000887063963928  0.0019472548732306  0.4160117558203528
  0.5536964699739163  0.8879136980495761  0.3331831744013865
  0.2191655142292628  0.8900032873365302  0.3331810215298761
  0.8876674947347668  0.8866171495781369  0.3325484819062453
  0.5572744670907896  0.5553857355834901  0.3336734995534633
  0.6653824882951863  0.6643098764355780  0.9171489203254223
  0.2232923771051994  0.5560532474782145  0.3329771512030852
  0.5552209786031282  0.2201797641453519  0.3331933231670641
  0.2239767846375940  0.2214022097377625  0.3339512884298260
  0.8899952892544737  0.2227132226280026  0.3338707452457363
  0.7789132433630805  0.7752932498777815  0.2501277820136326
  0.4440324331535206  0.7772614830233159  0.2505022821529989
  0.1133411726474837  0.7763731716183053  0.2503493430481584
  0.7807197961970460  0.4431852468716858  0.2502979283113490
  0.4446074312349046  0.4454380154353806  0.2501176511009182
  0.1081131608535693  0.4471981048283717  0.2498465815076637
  0.7765318126487710  0.1084875941537462  0.2507166390774642
  0.4463660873745114  0.1089616148052401  0.2502190517408711
  0.8893883235957509  0.5569367012241313  0.3333300104713614
  0.0010065721542615  0.6688963250525638  0.9170612644517513
