Cu
 1.0000000000000000
     7.6685730419681093    0.0000000000000000    0.0000000000000000
     3.8342865209840546    6.6411790651208911    0.0000000000000000
     0.0000000000000000    0.0000000000000000  384.0303050541715493
 Cu 
 1656
Direct
  0.0000000000000000  0.0000000000000000  0.0000000000000000
  0.7777777777777778  0.1111111111111111  0.6684782608695654
  0.4444444444444444  0.1111111111111111  0.6684782608695654
  0.1111111111111111  0.1111111111111111  0.6684782608695654
  0.6666666666666666  0.6666666666666666  0.6630434782608696
  0.3333333333333333  0.6666666666666666  0.6630434782608696
  0.0000000000000000  0.6666666666666666  0.6630434782608696
  0.6666666666666666  0.3333333333333333  0.6630434782608696
  0.3333333333333333  0.3333333333333333  0.6630434782608696
  0.0000000000000000  0.3333333333333333  0.6630434782608696
  0.6666666666666666  0.0000000000000000  0.6630434782608696
  0.3333333333333333  0.0000000000000000  0.6630434782608696
  0.0000000000000000  0.0000000000000000  0.6630434782608696
  0.8888888888888888  0.8888888888888887  0.6576086956521739
  0.5555555555555556  0.8888888888888887  0.6576086956521739
  0.2222222222222223  0.8888888888888887  0.6576086956521739
  0.8888888888888887  0.5555555555555556  0.6576086956521739
  0.5555555555555555  0.5555555555555556  0.6576086956521739
  0.2222222222222222  0.5555555555555556  0.6576086956521739
  0.8888888888888887  0.2222222222222222  0.6576086956521739
  0.5555555555555556  0.2222222222222222  0.6576086956521739
  0.2222222222222222  0.2222222222222222  0.6576086956521739
  0.1111111111111111  0.4444444444444444  0.6684782608695654
  0.4444444444444444  0.4444444444444444  0.6684782608695654
  0.7777777777777778  0.4444444444444444  0.6684782608695654
  0.1111111111111111  0.7777777777777777  0.6684782608695654
  0.4444444444444444  0.1111111111111111  0.6847826086956521
  0.1111111111111111  0.1111111111111111  0.6847826086956521
  0.6666666666666666  0.6666666666666666  0.6793478260869564
  0.3333333333333333  0.6666666666666666  0.6793478260869564
  0.0000000000000000  0.6666666666666666  0.6793478260869564
  0.6666666666666666  0.3333333333333333  0.6793478260869564
  0.3333333333333333  0.3333333333333333  0.6793478260869564
  0.0000000000000000  0.3333333333333333  0.6793478260869564
  0.6666666666666666  0.0000000000000000  0.6793478260869564
  0.3333333333333333  0.0000000000000000  0.6793478260869564
  0.7777777777777778  0.7777777777777777  0.6521739130434783
  0.0000000000000000  0.0000000000000000  0.6793478260869564
  0.5555555555555556  0.8888888888888887  0.6739130434782611
  0.2222222222222223  0.8888888888888887  0.6739130434782611
  0.8888888888888887  0.5555555555555556  0.6739130434782611
  0.5555555555555555  0.5555555555555556  0.6739130434782611
  0.2222222222222222  0.5555555555555556  0.6739130434782611
  0.8888888888888887  0.2222222222222222  0.6739130434782611
  0.5555555555555556  0.2222222222222222  0.6739130434782611
  0.2222222222222222  0.2222222222222222  0.6739130434782611
  0.7777777777777778  0.7777777777777777  0.6684782608695654
  0.4444444444444444  0.7777777777777777  0.6684782608695654
  0.8888888888888888  0.8888888888888887  0.6739130434782611
  0.4444444444444444  0.7777777777777777  0.6521739130434783
  0.1111111111111111  0.7777777777777777  0.6521739130434783
  0.7777777777777778  0.4444444444444444  0.6521739130434783
  0.7777777777777778  0.4444444444444444  0.6358695652173912
  0.4444444444444444  0.4444444444444444  0.6358695652173912
  0.1111111111111111  0.4444444444444444  0.6358695652173912
  0.7777777777777778  0.1111111111111111  0.6358695652173912
  0.4444444444444444  0.1111111111111111  0.6358695652173912
  0.1111111111111111  0.1111111111111111  0.6358695652173912
  0.6666666666666666  0.6666666666666666  0.6304347826086957
  0.3333333333333333  0.6666666666666666  0.6304347826086957
  0.0000000000000000  0.6666666666666666  0.6304347826086957
  0.6666666666666666  0.3333333333333333  0.6304347826086957
  0.1111111111111111  0.7777777777777777  0.6358695652173912
  0.3333333333333333  0.3333333333333333  0.6304347826086957
  0.6666666666666666  0.0000000000000000  0.6304347826086957
  0.3333333333333333  0.0000000000000000  0.6304347826086957
  0.0000000000000000  0.0000000000000000  0.6304347826086957
  0.8888888888888888  0.8888888888888887  0.6250000000000000
  0.5555555555555556  0.8888888888888887  0.6250000000000000
  0.2222222222222223  0.8888888888888887  0.6250000000000000
  0.8888888888888887  0.5555555555555556  0.6250000000000000
  0.5555555555555555  0.5555555555555556  0.6250000000000000
  0.2222222222222222  0.5555555555555556  0.6250000000000000
  0.8888888888888887  0.2222222222222222  0.6250000000000000
  0.0000000000000000  0.3333333333333333  0.6304347826086957
  0.7777777777777778  0.1111111111111111  0.6847826086956521
  0.4444444444444444  0.7777777777777777  0.6358695652173912
  0.2222222222222222  0.2222222222222222  0.6413043478260869
  0.4444444444444444  0.4444444444444444  0.6521739130434783
  0.1111111111111111  0.4444444444444444  0.6521739130434783
  0.7777777777777778  0.1111111111111111  0.6521739130434783
  0.4444444444444444  0.1111111111111111  0.6521739130434783
  0.1111111111111111  0.1111111111111111  0.6521739130434783
  0.6666666666666666  0.6666666666666666  0.6467391304347826
  0.3333333333333333  0.6666666666666666  0.6467391304347826
  0.0000000000000000  0.6666666666666666  0.6467391304347826
  0.6666666666666666  0.3333333333333333  0.6467391304347826
  0.3333333333333333  0.3333333333333333  0.6467391304347826
  0.7777777777777778  0.7777777777777777  0.6358695652173912
  0.0000000000000000  0.3333333333333333  0.6467391304347826
  0.3333333333333333  0.0000000000000000  0.6467391304347826
  0.0000000000000000  0.0000000000000000  0.6467391304347826
  0.8888888888888888  0.8888888888888887  0.6413043478260869
  0.5555555555555556  0.8888888888888887  0.6413043478260869
  0.2222222222222223  0.8888888888888887  0.6413043478260869
  0.8888888888888887  0.5555555555555556  0.6413043478260869
  0.5555555555555555  0.5555555555555556  0.6413043478260869
  0.2222222222222222  0.5555555555555556  0.6413043478260869
  0.8888888888888887  0.2222222222222222  0.6413043478260869
  0.5555555555555556  0.2222222222222222  0.6413043478260869
  0.6666666666666666  0.0000000000000000  0.6467391304347826
  0.1111111111111111  0.4444444444444444  0.6847826086956521
  0.4444444444444444  0.4444444444444444  0.6847826086956521
  0.7777777777777778  0.4444444444444444  0.6847826086956521
  0.3333333333333333  0.6666666666666666  0.7282608695652173
  0.0000000000000000  0.6666666666666666  0.7282608695652173
  0.6666666666666666  0.3333333333333333  0.7282608695652173
  0.3333333333333333  0.3333333333333333  0.7282608695652173
  0.0000000000000000  0.3333333333333333  0.7282608695652173
  0.6666666666666666  0.0000000000000000  0.7282608695652173
  0.3333333333333333  0.0000000000000000  0.7282608695652173
  0.0000000000000000  0.0000000000000000  0.7282608695652173
  0.8888888888888888  0.8888888888888887  0.7228260869565216
  0.5555555555555556  0.8888888888888887  0.7228260869565216
  0.6666666666666666  0.6666666666666666  0.7282608695652173
  0.2222222222222223  0.8888888888888887  0.7228260869565216
  0.5555555555555555  0.5555555555555556  0.7228260869565216
  0.2222222222222222  0.5555555555555556  0.7228260869565216
  0.8888888888888887  0.2222222222222222  0.7228260869565216
  0.5555555555555556  0.2222222222222222  0.7228260869565216
  0.2222222222222222  0.2222222222222222  0.7228260869565216
  0.7777777777777778  0.7777777777777777  0.7173913043478262
  0.4444444444444444  0.7777777777777777  0.7173913043478262
  0.1111111111111111  0.7777777777777777  0.7173913043478262
  0.7777777777777778  0.4444444444444444  0.7173913043478262
  0.4444444444444444  0.4444444444444444  0.7173913043478262
  0.8888888888888887  0.5555555555555556  0.7228260869565216
  0.1111111111111111  0.4444444444444444  0.7173913043478262
  0.1111111111111111  0.1111111111111111  0.7336956521739130
  0.7777777777777778  0.1111111111111111  0.7336956521739130
  0.0000000000000000  0.6666666666666666  0.7445652173913043
  0.6666666666666666  0.3333333333333333  0.7445652173913043
  0.3333333333333333  0.3333333333333333  0.7445652173913043
  0.0000000000000000  0.3333333333333333  0.7445652173913043
  0.6666666666666666  0.0000000000000000  0.7445652173913043
  0.3333333333333333  0.0000000000000000  0.7445652173913043
  0.0000000000000000  0.0000000000000000  0.7445652173913043
  0.8888888888888888  0.8888888888888887  0.7391304347826086
  0.5555555555555556  0.8888888888888887  0.7391304347826086
  0.2222222222222223  0.8888888888888887  0.7391304347826086
  0.4444444444444444  0.1111111111111111  0.7336956521739130
  0.8888888888888887  0.5555555555555556  0.7391304347826086
  0.2222222222222222  0.5555555555555556  0.7391304347826086
  0.8888888888888887  0.2222222222222222  0.7391304347826086
  0.5555555555555556  0.2222222222222222  0.7391304347826086
  0.2222222222222222  0.2222222222222222  0.7391304347826086
  0.7777777777777778  0.7777777777777777  0.7336956521739130
  0.4444444444444444  0.7777777777777777  0.7336956521739130
  0.1111111111111111  0.7777777777777777  0.7336956521739130
  0.7777777777777778  0.4444444444444444  0.7336956521739130
  0.4444444444444444  0.4444444444444444  0.7336956521739130
  0.1111111111111111  0.4444444444444444  0.7336956521739130
  0.5555555555555555  0.5555555555555556  0.7391304347826086
  0.5555555555555556  0.2222222222222222  0.6250000000000000
  0.7777777777777778  0.1111111111111111  0.7173913043478262
  0.1111111111111111  0.1111111111111111  0.7173913043478262
  0.1111111111111111  0.1111111111111111  0.7010869565217391
  0.6666666666666666  0.6666666666666666  0.6956521739130435
  0.3333333333333333  0.6666666666666666  0.6956521739130435
  0.0000000000000000  0.6666666666666666  0.6956521739130435
  0.6666666666666666  0.3333333333333333  0.6956521739130435
  0.3333333333333333  0.3333333333333333  0.6956521739130435
  0.0000000000000000  0.3333333333333333  0.6956521739130435
  0.6666666666666666  0.0000000000000000  0.6956521739130435
  0.3333333333333333  0.0000000000000000  0.6956521739130435
  0.0000000000000000  0.0000000000000000  0.6956521739130435
  0.4444444444444444  0.1111111111111111  0.7010869565217391
  0.8888888888888888  0.8888888888888887  0.6902173913043478
  0.2222222222222223  0.8888888888888887  0.6902173913043478
  0.8888888888888887  0.5555555555555556  0.6902173913043478
  0.5555555555555555  0.5555555555555556  0.6902173913043478
  0.2222222222222222  0.5555555555555556  0.6902173913043478
  0.8888888888888887  0.2222222222222222  0.6902173913043478
  0.5555555555555556  0.2222222222222222  0.6902173913043478
  0.2222222222222222  0.2222222222222222  0.6902173913043478
  0.7777777777777778  0.7777777777777777  0.6847826086956521
  0.4444444444444444  0.7777777777777777  0.6847826086956521
  0.1111111111111111  0.7777777777777777  0.6847826086956521
  0.5555555555555556  0.8888888888888887  0.6902173913043478
  0.4444444444444444  0.1111111111111111  0.7173913043478262
  0.7777777777777778  0.1111111111111111  0.7010869565217391
  0.4444444444444444  0.4444444444444444  0.7010869565217391
  0.6666666666666666  0.6666666666666666  0.7119565217391305
  0.3333333333333333  0.6666666666666666  0.7119565217391305
  0.0000000000000000  0.6666666666666666  0.7119565217391305
  0.6666666666666666  0.3333333333333333  0.7119565217391305
  0.3333333333333333  0.3333333333333333  0.7119565217391305
  0.0000000000000000  0.3333333333333333  0.7119565217391305
  0.6666666666666666  0.0000000000000000  0.7119565217391305
  0.3333333333333333  0.0000000000000000  0.7119565217391305
  0.0000000000000000  0.0000000000000000  0.7119565217391305
  0.8888888888888888  0.8888888888888887  0.7065217391304348
  0.1111111111111111  0.4444444444444444  0.7010869565217391
  0.5555555555555556  0.8888888888888887  0.7065217391304348
  0.8888888888888887  0.5555555555555556  0.7065217391304348
  0.5555555555555555  0.5555555555555556  0.7065217391304348
  0.2222222222222222  0.5555555555555556  0.7065217391304348
  0.8888888888888887  0.2222222222222222  0.7065217391304348
  0.5555555555555556  0.2222222222222222  0.7065217391304348
  0.2222222222222222  0.2222222222222222  0.7065217391304348
  0.7777777777777778  0.7777777777777777  0.7010869565217391
  0.4444444444444444  0.7777777777777777  0.7010869565217391
  0.1111111111111111  0.7777777777777777  0.7010869565217391
  0.7777777777777778  0.4444444444444444  0.7010869565217391
  0.2222222222222223  0.8888888888888887  0.7065217391304348
  0.3333333333333333  0.6666666666666666  0.7445652173913043
  0.2222222222222222  0.2222222222222222  0.6250000000000000
  0.4444444444444444  0.7777777777777777  0.6195652173913043
  0.8888888888888887  0.2222222222222222  0.5434782608695653
  0.5555555555555556  0.2222222222222222  0.5434782608695653
  0.2222222222222222  0.2222222222222222  0.5434782608695653
  0.7777777777777778  0.7777777777777777  0.5380434782608696
  0.4444444444444444  0.7777777777777777  0.5380434782608696
  0.1111111111111111  0.7777777777777777  0.5380434782608696
  0.7777777777777778  0.4444444444444444  0.5380434782608696
  0.4444444444444444  0.4444444444444444  0.5380434782608696
  0.1111111111111111  0.4444444444444444  0.5380434782608696
  0.7777777777777778  0.1111111111111111  0.5380434782608696
  0.4444444444444444  0.1111111111111111  0.5380434782608696
  0.1111111111111111  0.1111111111111111  0.5380434782608696
  0.6666666666666666  0.6666666666666666  0.5326086956521739
  0.3333333333333333  0.6666666666666666  0.5326086956521739
  0.0000000000000000  0.6666666666666666  0.5326086956521739
  0.6666666666666666  0.3333333333333333  0.5326086956521739
  0.3333333333333333  0.3333333333333333  0.5326086956521739
  0.0000000000000000  0.3333333333333333  0.5326086956521739
  0.6666666666666666  0.0000000000000000  0.5326086956521739
  0.3333333333333333  0.0000000000000000  0.5326086956521739
  0.0000000000000000  0.0000000000000000  0.5326086956521739
  0.2222222222222222  0.5555555555555556  0.5434782608695653
  0.5555555555555555  0.5555555555555556  0.5434782608695653
  0.8888888888888887  0.5555555555555556  0.5434782608695653
  0.2222222222222223  0.8888888888888887  0.5434782608695653
  0.5555555555555556  0.2222222222222222  0.5597826086956522
  0.2222222222222222  0.2222222222222222  0.5597826086956522
  0.7777777777777778  0.7777777777777777  0.5543478260869565
  0.4444444444444444  0.7777777777777777  0.5543478260869565
  0.1111111111111111  0.7777777777777777  0.5543478260869565
  0.7777777777777778  0.4444444444444444  0.5543478260869565
  0.4444444444444444  0.4444444444444444  0.5543478260869565
  0.1111111111111111  0.4444444444444444  0.5543478260869565
  0.7777777777777778  0.1111111111111111  0.5543478260869565
  0.4444444444444444  0.1111111111111111  0.5543478260869565
  0.8888888888888888  0.8888888888888887  0.5271739130434783
  0.1111111111111111  0.1111111111111111  0.5543478260869565
  0.3333333333333333  0.6666666666666666  0.5489130434782609
  0.0000000000000000  0.6666666666666666  0.5489130434782609
  0.6666666666666666  0.3333333333333333  0.5489130434782609
  0.3333333333333333  0.3333333333333333  0.5489130434782609
  0.0000000000000000  0.3333333333333333  0.5489130434782609
  0.6666666666666666  0.0000000000000000  0.5489130434782609
  0.3333333333333333  0.0000000000000000  0.5489130434782609
  0.0000000000000000  0.0000000000000000  0.5489130434782609
  0.8888888888888888  0.8888888888888887  0.5434782608695653
  0.5555555555555556  0.8888888888888887  0.5434782608695653
  0.6666666666666666  0.6666666666666666  0.5489130434782609
  0.5555555555555556  0.8888888888888887  0.5271739130434783
  0.2222222222222223  0.8888888888888887  0.5271739130434783
  0.8888888888888887  0.5555555555555556  0.5271739130434783
  0.8888888888888887  0.5555555555555556  0.5108695652173912
  0.5555555555555555  0.5555555555555556  0.5108695652173912
  0.2222222222222222  0.5555555555555556  0.5108695652173912
  0.8888888888888887  0.2222222222222222  0.5108695652173912
  0.5555555555555556  0.2222222222222222  0.5108695652173912
  0.2222222222222222  0.2222222222222222  0.5108695652173912
  0.7777777777777778  0.7777777777777777  0.5054347826086956
  0.4444444444444444  0.7777777777777777  0.5054347826086956
  0.1111111111111111  0.7777777777777777  0.5054347826086956
  0.7777777777777778  0.4444444444444444  0.5054347826086956
  0.2222222222222223  0.8888888888888887  0.5108695652173912
  0.4444444444444444  0.4444444444444444  0.5054347826086956
  0.7777777777777778  0.1111111111111111  0.5054347826086956
  0.4444444444444444  0.1111111111111111  0.5054347826086956
  0.1111111111111111  0.1111111111111111  0.5054347826086956
  0.6666666666666666  0.6666666666666666  0.4999999999999999
  0.3333333333333333  0.6666666666666666  0.4999999999999999
  0.0000000000000000  0.6666666666666666  0.4999999999999999
  0.6666666666666666  0.3333333333333333  0.4999999999999999
  0.3333333333333333  0.3333333333333333  0.4999999999999999
  0.0000000000000000  0.3333333333333333  0.4999999999999999
  0.6666666666666666  0.0000000000000000  0.4999999999999999
  0.1111111111111111  0.4444444444444444  0.5054347826086956
  0.8888888888888887  0.2222222222222222  0.5597826086956522
  0.5555555555555556  0.8888888888888887  0.5108695652173912
  0.0000000000000000  0.0000000000000000  0.5163043478260869
  0.5555555555555555  0.5555555555555556  0.5271739130434783
  0.2222222222222222  0.5555555555555556  0.5271739130434783
  0.8888888888888887  0.2222222222222222  0.5271739130434783
  0.5555555555555556  0.2222222222222222  0.5271739130434783
  0.2222222222222222  0.2222222222222222  0.5271739130434783
  0.7777777777777778  0.7777777777777777  0.5217391304347826
  0.4444444444444444  0.7777777777777777  0.5217391304347826
  0.1111111111111111  0.7777777777777777  0.5217391304347826
  0.7777777777777778  0.4444444444444444  0.5217391304347826
  0.4444444444444444  0.4444444444444444  0.5217391304347826
  0.8888888888888888  0.8888888888888887  0.5108695652173912
  0.1111111111111111  0.4444444444444444  0.5217391304347826
  0.4444444444444444  0.1111111111111111  0.5217391304347826
  0.1111111111111111  0.1111111111111111  0.5217391304347826
  0.6666666666666666  0.6666666666666666  0.5163043478260869
  0.3333333333333333  0.6666666666666666  0.5163043478260869
  0.0000000000000000  0.6666666666666666  0.5163043478260869
  0.6666666666666666  0.3333333333333333  0.5163043478260869
  0.3333333333333333  0.3333333333333333  0.5163043478260869
  0.0000000000000000  0.3333333333333333  0.5163043478260869
  0.6666666666666666  0.0000000000000000  0.5163043478260869
  0.3333333333333333  0.0000000000000000  0.5163043478260869
  0.7777777777777778  0.1111111111111111  0.5217391304347826
  0.2222222222222222  0.5555555555555556  0.5597826086956522
  0.5555555555555555  0.5555555555555556  0.5597826086956522
  0.8888888888888887  0.5555555555555556  0.5597826086956522
  0.4444444444444444  0.7777777777777777  0.6032608695652174
  0.1111111111111111  0.7777777777777777  0.6032608695652174
  0.7777777777777778  0.4444444444444444  0.6032608695652174
  0.4444444444444444  0.4444444444444444  0.6032608695652174
  0.1111111111111111  0.4444444444444444  0.6032608695652174
  0.7777777777777778  0.1111111111111111  0.6032608695652174
  0.4444444444444444  0.1111111111111111  0.6032608695652174
  0.1111111111111111  0.1111111111111111  0.6032608695652174
  0.6666666666666666  0.6666666666666666  0.5978260869565217
  0.3333333333333333  0.6666666666666666  0.5978260869565217
  0.7777777777777778  0.7777777777777777  0.6032608695652174
  0.0000000000000000  0.6666666666666666  0.5978260869565217
  0.3333333333333333  0.3333333333333333  0.5978260869565217
  0.0000000000000000  0.3333333333333333  0.5978260869565217
  0.6666666666666666  0.0000000000000000  0.5978260869565217
  0.3333333333333333  0.0000000000000000  0.5978260869565217
  0.0000000000000000  0.0000000000000000  0.5978260869565217
  0.8888888888888888  0.8888888888888887  0.5923913043478261
  0.5555555555555556  0.8888888888888887  0.5923913043478261
  0.2222222222222223  0.8888888888888887  0.5923913043478261
  0.8888888888888887  0.5555555555555556  0.5923913043478261
  0.5555555555555555  0.5555555555555556  0.5923913043478261
  0.6666666666666666  0.3333333333333333  0.5978260869565217
  0.2222222222222222  0.5555555555555556  0.5923913043478261
  0.2222222222222222  0.2222222222222222  0.6086956521739130
  0.8888888888888887  0.2222222222222222  0.6086956521739130
  0.1111111111111111  0.7777777777777777  0.6195652173913043
  0.7777777777777778  0.4444444444444444  0.6195652173913043
  0.4444444444444444  0.4444444444444444  0.6195652173913043
  0.1111111111111111  0.4444444444444444  0.6195652173913043
  0.7777777777777778  0.1111111111111111  0.6195652173913043
  0.4444444444444444  0.1111111111111111  0.6195652173913043
  0.1111111111111111  0.1111111111111111  0.6195652173913043
  0.6666666666666666  0.6666666666666666  0.6141304347826086
  0.3333333333333333  0.6666666666666666  0.6141304347826086
  0.0000000000000000  0.6666666666666666  0.6141304347826086
  0.5555555555555556  0.2222222222222222  0.6086956521739130
  0.6666666666666666  0.3333333333333333  0.6141304347826086
  0.0000000000000000  0.3333333333333333  0.6141304347826086
  0.6666666666666666  0.0000000000000000  0.6141304347826086
  0.3333333333333333  0.0000000000000000  0.6141304347826086
  0.0000000000000000  0.0000000000000000  0.6141304347826086
  0.8888888888888888  0.8888888888888887  0.6086956521739130
  0.5555555555555556  0.8888888888888887  0.6086956521739130
  0.2222222222222223  0.8888888888888887  0.6086956521739130
  0.8888888888888887  0.5555555555555556  0.6086956521739130
  0.5555555555555555  0.5555555555555556  0.6086956521739130
  0.2222222222222222  0.5555555555555556  0.6086956521739130
  0.3333333333333333  0.3333333333333333  0.6141304347826086
  0.7777777777777778  0.7777777777777777  0.6195652173913043
  0.8888888888888887  0.2222222222222222  0.5923913043478261
  0.2222222222222222  0.2222222222222222  0.5923913043478261
  0.2222222222222222  0.2222222222222222  0.5760869565217391
  0.7777777777777778  0.7777777777777777  0.5706521739130435
  0.4444444444444444  0.7777777777777777  0.5706521739130435
  0.1111111111111111  0.7777777777777777  0.5706521739130435
  0.7777777777777778  0.4444444444444444  0.5706521739130435
  0.4444444444444444  0.4444444444444444  0.5706521739130435
  0.1111111111111111  0.4444444444444444  0.5706521739130435
  0.7777777777777778  0.1111111111111111  0.5706521739130435
  0.4444444444444444  0.1111111111111111  0.5706521739130435
  0.1111111111111111  0.1111111111111111  0.5706521739130435
  0.5555555555555556  0.2222222222222222  0.5760869565217391
  0.6666666666666666  0.6666666666666666  0.5652173913043478
  0.0000000000000000  0.6666666666666666  0.5652173913043478
  0.6666666666666666  0.3333333333333333  0.5652173913043478
  0.3333333333333333  0.3333333333333333  0.5652173913043478
  0.0000000000000000  0.3333333333333333  0.5652173913043478
  0.6666666666666666  0.0000000000000000  0.5652173913043478
  0.3333333333333333  0.0000000000000000  0.5652173913043478
  0.0000000000000000  0.0000000000000000  0.5652173913043478
  0.8888888888888888  0.8888888888888887  0.5597826086956522
  0.5555555555555556  0.8888888888888887  0.5597826086956522
  0.2222222222222223  0.8888888888888887  0.5597826086956522
  0.3333333333333333  0.6666666666666666  0.5652173913043478
  0.5555555555555556  0.2222222222222222  0.5923913043478261
  0.8888888888888887  0.2222222222222222  0.5760869565217391
  0.5555555555555555  0.5555555555555556  0.5760869565217391
  0.7777777777777778  0.7777777777777777  0.5869565217391304
  0.4444444444444444  0.7777777777777777  0.5869565217391304
  0.1111111111111111  0.7777777777777777  0.5869565217391304
  0.7777777777777778  0.4444444444444444  0.5869565217391304
  0.4444444444444444  0.4444444444444444  0.5869565217391304
  0.1111111111111111  0.4444444444444444  0.5869565217391304
  0.7777777777777778  0.1111111111111111  0.5869565217391304
  0.4444444444444444  0.1111111111111111  0.5869565217391304
  0.1111111111111111  0.1111111111111111  0.5869565217391304
  0.6666666666666666  0.6666666666666666  0.5815217391304348
  0.2222222222222222  0.5555555555555556  0.5760869565217391
  0.3333333333333333  0.6666666666666666  0.5815217391304348
  0.6666666666666666  0.3333333333333333  0.5815217391304348
  0.3333333333333333  0.3333333333333333  0.5815217391304348
  0.0000000000000000  0.3333333333333333  0.5815217391304348
  0.6666666666666666  0.0000000000000000  0.5815217391304348
  0.3333333333333333  0.0000000000000000  0.5815217391304348
  0.0000000000000000  0.0000000000000000  0.5815217391304348
  0.8888888888888888  0.8888888888888887  0.5760869565217391
  0.5555555555555556  0.8888888888888887  0.5760869565217391
  0.2222222222222223  0.8888888888888887  0.5760869565217391
  0.8888888888888887  0.5555555555555556  0.5760869565217391
  0.0000000000000000  0.6666666666666666  0.5815217391304348
  0.3333333333333333  0.0000000000000000  0.4999999999999999
  0.6666666666666666  0.6666666666666666  0.7445652173913043
  0.5555555555555556  0.2222222222222222  0.7500000000000000
  0.7777777777777778  0.1111111111111111  0.9184782608695654
  0.4444444444444444  0.1111111111111111  0.9184782608695654
  0.1111111111111111  0.1111111111111111  0.9184782608695654
  0.8888888888888888  0.8888888888888887  0.9130434782608696
  0.5555555555555556  0.8888888888888887  0.9130434782608696
  0.2222222222222223  0.8888888888888887  0.9130434782608696
  0.8888888888888887  0.5555555555555556  0.9130434782608696
  0.5555555555555555  0.5555555555555556  0.9130434782608696
  0.2222222222222222  0.5555555555555556  0.9130434782608696
  0.8888888888888887  0.2222222222222222  0.9130434782608696
  0.5555555555555556  0.2222222222222222  0.9130434782608696
  0.2222222222222222  0.2222222222222222  0.9130434782608696
  0.6666666666666666  0.6666666666666666  0.9076086956521739
  0.3333333333333333  0.6666666666666666  0.9076086956521739
  0.0000000000000000  0.6666666666666666  0.9076086956521739
  0.6666666666666666  0.3333333333333333  0.9076086956521739
  0.3333333333333333  0.3333333333333333  0.9076086956521739
  0.0000000000000000  0.3333333333333333  0.9076086956521739
  0.6666666666666666  0.0000000000000000  0.9076086956521739
  0.3333333333333333  0.0000000000000000  0.9076086956521739
  0.0000000000000000  0.0000000000000000  0.9076086956521739
  0.1111111111111111  0.4444444444444444  0.9184782608695654
  0.4444444444444444  0.4444444444444444  0.9184782608695654
  0.7777777777777778  0.4444444444444444  0.9184782608695654
  0.1111111111111111  0.7777777777777777  0.9184782608695654
  0.4444444444444444  0.1111111111111111  0.9347826086956521
  0.1111111111111111  0.1111111111111111  0.9347826086956521
  0.8888888888888888  0.8888888888888887  0.9293478260869564
  0.5555555555555556  0.8888888888888887  0.9293478260869564
  0.2222222222222223  0.8888888888888887  0.9293478260869564
  0.8888888888888887  0.5555555555555556  0.9293478260869564
  0.5555555555555555  0.5555555555555556  0.9293478260869564
  0.2222222222222222  0.5555555555555556  0.9293478260869564
  0.8888888888888887  0.2222222222222222  0.9293478260869564
  0.5555555555555556  0.2222222222222222  0.9293478260869564
  0.7777777777777778  0.7777777777777777  0.9021739130434783
  0.2222222222222222  0.2222222222222222  0.9293478260869564
  0.3333333333333333  0.6666666666666666  0.9239130434782608
  0.0000000000000000  0.6666666666666666  0.9239130434782608
  0.6666666666666666  0.3333333333333333  0.9239130434782608
  0.3333333333333333  0.3333333333333333  0.9239130434782608
  0.0000000000000000  0.3333333333333333  0.9239130434782608
  0.6666666666666666  0.0000000000000000  0.9239130434782608
  0.3333333333333333  0.0000000000000000  0.9239130434782608
  0.0000000000000000  0.0000000000000000  0.9239130434782608
  0.7777777777777778  0.7777777777777777  0.9184782608695654
  0.4444444444444444  0.7777777777777777  0.9184782608695654
  0.6666666666666666  0.6666666666666666  0.9239130434782608
  0.4444444444444444  0.7777777777777777  0.9021739130434783
  0.1111111111111111  0.7777777777777777  0.9021739130434783
  0.7777777777777778  0.4444444444444444  0.9021739130434783
  0.7777777777777778  0.4444444444444444  0.8858695652173912
  0.4444444444444444  0.4444444444444444  0.8858695652173912
  0.1111111111111111  0.4444444444444444  0.8858695652173912
  0.7777777777777778  0.1111111111111111  0.8858695652173912
  0.4444444444444444  0.1111111111111111  0.8858695652173912
  0.1111111111111111  0.1111111111111111  0.8858695652173912
  0.8888888888888888  0.8888888888888887  0.8804347826086956
  0.5555555555555556  0.8888888888888887  0.8804347826086956
  0.2222222222222223  0.8888888888888887  0.8804347826086956
  0.8888888888888887  0.5555555555555556  0.8804347826086956
  0.1111111111111111  0.7777777777777777  0.8858695652173912
  0.5555555555555555  0.5555555555555556  0.8804347826086956
  0.8888888888888887  0.2222222222222222  0.8804347826086956
  0.5555555555555556  0.2222222222222222  0.8804347826086956
  0.2222222222222222  0.2222222222222222  0.8804347826086956
  0.6666666666666666  0.6666666666666666  0.8750000000000000
  0.3333333333333333  0.6666666666666666  0.8750000000000000
  0.0000000000000000  0.6666666666666666  0.8750000000000000
  0.6666666666666666  0.3333333333333333  0.8750000000000000
  0.3333333333333333  0.3333333333333333  0.8750000000000000
  0.0000000000000000  0.3333333333333333  0.8750000000000000
  0.6666666666666666  0.0000000000000000  0.8750000000000000
  0.2222222222222222  0.5555555555555556  0.8804347826086956
  0.7777777777777778  0.1111111111111111  0.9347826086956521
  0.4444444444444444  0.7777777777777777  0.8858695652173912
  0.0000000000000000  0.0000000000000000  0.8913043478260869
  0.4444444444444444  0.4444444444444444  0.9021739130434783
  0.1111111111111111  0.4444444444444444  0.9021739130434783
  0.7777777777777778  0.1111111111111111  0.9021739130434783
  0.4444444444444444  0.1111111111111111  0.9021739130434783
  0.1111111111111111  0.1111111111111111  0.9021739130434783
  0.8888888888888888  0.8888888888888887  0.8967391304347826
  0.5555555555555556  0.8888888888888887  0.8967391304347826
  0.2222222222222223  0.8888888888888887  0.8967391304347826
  0.8888888888888887  0.5555555555555556  0.8967391304347826
  0.5555555555555555  0.5555555555555556  0.8967391304347826
  0.7777777777777778  0.7777777777777777  0.8858695652173912
  0.2222222222222222  0.5555555555555556  0.8967391304347826
  0.5555555555555556  0.2222222222222222  0.8967391304347826
  0.2222222222222222  0.2222222222222222  0.8967391304347826
  0.6666666666666666  0.6666666666666666  0.8913043478260869
  0.3333333333333333  0.6666666666666666  0.8913043478260869
  0.0000000000000000  0.6666666666666666  0.8913043478260869
  0.6666666666666666  0.3333333333333333  0.8913043478260869
  0.3333333333333333  0.3333333333333333  0.8913043478260869
  0.0000000000000000  0.3333333333333333  0.8913043478260869
  0.6666666666666666  0.0000000000000000  0.8913043478260869
  0.3333333333333333  0.0000000000000000  0.8913043478260869
  0.8888888888888887  0.2222222222222222  0.8967391304347826
  0.1111111111111111  0.4444444444444444  0.9347826086956521
  0.4444444444444444  0.4444444444444444  0.9347826086956521
  0.7777777777777778  0.4444444444444444  0.9347826086956521
  0.5555555555555556  0.8888888888888887  0.9782608695652175
  0.2222222222222223  0.8888888888888887  0.9782608695652175
  0.8888888888888887  0.5555555555555556  0.9782608695652175
  0.5555555555555555  0.5555555555555556  0.9782608695652175
  0.2222222222222222  0.5555555555555556  0.9782608695652175
  0.8888888888888887  0.2222222222222222  0.9782608695652175
  0.5555555555555556  0.2222222222222222  0.9782608695652175
  0.2222222222222222  0.2222222222222222  0.9782608695652175
  0.6666666666666666  0.6666666666666666  0.9728260869565218
  0.3333333333333333  0.6666666666666666  0.9728260869565218
  0.8888888888888888  0.8888888888888887  0.9782608695652175
  0.0000000000000000  0.6666666666666666  0.9728260869565218
  0.3333333333333333  0.3333333333333333  0.9728260869565218
  0.0000000000000000  0.3333333333333333  0.9728260869565218
  0.6666666666666666  0.0000000000000000  0.9728260869565218
  0.3333333333333333  0.0000000000000000  0.9728260869565218
  0.0000000000000000  0.0000000000000000  0.9728260869565218
  0.7777777777777778  0.7777777777777777  0.9673913043478262
  0.4444444444444444  0.7777777777777777  0.9673913043478262
  0.1111111111111111  0.7777777777777777  0.9673913043478262
  0.7777777777777778  0.4444444444444444  0.9673913043478262
  0.4444444444444444  0.4444444444444444  0.9673913043478262
  0.6666666666666666  0.3333333333333333  0.9728260869565218
  0.1111111111111111  0.4444444444444444  0.9673913043478262
  0.1111111111111111  0.1111111111111111  0.9836956521739130
  0.7777777777777778  0.1111111111111111  0.9836956521739130
  0.2222222222222223  0.8888888888888887  0.9945652173913043
  0.8888888888888887  0.5555555555555556  0.9945652173913043
  0.5555555555555555  0.5555555555555556  0.9945652173913043
  0.2222222222222222  0.5555555555555556  0.9945652173913043
  0.8888888888888887  0.2222222222222222  0.9945652173913043
  0.5555555555555556  0.2222222222222222  0.9945652173913043
  0.2222222222222222  0.2222222222222222  0.9945652173913043
  0.6666666666666666  0.6666666666666666  0.9891304347826086
  0.3333333333333333  0.6666666666666666  0.9891304347826086
  0.0000000000000000  0.6666666666666666  0.9891304347826086
  0.4444444444444444  0.1111111111111111  0.9836956521739130
  0.6666666666666666  0.3333333333333333  0.9891304347826086
  0.0000000000000000  0.3333333333333333  0.9891304347826086
  0.6666666666666666  0.0000000000000000  0.9891304347826086
  0.3333333333333333  0.0000000000000000  0.9891304347826086
  0.0000000000000000  0.0000000000000000  0.9891304347826086
  0.7777777777777778  0.7777777777777777  0.9836956521739130
  0.4444444444444444  0.7777777777777777  0.9836956521739130
  0.1111111111111111  0.7777777777777777  0.9836956521739130
  0.7777777777777778  0.4444444444444444  0.9836956521739130
  0.4444444444444444  0.4444444444444444  0.9836956521739130
  0.1111111111111111  0.4444444444444444  0.9836956521739130
  0.3333333333333333  0.3333333333333333  0.9891304347826086
  0.3333333333333333  0.0000000000000000  0.8750000000000000
  0.7777777777777778  0.1111111111111111  0.9673913043478262
  0.1111111111111111  0.1111111111111111  0.9673913043478262
  0.1111111111111111  0.1111111111111111  0.9510869565217391
  0.8888888888888888  0.8888888888888887  0.9456521739130435
  0.5555555555555556  0.8888888888888887  0.9456521739130435
  0.2222222222222223  0.8888888888888887  0.9456521739130435
  0.8888888888888887  0.5555555555555556  0.9456521739130435
  0.5555555555555555  0.5555555555555556  0.9456521739130435
  0.2222222222222222  0.5555555555555556  0.9456521739130435
  0.8888888888888887  0.2222222222222222  0.9456521739130435
  0.5555555555555556  0.2222222222222222  0.9456521739130435
  0.2222222222222222  0.2222222222222222  0.9456521739130435
  0.4444444444444444  0.1111111111111111  0.9510869565217391
  0.6666666666666666  0.6666666666666666  0.9402173913043478
  0.0000000000000000  0.6666666666666666  0.9402173913043478
  0.6666666666666666  0.3333333333333333  0.9402173913043478
  0.3333333333333333  0.3333333333333333  0.9402173913043478
  0.0000000000000000  0.3333333333333333  0.9402173913043478
  0.6666666666666666  0.0000000000000000  0.9402173913043478
  0.3333333333333333  0.0000000000000000  0.9402173913043478
  0.0000000000000000  0.0000000000000000  0.9402173913043478
  0.7777777777777778  0.7777777777777777  0.9347826086956521
  0.4444444444444444  0.7777777777777777  0.9347826086956521
  0.1111111111111111  0.7777777777777777  0.9347826086956521
  0.3333333333333333  0.6666666666666666  0.9402173913043478
  0.4444444444444444  0.1111111111111111  0.9673913043478262
  0.7777777777777778  0.1111111111111111  0.9510869565217391
  0.4444444444444444  0.4444444444444444  0.9510869565217391
  0.8888888888888888  0.8888888888888887  0.9619565217391305
  0.5555555555555556  0.8888888888888887  0.9619565217391305
  0.2222222222222223  0.8888888888888887  0.9619565217391305
  0.8888888888888887  0.5555555555555556  0.9619565217391305
  0.5555555555555555  0.5555555555555556  0.9619565217391305
  0.2222222222222222  0.5555555555555556  0.9619565217391305
  0.8888888888888887  0.2222222222222222  0.9619565217391305
  0.5555555555555556  0.2222222222222222  0.9619565217391305
  0.2222222222222222  0.2222222222222222  0.9619565217391305
  0.6666666666666666  0.6666666666666666  0.9565217391304348
  0.1111111111111111  0.4444444444444444  0.9510869565217391
  0.3333333333333333  0.6666666666666666  0.9565217391304348
  0.6666666666666666  0.3333333333333333  0.9565217391304348
  0.3333333333333333  0.3333333333333333  0.9565217391304348
  0.0000000000000000  0.3333333333333333  0.9565217391304348
  0.6666666666666666  0.0000000000000000  0.9565217391304348
  0.3333333333333333  0.0000000000000000  0.9565217391304348
  0.0000000000000000  0.0000000000000000  0.9565217391304348
  0.7777777777777778  0.7777777777777777  0.9510869565217391
  0.4444444444444444  0.7777777777777777  0.9510869565217391
  0.1111111111111111  0.7777777777777777  0.9510869565217391
  0.7777777777777778  0.4444444444444444  0.9510869565217391
  0.0000000000000000  0.6666666666666666  0.9565217391304348
  0.2222222222222222  0.2222222222222222  0.7500000000000000
  0.0000000000000000  0.0000000000000000  0.8750000000000000
  0.4444444444444444  0.7777777777777777  0.8695652173913043
  0.6666666666666666  0.0000000000000000  0.7934782608695654
  0.3333333333333333  0.0000000000000000  0.7934782608695654
  0.0000000000000000  0.0000000000000000  0.7934782608695654
  0.7777777777777778  0.7777777777777777  0.7880434782608696
  0.4444444444444444  0.7777777777777777  0.7880434782608696
  0.1111111111111111  0.7777777777777777  0.7880434782608696
  0.7777777777777778  0.4444444444444444  0.7880434782608696
  0.4444444444444444  0.4444444444444444  0.7880434782608696
  0.1111111111111111  0.4444444444444444  0.7880434782608696
  0.7777777777777778  0.1111111111111111  0.7880434782608696
  0.4444444444444444  0.1111111111111111  0.7880434782608696
  0.1111111111111111  0.1111111111111111  0.7880434782608696
  0.8888888888888888  0.8888888888888887  0.7826086956521739
  0.5555555555555556  0.8888888888888887  0.7826086956521739
  0.2222222222222223  0.8888888888888887  0.7826086956521739
  0.8888888888888887  0.5555555555555556  0.7826086956521739
  0.5555555555555555  0.5555555555555556  0.7826086956521739
  0.2222222222222222  0.5555555555555556  0.7826086956521739
  0.8888888888888887  0.2222222222222222  0.7826086956521739
  0.5555555555555556  0.2222222222222222  0.7826086956521739
  0.2222222222222222  0.2222222222222222  0.7826086956521739
  0.0000000000000000  0.3333333333333333  0.7934782608695654
  0.3333333333333333  0.3333333333333333  0.7934782608695654
  0.6666666666666666  0.3333333333333333  0.7934782608695654
  0.0000000000000000  0.6666666666666666  0.7934782608695654
  0.3333333333333333  0.0000000000000000  0.8097826086956521
  0.0000000000000000  0.0000000000000000  0.8097826086956521
  0.7777777777777778  0.7777777777777777  0.8043478260869564
  0.4444444444444444  0.7777777777777777  0.8043478260869564
  0.1111111111111111  0.7777777777777777  0.8043478260869564
  0.7777777777777778  0.4444444444444444  0.8043478260869564
  0.4444444444444444  0.4444444444444444  0.8043478260869564
  0.1111111111111111  0.4444444444444444  0.8043478260869564
  0.7777777777777778  0.1111111111111111  0.8043478260869564
  0.4444444444444444  0.1111111111111111  0.8043478260869564
  0.6666666666666666  0.6666666666666666  0.7771739130434783
  0.1111111111111111  0.1111111111111111  0.8043478260869564
  0.5555555555555556  0.8888888888888887  0.7989130434782608
  0.2222222222222223  0.8888888888888887  0.7989130434782608
  0.8888888888888887  0.5555555555555556  0.7989130434782608
  0.5555555555555555  0.5555555555555556  0.7989130434782608
  0.2222222222222222  0.5555555555555556  0.7989130434782608
  0.8888888888888887  0.2222222222222222  0.7989130434782608
  0.5555555555555556  0.2222222222222222  0.7989130434782608
  0.2222222222222222  0.2222222222222222  0.7989130434782608
  0.6666666666666666  0.6666666666666666  0.7934782608695654
  0.3333333333333333  0.6666666666666666  0.7934782608695654
  0.8888888888888888  0.8888888888888887  0.7989130434782608
  0.3333333333333333  0.6666666666666666  0.7771739130434783
  0.0000000000000000  0.6666666666666666  0.7771739130434783
  0.6666666666666666  0.3333333333333333  0.7771739130434783
  0.6666666666666666  0.3333333333333333  0.7608695652173912
  0.3333333333333333  0.3333333333333333  0.7608695652173912
  0.0000000000000000  0.3333333333333333  0.7608695652173912
  0.6666666666666666  0.0000000000000000  0.7608695652173912
  0.3333333333333333  0.0000000000000000  0.7608695652173912
  0.0000000000000000  0.0000000000000000  0.7608695652173912
  0.7777777777777778  0.7777777777777777  0.7554347826086957
  0.4444444444444444  0.7777777777777777  0.7554347826086957
  0.1111111111111111  0.7777777777777777  0.7554347826086957
  0.7777777777777778  0.4444444444444444  0.7554347826086957
  0.0000000000000000  0.6666666666666666  0.7608695652173912
  0.4444444444444444  0.4444444444444444  0.7554347826086957
  0.7777777777777778  0.1111111111111111  0.7554347826086957
  0.4444444444444444  0.1111111111111111  0.7554347826086957
  0.1111111111111111  0.1111111111111111  0.7554347826086957
  0.8888888888888888  0.8888888888888887  0.7500000000000000
  0.5555555555555556  0.8888888888888887  0.7500000000000000
  0.2222222222222223  0.8888888888888887  0.7500000000000000
  0.8888888888888887  0.5555555555555556  0.7500000000000000
  0.5555555555555555  0.5555555555555556  0.7500000000000000
  0.2222222222222222  0.5555555555555556  0.7500000000000000
  0.8888888888888887  0.2222222222222222  0.7500000000000000
  0.1111111111111111  0.4444444444444444  0.7554347826086957
  0.6666666666666666  0.0000000000000000  0.8097826086956521
  0.3333333333333333  0.6666666666666666  0.7608695652173912
  0.2222222222222222  0.2222222222222222  0.7663043478260869
  0.3333333333333333  0.3333333333333333  0.7771739130434783
  0.0000000000000000  0.3333333333333333  0.7771739130434783
  0.6666666666666666  0.0000000000000000  0.7771739130434783
  0.3333333333333333  0.0000000000000000  0.7771739130434783
  0.0000000000000000  0.0000000000000000  0.7771739130434783
  0.7777777777777778  0.7777777777777777  0.7717391304347826
  0.4444444444444444  0.7777777777777777  0.7717391304347826
  0.1111111111111111  0.7777777777777777  0.7717391304347826
  0.7777777777777778  0.4444444444444444  0.7717391304347826
  0.4444444444444444  0.4444444444444444  0.7717391304347826
  0.6666666666666666  0.6666666666666666  0.7608695652173912
  0.1111111111111111  0.4444444444444444  0.7717391304347826
  0.4444444444444444  0.1111111111111111  0.7717391304347826
  0.1111111111111111  0.1111111111111111  0.7717391304347826
  0.8888888888888888  0.8888888888888887  0.7663043478260869
  0.5555555555555556  0.8888888888888887  0.7663043478260869
  0.2222222222222223  0.8888888888888887  0.7663043478260869
  0.8888888888888887  0.5555555555555556  0.7663043478260869
  0.5555555555555555  0.5555555555555556  0.7663043478260869
  0.2222222222222222  0.5555555555555556  0.7663043478260869
  0.8888888888888887  0.2222222222222222  0.7663043478260869
  0.5555555555555556  0.2222222222222222  0.7663043478260869
  0.7777777777777778  0.1111111111111111  0.7717391304347826
  0.0000000000000000  0.3333333333333333  0.8097826086956521
  0.3333333333333333  0.3333333333333333  0.8097826086956521
  0.6666666666666666  0.3333333333333333  0.8097826086956521
  0.4444444444444444  0.7777777777777777  0.8532608695652173
  0.1111111111111111  0.7777777777777777  0.8532608695652173
  0.7777777777777778  0.4444444444444444  0.8532608695652173
  0.4444444444444444  0.4444444444444444  0.8532608695652173
  0.1111111111111111  0.4444444444444444  0.8532608695652173
  0.7777777777777778  0.1111111111111111  0.8532608695652173
  0.4444444444444444  0.1111111111111111  0.8532608695652173
  0.1111111111111111  0.1111111111111111  0.8532608695652173
  0.8888888888888888  0.8888888888888887  0.8478260869565218
  0.5555555555555556  0.8888888888888887  0.8478260869565218
  0.7777777777777778  0.7777777777777777  0.8532608695652173
  0.2222222222222223  0.8888888888888887  0.8478260869565218
  0.5555555555555555  0.5555555555555556  0.8478260869565218
  0.2222222222222222  0.5555555555555556  0.8478260869565218
  0.8888888888888887  0.2222222222222222  0.8478260869565218
  0.5555555555555556  0.2222222222222222  0.8478260869565218
  0.2222222222222222  0.2222222222222222  0.8478260869565218
  0.6666666666666666  0.6666666666666666  0.8423913043478262
  0.3333333333333333  0.6666666666666666  0.8423913043478262
  0.0000000000000000  0.6666666666666666  0.8423913043478262
  0.6666666666666666  0.3333333333333333  0.8423913043478262
  0.3333333333333333  0.3333333333333333  0.8423913043478262
  0.8888888888888887  0.5555555555555556  0.8478260869565218
  0.0000000000000000  0.3333333333333333  0.8423913043478262
  0.0000000000000000  0.0000000000000000  0.8586956521739130
  0.6666666666666666  0.0000000000000000  0.8586956521739130
  0.1111111111111111  0.7777777777777777  0.8695652173913043
  0.7777777777777778  0.4444444444444444  0.8695652173913043
  0.4444444444444444  0.4444444444444444  0.8695652173913043
  0.1111111111111111  0.4444444444444444  0.8695652173913043
  0.7777777777777778  0.1111111111111111  0.8695652173913043
  0.4444444444444444  0.1111111111111111  0.8695652173913043
  0.1111111111111111  0.1111111111111111  0.8695652173913043
  0.8888888888888888  0.8888888888888887  0.8641304347826086
  0.5555555555555556  0.8888888888888887  0.8641304347826086
  0.2222222222222223  0.8888888888888887  0.8641304347826086
  0.3333333333333333  0.0000000000000000  0.8586956521739130
  0.8888888888888887  0.5555555555555556  0.8641304347826086
  0.2222222222222222  0.5555555555555556  0.8641304347826086
  0.8888888888888887  0.2222222222222222  0.8641304347826086
  0.5555555555555556  0.2222222222222222  0.8641304347826086
  0.2222222222222222  0.2222222222222222  0.8641304347826086
  0.6666666666666666  0.6666666666666666  0.8586956521739130
  0.3333333333333333  0.6666666666666666  0.8586956521739130
  0.0000000000000000  0.6666666666666666  0.8586956521739130
  0.6666666666666666  0.3333333333333333  0.8586956521739130
  0.3333333333333333  0.3333333333333333  0.8586956521739130
  0.0000000000000000  0.3333333333333333  0.8586956521739130
  0.5555555555555555  0.5555555555555556  0.8641304347826086
  0.7777777777777778  0.7777777777777777  0.8695652173913043
  0.6666666666666666  0.0000000000000000  0.8423913043478262
  0.0000000000000000  0.0000000000000000  0.8423913043478262
  0.0000000000000000  0.0000000000000000  0.8260869565217391
  0.7777777777777778  0.7777777777777777  0.8206521739130435
  0.4444444444444444  0.7777777777777777  0.8206521739130435
  0.1111111111111111  0.7777777777777777  0.8206521739130435
  0.7777777777777778  0.4444444444444444  0.8206521739130435
  0.4444444444444444  0.4444444444444444  0.8206521739130435
  0.1111111111111111  0.4444444444444444  0.8206521739130435
  0.7777777777777778  0.1111111111111111  0.8206521739130435
  0.4444444444444444  0.1111111111111111  0.8206521739130435
  0.1111111111111111  0.1111111111111111  0.8206521739130435
  0.3333333333333333  0.0000000000000000  0.8260869565217391
  0.8888888888888888  0.8888888888888887  0.8152173913043478
  0.2222222222222223  0.8888888888888887  0.8152173913043478
  0.8888888888888887  0.5555555555555556  0.8152173913043478
  0.5555555555555555  0.5555555555555556  0.8152173913043478
  0.2222222222222222  0.5555555555555556  0.8152173913043478
  0.8888888888888887  0.2222222222222222  0.8152173913043478
  0.5555555555555556  0.2222222222222222  0.8152173913043478
  0.2222222222222222  0.2222222222222222  0.8152173913043478
  0.6666666666666666  0.6666666666666666  0.8097826086956521
  0.3333333333333333  0.6666666666666666  0.8097826086956521
  0.0000000000000000  0.6666666666666666  0.8097826086956521
  0.5555555555555556  0.8888888888888887  0.8152173913043478
  0.3333333333333333  0.0000000000000000  0.8423913043478262
  0.6666666666666666  0.0000000000000000  0.8260869565217391
  0.3333333333333333  0.3333333333333333  0.8260869565217391
  0.7777777777777778  0.7777777777777777  0.8369565217391305
  0.4444444444444444  0.7777777777777777  0.8369565217391305
  0.1111111111111111  0.7777777777777777  0.8369565217391305
  0.7777777777777778  0.4444444444444444  0.8369565217391305
  0.4444444444444444  0.4444444444444444  0.8369565217391305
  0.1111111111111111  0.4444444444444444  0.8369565217391305
  0.7777777777777778  0.1111111111111111  0.8369565217391305
  0.4444444444444444  0.1111111111111111  0.8369565217391305
  0.1111111111111111  0.1111111111111111  0.8369565217391305
  0.8888888888888888  0.8888888888888887  0.8315217391304348
  0.0000000000000000  0.3333333333333333  0.8260869565217391
  0.5555555555555556  0.8888888888888887  0.8315217391304348
  0.8888888888888887  0.5555555555555556  0.8315217391304348
  0.5555555555555555  0.5555555555555556  0.8315217391304348
  0.2222222222222222  0.5555555555555556  0.8315217391304348
  0.8888888888888887  0.2222222222222222  0.8315217391304348
  0.5555555555555556  0.2222222222222222  0.8315217391304348
  0.2222222222222222  0.2222222222222222  0.8315217391304348
  0.6666666666666666  0.6666666666666666  0.8260869565217391
  0.3333333333333333  0.6666666666666666  0.8260869565217391
  0.0000000000000000  0.6666666666666666  0.8260869565217391
  0.6666666666666666  0.3333333333333333  0.8260869565217391
  0.2222222222222223  0.8888888888888887  0.8315217391304348
  0.0000000000000000  0.0000000000000000  0.4999999999999999
  0.8888888888888888  0.8888888888888887  0.4945652173913043
  0.5555555555555556  0.8888888888888887  0.4945652173913043
  0.4444444444444444  0.1111111111111111  0.1684782608695653
  0.1111111111111111  0.1111111111111111  0.1684782608695653
  0.6666666666666666  0.6666666666666666  0.1630434782608696
  0.3333333333333333  0.6666666666666666  0.1630434782608696
  0.0000000000000000  0.6666666666666666  0.1630434782608696
  0.6666666666666666  0.3333333333333333  0.1630434782608696
  0.3333333333333333  0.3333333333333333  0.1630434782608696
  0.0000000000000000  0.3333333333333333  0.1630434782608696
  0.6666666666666666  0.0000000000000000  0.1630434782608696
  0.3333333333333333  0.0000000000000000  0.1630434782608696
  0.0000000000000000  0.0000000000000000  0.1630434782608696
  0.8888888888888888  0.8888888888888887  0.1576086956521739
  0.5555555555555556  0.8888888888888887  0.1576086956521739
  0.2222222222222223  0.8888888888888887  0.1576086956521739
  0.8888888888888887  0.5555555555555556  0.1576086956521739
  0.5555555555555555  0.5555555555555556  0.1576086956521739
  0.2222222222222222  0.5555555555555556  0.1576086956521739
  0.8888888888888887  0.2222222222222222  0.1576086956521739
  0.5555555555555556  0.2222222222222222  0.1576086956521739
  0.2222222222222222  0.2222222222222222  0.1576086956521739
  0.7777777777777778  0.7777777777777777  0.1521739130434782
  0.7777777777777778  0.1111111111111111  0.1684782608695653
  0.1111111111111111  0.4444444444444444  0.1684782608695653
  0.4444444444444444  0.4444444444444444  0.1684782608695653
  0.7777777777777778  0.4444444444444444  0.1684782608695653
  0.1111111111111111  0.1111111111111111  0.1847826086956522
  0.6666666666666666  0.6666666666666666  0.1793478260869565
  0.3333333333333333  0.6666666666666666  0.1793478260869565
  0.0000000000000000  0.6666666666666666  0.1793478260869565
  0.6666666666666666  0.3333333333333333  0.1793478260869565
  0.3333333333333333  0.3333333333333333  0.1793478260869565
  0.0000000000000000  0.3333333333333333  0.1793478260869565
  0.6666666666666666  0.0000000000000000  0.1793478260869565
  0.3333333333333333  0.0000000000000000  0.1793478260869565
  0.0000000000000000  0.0000000000000000  0.1793478260869565
  0.4444444444444444  0.7777777777777777  0.1521739130434782
  0.8888888888888888  0.8888888888888887  0.1739130434782609
  0.2222222222222223  0.8888888888888887  0.1739130434782609
  0.8888888888888887  0.5555555555555556  0.1739130434782609
  0.5555555555555555  0.5555555555555556  0.1739130434782609
  0.2222222222222222  0.5555555555555556  0.1739130434782609
  0.8888888888888887  0.2222222222222222  0.1739130434782609
  0.5555555555555556  0.2222222222222222  0.1739130434782609
  0.2222222222222222  0.2222222222222222  0.1739130434782609
  0.7777777777777778  0.7777777777777777  0.1684782608695653
  0.4444444444444444  0.7777777777777777  0.1684782608695653
  0.1111111111111111  0.7777777777777777  0.1684782608695653
  0.5555555555555556  0.8888888888888887  0.1739130434782609
  0.1111111111111111  0.7777777777777777  0.1521739130434782
  0.7777777777777778  0.4444444444444444  0.1521739130434782
  0.4444444444444444  0.4444444444444444  0.1521739130434782
  0.4444444444444444  0.4444444444444444  0.1358695652173913
  0.1111111111111111  0.4444444444444444  0.1358695652173913
  0.7777777777777778  0.1111111111111111  0.1358695652173913
  0.4444444444444444  0.1111111111111111  0.1358695652173913
  0.1111111111111111  0.1111111111111111  0.1358695652173913
  0.6666666666666666  0.6666666666666666  0.1304347826086956
  0.3333333333333333  0.6666666666666666  0.1304347826086956
  0.0000000000000000  0.6666666666666666  0.1304347826086956
  0.6666666666666666  0.3333333333333333  0.1304347826086956
  0.3333333333333333  0.3333333333333333  0.1304347826086956
  0.7777777777777778  0.4444444444444444  0.1358695652173913
  0.0000000000000000  0.3333333333333333  0.1304347826086956
  0.3333333333333333  0.0000000000000000  0.1304347826086956
  0.0000000000000000  0.0000000000000000  0.1304347826086956
  0.8888888888888888  0.8888888888888887  0.1250000000000000
  0.5555555555555556  0.8888888888888887  0.1250000000000000
  0.2222222222222223  0.8888888888888887  0.1250000000000000
  0.8888888888888887  0.5555555555555556  0.1250000000000000
  0.5555555555555555  0.5555555555555556  0.1250000000000000
  0.2222222222222222  0.5555555555555556  0.1250000000000000
  0.8888888888888887  0.2222222222222222  0.1250000000000000
  0.5555555555555556  0.2222222222222222  0.1250000000000000
  0.6666666666666666  0.0000000000000000  0.1304347826086956
  0.4444444444444444  0.1111111111111111  0.1847826086956522
  0.1111111111111111  0.7777777777777777  0.1358695652173913
  0.7777777777777778  0.7777777777777777  0.1358695652173913
  0.1111111111111111  0.4444444444444444  0.1521739130434782
  0.7777777777777778  0.1111111111111111  0.1521739130434782
  0.4444444444444444  0.1111111111111111  0.1521739130434782
  0.1111111111111111  0.1111111111111111  0.1521739130434782
  0.6666666666666666  0.6666666666666666  0.1467391304347826
  0.3333333333333333  0.6666666666666666  0.1467391304347826
  0.0000000000000000  0.6666666666666666  0.1467391304347826
  0.6666666666666666  0.3333333333333333  0.1467391304347826
  0.3333333333333333  0.3333333333333333  0.1467391304347826
  0.0000000000000000  0.3333333333333333  0.1467391304347826
  0.4444444444444444  0.7777777777777777  0.1358695652173913
  0.6666666666666666  0.0000000000000000  0.1467391304347826
  0.0000000000000000  0.0000000000000000  0.1467391304347826
  0.8888888888888888  0.8888888888888887  0.1413043478260869
  0.5555555555555556  0.8888888888888887  0.1413043478260869
  0.2222222222222223  0.8888888888888887  0.1413043478260869
  0.8888888888888887  0.5555555555555556  0.1413043478260869
  0.5555555555555555  0.5555555555555556  0.1413043478260869
  0.2222222222222222  0.5555555555555556  0.1413043478260869
  0.8888888888888887  0.2222222222222222  0.1413043478260869
  0.5555555555555556  0.2222222222222222  0.1413043478260869
  0.2222222222222222  0.2222222222222222  0.1413043478260869
  0.3333333333333333  0.0000000000000000  0.1467391304347826
  0.7777777777777778  0.1111111111111111  0.1847826086956522
  0.1111111111111111  0.4444444444444444  0.1847826086956522
  0.4444444444444444  0.4444444444444444  0.1847826086956522
  0.0000000000000000  0.6666666666666666  0.2282608695652174
  0.6666666666666666  0.3333333333333333  0.2282608695652174
  0.3333333333333333  0.3333333333333333  0.2282608695652174
  0.0000000000000000  0.3333333333333333  0.2282608695652174
  0.6666666666666666  0.0000000000000000  0.2282608695652174
  0.3333333333333333  0.0000000000000000  0.2282608695652174
  0.0000000000000000  0.0000000000000000  0.2282608695652174
  0.8888888888888888  0.8888888888888887  0.2228260869565217
  0.5555555555555556  0.8888888888888887  0.2228260869565217
  0.2222222222222223  0.8888888888888887  0.2228260869565217
  0.3333333333333333  0.6666666666666666  0.2282608695652174
  0.8888888888888887  0.5555555555555556  0.2228260869565217
  0.2222222222222222  0.5555555555555556  0.2228260869565217
  0.8888888888888887  0.2222222222222222  0.2228260869565217
  0.5555555555555556  0.2222222222222222  0.2228260869565217
  0.2222222222222222  0.2222222222222222  0.2228260869565217
  0.7777777777777778  0.7777777777777777  0.2173913043478261
  0.4444444444444444  0.7777777777777777  0.2173913043478261
  0.1111111111111111  0.7777777777777777  0.2173913043478261
  0.7777777777777778  0.4444444444444444  0.2173913043478261
  0.4444444444444444  0.4444444444444444  0.2173913043478261
  0.1111111111111111  0.4444444444444444  0.2173913043478261
  0.5555555555555555  0.5555555555555556  0.2228260869565217
  0.7777777777777778  0.1111111111111111  0.2173913043478261
  0.6666666666666666  0.6666666666666666  0.2282608695652174
  0.4444444444444444  0.1111111111111111  0.2336956521739130
  0.6666666666666666  0.3333333333333333  0.2445652173913044
  0.3333333333333333  0.3333333333333333  0.2445652173913044
  0.0000000000000000  0.3333333333333333  0.2445652173913044
  0.6666666666666666  0.0000000000000000  0.2445652173913044
  0.3333333333333333  0.0000000000000000  0.2445652173913044
  0.0000000000000000  0.0000000000000000  0.2445652173913044
  0.8888888888888888  0.8888888888888887  0.2391304347826087
  0.5555555555555556  0.8888888888888887  0.2391304347826087
  0.2222222222222223  0.8888888888888887  0.2391304347826087
  0.8888888888888887  0.5555555555555556  0.2391304347826087
  0.1111111111111111  0.1111111111111111  0.2336956521739130
  0.5555555555555555  0.5555555555555556  0.2391304347826087
  0.8888888888888887  0.2222222222222222  0.2391304347826087
  0.5555555555555556  0.2222222222222222  0.2391304347826087
  0.2222222222222222  0.2222222222222222  0.2391304347826087
  0.7777777777777778  0.7777777777777777  0.2336956521739130
  0.4444444444444444  0.7777777777777777  0.2336956521739130
  0.1111111111111111  0.7777777777777777  0.2336956521739130
  0.7777777777777778  0.4444444444444444  0.2336956521739130
  0.4444444444444444  0.4444444444444444  0.2336956521739130
  0.1111111111111111  0.4444444444444444  0.2336956521739130
  0.7777777777777778  0.1111111111111111  0.2336956521739130
  0.2222222222222222  0.5555555555555556  0.2391304347826087
  0.2222222222222222  0.2222222222222222  0.1250000000000000
  0.4444444444444444  0.1111111111111111  0.2173913043478261
  0.6666666666666666  0.6666666666666666  0.2119565217391305
  0.6666666666666666  0.6666666666666666  0.1956521739130435
  0.3333333333333333  0.6666666666666666  0.1956521739130435
  0.0000000000000000  0.6666666666666666  0.1956521739130435
  0.6666666666666666  0.3333333333333333  0.1956521739130435
  0.3333333333333333  0.3333333333333333  0.1956521739130435
  0.0000000000000000  0.3333333333333333  0.1956521739130435
  0.6666666666666666  0.0000000000000000  0.1956521739130435
  0.3333333333333333  0.0000000000000000  0.1956521739130435
  0.0000000000000000  0.0000000000000000  0.1956521739130435
  0.8888888888888888  0.8888888888888887  0.1902173913043478
  0.1111111111111111  0.1111111111111111  0.2010869565217391
  0.5555555555555556  0.8888888888888887  0.1902173913043478
  0.8888888888888887  0.5555555555555556  0.1902173913043478
  0.5555555555555555  0.5555555555555556  0.1902173913043478
  0.2222222222222222  0.5555555555555556  0.1902173913043478
  0.8888888888888887  0.2222222222222222  0.1902173913043478
  0.5555555555555556  0.2222222222222222  0.1902173913043478
  0.2222222222222222  0.2222222222222222  0.1902173913043478
  0.7777777777777778  0.7777777777777777  0.1847826086956522
  0.4444444444444444  0.7777777777777777  0.1847826086956522
  0.1111111111111111  0.7777777777777777  0.1847826086956522
  0.7777777777777778  0.4444444444444444  0.1847826086956522
  0.2222222222222223  0.8888888888888887  0.1902173913043478
  0.1111111111111111  0.1111111111111111  0.2173913043478261
  0.4444444444444444  0.1111111111111111  0.2010869565217391
  0.1111111111111111  0.4444444444444444  0.2010869565217391
  0.3333333333333333  0.6666666666666666  0.2119565217391305
  0.0000000000000000  0.6666666666666666  0.2119565217391305
  0.6666666666666666  0.3333333333333333  0.2119565217391305
  0.3333333333333333  0.3333333333333333  0.2119565217391305
  0.0000000000000000  0.3333333333333333  0.2119565217391305
  0.6666666666666666  0.0000000000000000  0.2119565217391305
  0.3333333333333333  0.0000000000000000  0.2119565217391305
  0.0000000000000000  0.0000000000000000  0.2119565217391305
  0.8888888888888888  0.8888888888888887  0.2065217391304348
  0.5555555555555556  0.8888888888888887  0.2065217391304348
  0.7777777777777778  0.1111111111111111  0.2010869565217391
  0.2222222222222223  0.8888888888888887  0.2065217391304348
  0.5555555555555555  0.5555555555555556  0.2065217391304348
  0.2222222222222222  0.5555555555555556  0.2065217391304348
  0.8888888888888887  0.2222222222222222  0.2065217391304348
  0.5555555555555556  0.2222222222222222  0.2065217391304348
  0.2222222222222222  0.2222222222222222  0.2065217391304348
  0.7777777777777778  0.7777777777777777  0.2010869565217391
  0.4444444444444444  0.7777777777777777  0.2010869565217391
  0.1111111111111111  0.7777777777777777  0.2010869565217391
  0.7777777777777778  0.4444444444444444  0.2010869565217391
  0.4444444444444444  0.4444444444444444  0.2010869565217391
  0.8888888888888887  0.5555555555555556  0.2065217391304348
  0.0000000000000000  0.6666666666666666  0.2445652173913044
  0.7777777777777778  0.7777777777777777  0.1195652173913044
  0.1111111111111111  0.7777777777777777  0.1195652173913044
  0.5555555555555556  0.2222222222222222  0.0434782608695652
  0.2222222222222222  0.2222222222222222  0.0434782608695652
  0.7777777777777778  0.7777777777777777  0.0380434782608696
  0.4444444444444444  0.7777777777777777  0.0380434782608696
  0.1111111111111111  0.7777777777777777  0.0380434782608696
  0.7777777777777778  0.4444444444444444  0.0380434782608696
  0.4444444444444444  0.4444444444444444  0.0380434782608696
  0.1111111111111111  0.4444444444444444  0.0380434782608696
  0.7777777777777778  0.1111111111111111  0.0380434782608696
  0.4444444444444444  0.1111111111111111  0.0380434782608696
  0.1111111111111111  0.1111111111111111  0.0380434782608696
  0.6666666666666666  0.6666666666666666  0.0326086956521739
  0.3333333333333333  0.6666666666666666  0.0326086956521739
  0.0000000000000000  0.6666666666666666  0.0326086956521739
  0.6666666666666666  0.3333333333333333  0.0326086956521739
  0.3333333333333333  0.3333333333333333  0.0326086956521739
  0.0000000000000000  0.3333333333333333  0.0326086956521739
  0.6666666666666666  0.0000000000000000  0.0326086956521739
  0.3333333333333333  0.0000000000000000  0.0326086956521739
  0.0000000000000000  0.0000000000000000  0.0326086956521739
  0.8888888888888888  0.8888888888888887  0.0271739130434783
  0.8888888888888887  0.2222222222222222  0.0434782608695652
  0.2222222222222222  0.5555555555555556  0.0434782608695652
  0.5555555555555555  0.5555555555555556  0.0434782608695652
  0.8888888888888887  0.5555555555555556  0.0434782608695652
  0.2222222222222222  0.2222222222222222  0.0597826086956522
  0.7777777777777778  0.7777777777777777  0.0543478260869565
  0.4444444444444444  0.7777777777777777  0.0543478260869565
  0.1111111111111111  0.7777777777777777  0.0543478260869565
  0.7777777777777778  0.4444444444444444  0.0543478260869565
  0.4444444444444444  0.4444444444444444  0.0543478260869565
  0.1111111111111111  0.4444444444444444  0.0543478260869565
  0.7777777777777778  0.1111111111111111  0.0543478260869565
  0.4444444444444444  0.1111111111111111  0.0543478260869565
  0.1111111111111111  0.1111111111111111  0.0543478260869565
  0.5555555555555556  0.8888888888888887  0.0271739130434783
  0.6666666666666666  0.6666666666666666  0.0489130434782609
  0.0000000000000000  0.6666666666666666  0.0489130434782609
  0.6666666666666666  0.3333333333333333  0.0489130434782609
  0.3333333333333333  0.3333333333333333  0.0489130434782609
  0.0000000000000000  0.3333333333333333  0.0489130434782609
  0.6666666666666666  0.0000000000000000  0.0489130434782609
  0.3333333333333333  0.0000000000000000  0.0489130434782609
  0.0000000000000000  0.0000000000000000  0.0489130434782609
  0.8888888888888888  0.8888888888888887  0.0434782608695652
  0.5555555555555556  0.8888888888888887  0.0434782608695652
  0.2222222222222223  0.8888888888888887  0.0434782608695652
  0.3333333333333333  0.6666666666666666  0.0489130434782609
  0.2222222222222223  0.8888888888888887  0.0271739130434783
  0.8888888888888887  0.5555555555555556  0.0271739130434783
  0.5555555555555555  0.5555555555555556  0.0271739130434783
  0.5555555555555555  0.5555555555555556  0.0108695652173913
  0.2222222222222222  0.5555555555555556  0.0108695652173913
  0.8888888888888887  0.2222222222222222  0.0108695652173913
  0.5555555555555556  0.2222222222222222  0.0108695652173913
  0.2222222222222222  0.2222222222222222  0.0108695652173913
  0.7777777777777778  0.7777777777777777  0.0054347826086957
  0.4444444444444444  0.7777777777777777  0.0054347826086957
  0.1111111111111111  0.7777777777777777  0.0054347826086957
  0.7777777777777778  0.4444444444444444  0.0054347826086957
  0.4444444444444444  0.4444444444444444  0.0054347826086957
  0.8888888888888887  0.5555555555555556  0.0108695652173913
  0.1111111111111111  0.4444444444444444  0.0054347826086957
  0.4444444444444444  0.1111111111111111  0.0054347826086957
  0.1111111111111111  0.1111111111111111  0.0054347826086957
  0.6666666666666666  0.6666666666666666  0.0000000000000000
  0.3333333333333333  0.6666666666666666  0.0000000000000000
  0.0000000000000000  0.6666666666666666  0.0000000000000000
  0.6666666666666666  0.3333333333333333  0.0000000000000000
  0.3333333333333333  0.3333333333333333  0.0000000000000000
  0.0000000000000000  0.3333333333333333  0.0000000000000000
  0.6666666666666666  0.0000000000000000  0.0000000000000000
  0.3333333333333333  0.0000000000000000  0.0000000000000000
  0.7777777777777778  0.1111111111111111  0.0054347826086957
  0.5555555555555556  0.2222222222222222  0.0597826086956522
  0.2222222222222223  0.8888888888888887  0.0108695652173913
  0.8888888888888888  0.8888888888888887  0.0108695652173913
  0.2222222222222222  0.5555555555555556  0.0271739130434783
  0.8888888888888887  0.2222222222222222  0.0271739130434783
  0.5555555555555556  0.2222222222222222  0.0271739130434783
  0.2222222222222222  0.2222222222222222  0.0271739130434783
  0.7777777777777778  0.7777777777777777  0.0217391304347826
  0.4444444444444444  0.7777777777777777  0.0217391304347826
  0.1111111111111111  0.7777777777777777  0.0217391304347826
  0.7777777777777778  0.4444444444444444  0.0217391304347826
  0.4444444444444444  0.4444444444444444  0.0217391304347826
  0.1111111111111111  0.4444444444444444  0.0217391304347826
  0.5555555555555556  0.8888888888888887  0.0108695652173913
  0.7777777777777778  0.1111111111111111  0.0217391304347826
  0.1111111111111111  0.1111111111111111  0.0217391304347826
  0.6666666666666666  0.6666666666666666  0.0163043478260870
  0.3333333333333333  0.6666666666666666  0.0163043478260870
  0.0000000000000000  0.6666666666666666  0.0163043478260870
  0.6666666666666666  0.3333333333333333  0.0163043478260870
  0.3333333333333333  0.3333333333333333  0.0163043478260870
  0.0000000000000000  0.3333333333333333  0.0163043478260870
  0.6666666666666666  0.0000000000000000  0.0163043478260870
  0.3333333333333333  0.0000000000000000  0.0163043478260870
  0.0000000000000000  0.0000000000000000  0.0163043478260870
  0.4444444444444444  0.1111111111111111  0.0217391304347826
  0.8888888888888887  0.2222222222222222  0.0597826086956522
  0.2222222222222222  0.5555555555555556  0.0597826086956522
  0.5555555555555555  0.5555555555555556  0.0597826086956522
  0.1111111111111111  0.7777777777777777  0.1032608695652174
  0.7777777777777778  0.4444444444444444  0.1032608695652174
  0.4444444444444444  0.4444444444444444  0.1032608695652174
  0.1111111111111111  0.4444444444444444  0.1032608695652174
  0.7777777777777778  0.1111111111111111  0.1032608695652174
  0.4444444444444444  0.1111111111111111  0.1032608695652174
  0.1111111111111111  0.1111111111111111  0.1032608695652174
  0.6666666666666666  0.6666666666666666  0.0978260869565217
  0.3333333333333333  0.6666666666666666  0.0978260869565217
  0.0000000000000000  0.6666666666666666  0.0978260869565217
  0.4444444444444444  0.7777777777777777  0.1032608695652174
  0.6666666666666666  0.3333333333333333  0.0978260869565217
  0.0000000000000000  0.3333333333333333  0.0978260869565217
  0.6666666666666666  0.0000000000000000  0.0978260869565217
  0.3333333333333333  0.0000000000000000  0.0978260869565217
  0.0000000000000000  0.0000000000000000  0.0978260869565217
  0.8888888888888888  0.8888888888888887  0.0923913043478261
  0.5555555555555556  0.8888888888888887  0.0923913043478261
  0.2222222222222223  0.8888888888888887  0.0923913043478261
  0.8888888888888887  0.5555555555555556  0.0923913043478261
  0.5555555555555555  0.5555555555555556  0.0923913043478261
  0.2222222222222222  0.5555555555555556  0.0923913043478261
  0.3333333333333333  0.3333333333333333  0.0978260869565217
  0.8888888888888887  0.2222222222222222  0.0923913043478261
  0.7777777777777778  0.7777777777777777  0.1032608695652174
  0.5555555555555556  0.2222222222222222  0.1086956521739130
  0.7777777777777778  0.4444444444444444  0.1195652173913044
  0.4444444444444444  0.4444444444444444  0.1195652173913044
  0.1111111111111111  0.4444444444444444  0.1195652173913044
  0.7777777777777778  0.1111111111111111  0.1195652173913044
  0.4444444444444444  0.1111111111111111  0.1195652173913044
  0.1111111111111111  0.1111111111111111  0.1195652173913044
  0.6666666666666666  0.6666666666666666  0.1141304347826087
  0.3333333333333333  0.6666666666666666  0.1141304347826087
  0.0000000000000000  0.6666666666666666  0.1141304347826087
  0.6666666666666666  0.3333333333333333  0.1141304347826087
  0.2222222222222222  0.2222222222222222  0.1086956521739130
  0.3333333333333333  0.3333333333333333  0.1141304347826087
  0.6666666666666666  0.0000000000000000  0.1141304347826087
  0.3333333333333333  0.0000000000000000  0.1141304347826087
  0.0000000000000000  0.0000000000000000  0.1141304347826087
  0.8888888888888888  0.8888888888888887  0.1086956521739130
  0.5555555555555556  0.8888888888888887  0.1086956521739130
  0.2222222222222223  0.8888888888888887  0.1086956521739130
  0.8888888888888887  0.5555555555555556  0.1086956521739130
  0.5555555555555555  0.5555555555555556  0.1086956521739130
  0.2222222222222222  0.5555555555555556  0.1086956521739130
  0.8888888888888887  0.2222222222222222  0.1086956521739130
  0.0000000000000000  0.3333333333333333  0.1141304347826087
  0.4444444444444444  0.7777777777777777  0.1195652173913044
  0.5555555555555556  0.2222222222222222  0.0923913043478261
  0.7777777777777778  0.7777777777777777  0.0869565217391304
  0.7777777777777778  0.7777777777777777  0.0706521739130435
  0.4444444444444444  0.7777777777777777  0.0706521739130435
  0.1111111111111111  0.7777777777777777  0.0706521739130435
  0.7777777777777778  0.4444444444444444  0.0706521739130435
  0.4444444444444444  0.4444444444444444  0.0706521739130435
  0.1111111111111111  0.4444444444444444  0.0706521739130435
  0.7777777777777778  0.1111111111111111  0.0706521739130435
  0.4444444444444444  0.1111111111111111  0.0706521739130435
  0.1111111111111111  0.1111111111111111  0.0706521739130435
  0.6666666666666666  0.6666666666666666  0.0652173913043478
  0.2222222222222222  0.2222222222222222  0.0760869565217391
  0.3333333333333333  0.6666666666666666  0.0652173913043478
  0.6666666666666666  0.3333333333333333  0.0652173913043478
  0.3333333333333333  0.3333333333333333  0.0652173913043478
  0.0000000000000000  0.3333333333333333  0.0652173913043478
  0.6666666666666666  0.0000000000000000  0.0652173913043478
  0.3333333333333333  0.0000000000000000  0.0652173913043478
  0.0000000000000000  0.0000000000000000  0.0652173913043478
  0.8888888888888888  0.8888888888888887  0.0597826086956522
  0.5555555555555556  0.8888888888888887  0.0597826086956522
  0.2222222222222223  0.8888888888888887  0.0597826086956522
  0.8888888888888887  0.5555555555555556  0.0597826086956522
  0.0000000000000000  0.6666666666666666  0.0652173913043478
  0.2222222222222222  0.2222222222222222  0.0923913043478261
  0.5555555555555556  0.2222222222222222  0.0760869565217391
  0.2222222222222222  0.5555555555555556  0.0760869565217391
  0.4444444444444444  0.7777777777777777  0.0869565217391304
  0.1111111111111111  0.7777777777777777  0.0869565217391304
  0.7777777777777778  0.4444444444444444  0.0869565217391304
  0.4444444444444444  0.4444444444444444  0.0869565217391304
  0.1111111111111111  0.4444444444444444  0.0869565217391304
  0.7777777777777778  0.1111111111111111  0.0869565217391304
  0.4444444444444444  0.1111111111111111  0.0869565217391304
  0.1111111111111111  0.1111111111111111  0.0869565217391304
  0.6666666666666666  0.6666666666666666  0.0815217391304348
  0.3333333333333333  0.6666666666666666  0.0815217391304348
  0.8888888888888887  0.2222222222222222  0.0760869565217391
  0.0000000000000000  0.6666666666666666  0.0815217391304348
  0.3333333333333333  0.3333333333333333  0.0815217391304348
  0.0000000000000000  0.3333333333333333  0.0815217391304348
  0.6666666666666666  0.0000000000000000  0.0815217391304348
  0.3333333333333333  0.0000000000000000  0.0815217391304348
  0.0000000000000000  0.0000000000000000  0.0815217391304348
  0.8888888888888888  0.8888888888888887  0.0760869565217391
  0.5555555555555556  0.8888888888888887  0.0760869565217391
  0.2222222222222223  0.8888888888888887  0.0760869565217391
  0.8888888888888887  0.5555555555555556  0.0760869565217391
  0.5555555555555555  0.5555555555555556  0.0760869565217391
  0.6666666666666666  0.3333333333333333  0.0815217391304348
  0.3333333333333333  0.6666666666666666  0.2445652173913044
  0.6666666666666666  0.6666666666666666  0.2445652173913044
  0.2222222222222222  0.2222222222222222  0.2500000000000000
  0.7777777777777778  0.1111111111111111  0.4184782608695652
  0.4444444444444444  0.1111111111111111  0.4184782608695652
  0.1111111111111111  0.1111111111111111  0.4184782608695652
  0.8888888888888888  0.8888888888888887  0.4130434782608696
  0.5555555555555556  0.8888888888888887  0.4130434782608696
  0.2222222222222223  0.8888888888888887  0.4130434782608696
  0.8888888888888887  0.5555555555555556  0.4130434782608696
  0.5555555555555555  0.5555555555555556  0.4130434782608696
  0.2222222222222222  0.5555555555555556  0.4130434782608696
  0.8888888888888887  0.2222222222222222  0.4130434782608696
  0.5555555555555556  0.2222222222222222  0.4130434782608696
  0.2222222222222222  0.2222222222222222  0.4130434782608696
  0.6666666666666666  0.6666666666666666  0.4076086956521739
  0.3333333333333333  0.6666666666666666  0.4076086956521739
  0.0000000000000000  0.6666666666666666  0.4076086956521739
  0.6666666666666666  0.3333333333333333  0.4076086956521739
  0.3333333333333333  0.3333333333333333  0.4076086956521739
  0.0000000000000000  0.3333333333333333  0.4076086956521739
  0.6666666666666666  0.0000000000000000  0.4076086956521739
  0.3333333333333333  0.0000000000000000  0.4076086956521739
  0.0000000000000000  0.0000000000000000  0.4076086956521739
  0.1111111111111111  0.4444444444444444  0.4184782608695652
  0.4444444444444444  0.4444444444444444  0.4184782608695652
  0.7777777777777778  0.4444444444444444  0.4184782608695652
  0.1111111111111111  0.7777777777777777  0.4184782608695652
  0.4444444444444444  0.1111111111111111  0.4347826086956522
  0.1111111111111111  0.1111111111111111  0.4347826086956522
  0.8888888888888888  0.8888888888888887  0.4293478260869565
  0.5555555555555556  0.8888888888888887  0.4293478260869565
  0.2222222222222223  0.8888888888888887  0.4293478260869565
  0.8888888888888887  0.5555555555555556  0.4293478260869565
  0.5555555555555555  0.5555555555555556  0.4293478260869565
  0.2222222222222222  0.5555555555555556  0.4293478260869565
  0.8888888888888887  0.2222222222222222  0.4293478260869565
  0.5555555555555556  0.2222222222222222  0.4293478260869565
  0.7777777777777778  0.7777777777777777  0.4021739130434782
  0.2222222222222222  0.2222222222222222  0.4293478260869565
  0.3333333333333333  0.6666666666666666  0.4239130434782609
  0.0000000000000000  0.6666666666666666  0.4239130434782609
  0.6666666666666666  0.3333333333333333  0.4239130434782609
  0.3333333333333333  0.3333333333333333  0.4239130434782609
  0.0000000000000000  0.3333333333333333  0.4239130434782609
  0.6666666666666666  0.0000000000000000  0.4239130434782609
  0.3333333333333333  0.0000000000000000  0.4239130434782609
  0.0000000000000000  0.0000000000000000  0.4239130434782609
  0.7777777777777778  0.7777777777777777  0.4184782608695652
  0.4444444444444444  0.7777777777777777  0.4184782608695652
  0.6666666666666666  0.6666666666666666  0.4239130434782609
  0.4444444444444444  0.7777777777777777  0.4021739130434782
  0.1111111111111111  0.7777777777777777  0.4021739130434782
  0.7777777777777778  0.4444444444444444  0.4021739130434782
  0.7777777777777778  0.4444444444444444  0.3858695652173913
  0.4444444444444444  0.4444444444444444  0.3858695652173913
  0.1111111111111111  0.4444444444444444  0.3858695652173913
  0.7777777777777778  0.1111111111111111  0.3858695652173913
  0.4444444444444444  0.1111111111111111  0.3858695652173913
  0.1111111111111111  0.1111111111111111  0.3858695652173913
  0.8888888888888888  0.8888888888888887  0.3804347826086956
  0.5555555555555556  0.8888888888888887  0.3804347826086956
  0.2222222222222223  0.8888888888888887  0.3804347826086956
  0.8888888888888887  0.5555555555555556  0.3804347826086956
  0.1111111111111111  0.7777777777777777  0.3858695652173913
  0.5555555555555555  0.5555555555555556  0.3804347826086956
  0.8888888888888887  0.2222222222222222  0.3804347826086956
  0.5555555555555556  0.2222222222222222  0.3804347826086956
  0.2222222222222222  0.2222222222222222  0.3804347826086956
  0.6666666666666666  0.6666666666666666  0.3750000000000000
  0.3333333333333333  0.6666666666666666  0.3750000000000000
  0.0000000000000000  0.6666666666666666  0.3750000000000000
  0.6666666666666666  0.3333333333333333  0.3750000000000000
  0.3333333333333333  0.3333333333333333  0.3750000000000000
  0.0000000000000000  0.3333333333333333  0.3750000000000000
  0.6666666666666666  0.0000000000000000  0.3750000000000000
  0.2222222222222222  0.5555555555555556  0.3804347826086956
  0.7777777777777778  0.1111111111111111  0.4347826086956522
  0.4444444444444444  0.7777777777777777  0.3858695652173913
  0.0000000000000000  0.0000000000000000  0.3913043478260870
  0.4444444444444444  0.4444444444444444  0.4021739130434782
  0.1111111111111111  0.4444444444444444  0.4021739130434782
  0.7777777777777778  0.1111111111111111  0.4021739130434782
  0.4444444444444444  0.1111111111111111  0.4021739130434782
  0.1111111111111111  0.1111111111111111  0.4021739130434782
  0.8888888888888888  0.8888888888888887  0.3967391304347827
  0.5555555555555556  0.8888888888888887  0.3967391304347827
  0.2222222222222223  0.8888888888888887  0.3967391304347827
  0.8888888888888887  0.5555555555555556  0.3967391304347827
  0.5555555555555555  0.5555555555555556  0.3967391304347827
  0.7777777777777778  0.7777777777777777  0.3858695652173913
  0.2222222222222222  0.5555555555555556  0.3967391304347827
  0.5555555555555556  0.2222222222222222  0.3967391304347827
  0.2222222222222222  0.2222222222222222  0.3967391304347827
  0.6666666666666666  0.6666666666666666  0.3913043478260870
  0.3333333333333333  0.6666666666666666  0.3913043478260870
  0.0000000000000000  0.6666666666666666  0.3913043478260870
  0.6666666666666666  0.3333333333333333  0.3913043478260870
  0.3333333333333333  0.3333333333333333  0.3913043478260870
  0.0000000000000000  0.3333333333333333  0.3913043478260870
  0.6666666666666666  0.0000000000000000  0.3913043478260870
  0.3333333333333333  0.0000000000000000  0.3913043478260870
  0.8888888888888887  0.2222222222222222  0.3967391304347827
  0.1111111111111111  0.4444444444444444  0.4347826086956522
  0.4444444444444444  0.4444444444444444  0.4347826086956522
  0.7777777777777778  0.4444444444444444  0.4347826086956522
  0.5555555555555556  0.8888888888888887  0.4782608695652174
  0.2222222222222223  0.8888888888888887  0.4782608695652174
  0.8888888888888887  0.5555555555555556  0.4782608695652174
  0.5555555555555555  0.5555555555555556  0.4782608695652174
  0.2222222222222222  0.5555555555555556  0.4782608695652174
  0.8888888888888887  0.2222222222222222  0.4782608695652174
  0.5555555555555556  0.2222222222222222  0.4782608695652174
  0.2222222222222222  0.2222222222222222  0.4782608695652174
  0.6666666666666666  0.6666666666666666  0.4728260869565217
  0.3333333333333333  0.6666666666666666  0.4728260869565217
  0.8888888888888888  0.8888888888888887  0.4782608695652174
  0.0000000000000000  0.6666666666666666  0.4728260869565217
  0.3333333333333333  0.3333333333333333  0.4728260869565217
  0.0000000000000000  0.3333333333333333  0.4728260869565217
  0.6666666666666666  0.0000000000000000  0.4728260869565217
  0.3333333333333333  0.0000000000000000  0.4728260869565217
  0.0000000000000000  0.0000000000000000  0.4728260869565217
  0.7777777777777778  0.7777777777777777  0.4673913043478261
  0.4444444444444444  0.7777777777777777  0.4673913043478261
  0.1111111111111111  0.7777777777777777  0.4673913043478261
  0.7777777777777778  0.4444444444444444  0.4673913043478261
  0.4444444444444444  0.4444444444444444  0.4673913043478261
  0.6666666666666666  0.3333333333333333  0.4728260869565217
  0.1111111111111111  0.4444444444444444  0.4673913043478261
  0.1111111111111111  0.1111111111111111  0.4836956521739131
  0.7777777777777778  0.1111111111111111  0.4836956521739131
  0.2222222222222223  0.8888888888888887  0.4945652173913043
  0.8888888888888887  0.5555555555555556  0.4945652173913043
  0.5555555555555555  0.5555555555555556  0.4945652173913043
  0.2222222222222222  0.5555555555555556  0.4945652173913043
  0.8888888888888887  0.2222222222222222  0.4945652173913043
  0.5555555555555556  0.2222222222222222  0.4945652173913043
  0.2222222222222222  0.2222222222222222  0.4945652173913043
  0.6666666666666666  0.6666666666666666  0.4891304347826088
  0.3333333333333333  0.6666666666666666  0.4891304347826088
  0.0000000000000000  0.6666666666666666  0.4891304347826088
  0.4444444444444444  0.1111111111111111  0.4836956521739131
  0.6666666666666666  0.3333333333333333  0.4891304347826088
  0.0000000000000000  0.3333333333333333  0.4891304347826088
  0.6666666666666666  0.0000000000000000  0.4891304347826088
  0.3333333333333333  0.0000000000000000  0.4891304347826088
  0.0000000000000000  0.0000000000000000  0.4891304347826088
  0.7777777777777778  0.7777777777777777  0.4836956521739131
  0.4444444444444444  0.7777777777777777  0.4836956521739131
  0.1111111111111111  0.7777777777777777  0.4836956521739131
  0.7777777777777778  0.4444444444444444  0.4836956521739131
  0.4444444444444444  0.4444444444444444  0.4836956521739131
  0.1111111111111111  0.4444444444444444  0.4836956521739131
  0.3333333333333333  0.3333333333333333  0.4891304347826088
  0.3333333333333333  0.0000000000000000  0.3750000000000000
  0.7777777777777778  0.1111111111111111  0.4673913043478261
  0.1111111111111111  0.1111111111111111  0.4673913043478261
  0.1111111111111111  0.1111111111111111  0.4510869565217391
  0.8888888888888888  0.8888888888888887  0.4456521739130435
  0.5555555555555556  0.8888888888888887  0.4456521739130435
  0.2222222222222223  0.8888888888888887  0.4456521739130435
  0.8888888888888887  0.5555555555555556  0.4456521739130435
  0.5555555555555555  0.5555555555555556  0.4456521739130435
  0.2222222222222222  0.5555555555555556  0.4456521739130435
  0.8888888888888887  0.2222222222222222  0.4456521739130435
  0.5555555555555556  0.2222222222222222  0.4456521739130435
  0.2222222222222222  0.2222222222222222  0.4456521739130435
  0.4444444444444444  0.1111111111111111  0.4510869565217391
  0.6666666666666666  0.6666666666666666  0.4402173913043478
  0.0000000000000000  0.6666666666666666  0.4402173913043478
  0.6666666666666666  0.3333333333333333  0.4402173913043478
  0.3333333333333333  0.3333333333333333  0.4402173913043478
  0.0000000000000000  0.3333333333333333  0.4402173913043478
  0.6666666666666666  0.0000000000000000  0.4402173913043478
  0.3333333333333333  0.0000000000000000  0.4402173913043478
  0.0000000000000000  0.0000000000000000  0.4402173913043478
  0.7777777777777778  0.7777777777777777  0.4347826086956522
  0.4444444444444444  0.7777777777777777  0.4347826086956522
  0.1111111111111111  0.7777777777777777  0.4347826086956522
  0.3333333333333333  0.6666666666666666  0.4402173913043478
  0.4444444444444444  0.1111111111111111  0.4673913043478261
  0.7777777777777778  0.1111111111111111  0.4510869565217391
  0.4444444444444444  0.4444444444444444  0.4510869565217391
  0.8888888888888888  0.8888888888888887  0.4619565217391304
  0.5555555555555556  0.8888888888888887  0.4619565217391304
  0.2222222222222223  0.8888888888888887  0.4619565217391304
  0.8888888888888887  0.5555555555555556  0.4619565217391304
  0.5555555555555555  0.5555555555555556  0.4619565217391304
  0.2222222222222222  0.5555555555555556  0.4619565217391304
  0.8888888888888887  0.2222222222222222  0.4619565217391304
  0.5555555555555556  0.2222222222222222  0.4619565217391304
  0.2222222222222222  0.2222222222222222  0.4619565217391304
  0.6666666666666666  0.6666666666666666  0.4565217391304348
  0.1111111111111111  0.4444444444444444  0.4510869565217391
  0.3333333333333333  0.6666666666666666  0.4565217391304348
  0.6666666666666666  0.3333333333333333  0.4565217391304348
  0.3333333333333333  0.3333333333333333  0.4565217391304348
  0.0000000000000000  0.3333333333333333  0.4565217391304348
  0.6666666666666666  0.0000000000000000  0.4565217391304348
  0.3333333333333333  0.0000000000000000  0.4565217391304348
  0.0000000000000000  0.0000000000000000  0.4565217391304348
  0.7777777777777778  0.7777777777777777  0.4510869565217391
  0.4444444444444444  0.7777777777777777  0.4510869565217391
  0.1111111111111111  0.7777777777777777  0.4510869565217391
  0.7777777777777778  0.4444444444444444  0.4510869565217391
  0.0000000000000000  0.6666666666666666  0.4565217391304348
  0.0000000000000000  0.0000000000000000  0.3750000000000000
  0.7777777777777778  0.7777777777777777  0.3695652173913043
  0.4444444444444444  0.7777777777777777  0.3695652173913043
  0.6666666666666666  0.0000000000000000  0.2934782608695652
  0.3333333333333333  0.0000000000000000  0.2934782608695652
  0.0000000000000000  0.0000000000000000  0.2934782608695652
  0.7777777777777778  0.7777777777777777  0.2880434782608696
  0.4444444444444444  0.7777777777777777  0.2880434782608696
  0.1111111111111111  0.7777777777777777  0.2880434782608696
  0.7777777777777778  0.4444444444444444  0.2880434782608696
  0.4444444444444444  0.4444444444444444  0.2880434782608696
  0.1111111111111111  0.4444444444444444  0.2880434782608696
  0.7777777777777778  0.1111111111111111  0.2880434782608696
  0.0000000000000000  0.3333333333333333  0.2934782608695652
  0.4444444444444444  0.1111111111111111  0.2880434782608696
  0.8888888888888888  0.8888888888888887  0.2826086956521739
  0.5555555555555556  0.8888888888888887  0.2826086956521739
  0.2222222222222223  0.8888888888888887  0.2826086956521739
  0.8888888888888887  0.5555555555555556  0.2826086956521739
  0.5555555555555555  0.5555555555555556  0.2826086956521739
  0.2222222222222222  0.5555555555555556  0.2826086956521739
  0.8888888888888887  0.2222222222222222  0.2826086956521739
  0.5555555555555556  0.2222222222222222  0.2826086956521739
  0.2222222222222222  0.2222222222222222  0.2826086956521739
  0.6666666666666666  0.6666666666666666  0.2771739130434783
  0.1111111111111111  0.1111111111111111  0.2880434782608696
  0.3333333333333333  0.6666666666666666  0.2771739130434783
  0.3333333333333333  0.3333333333333333  0.2934782608695652
  0.0000000000000000  0.6666666666666666  0.2934782608695652
  0.3333333333333333  0.0000000000000000  0.3097826086956522
  0.0000000000000000  0.0000000000000000  0.3097826086956522
  0.7777777777777778  0.7777777777777777  0.3043478260869565
  0.4444444444444444  0.7777777777777777  0.3043478260869565
  0.1111111111111111  0.7777777777777777  0.3043478260869565
  0.7777777777777778  0.4444444444444444  0.3043478260869565
  0.4444444444444444  0.4444444444444444  0.3043478260869565
  0.1111111111111111  0.4444444444444444  0.3043478260869565
  0.7777777777777778  0.1111111111111111  0.3043478260869565
  0.4444444444444444  0.1111111111111111  0.3043478260869565
  0.6666666666666666  0.3333333333333333  0.2934782608695652
  0.1111111111111111  0.1111111111111111  0.3043478260869565
  0.5555555555555556  0.8888888888888887  0.2989130434782609
  0.2222222222222223  0.8888888888888887  0.2989130434782609
  0.8888888888888887  0.5555555555555556  0.2989130434782609
  0.5555555555555555  0.5555555555555556  0.2989130434782609
  0.2222222222222222  0.5555555555555556  0.2989130434782609
  0.8888888888888887  0.2222222222222222  0.2989130434782609
  0.5555555555555556  0.2222222222222222  0.2989130434782609
  0.2222222222222222  0.2222222222222222  0.2989130434782609
  0.6666666666666666  0.6666666666666666  0.2934782608695652
  0.3333333333333333  0.6666666666666666  0.2934782608695652
  0.8888888888888888  0.8888888888888887  0.2989130434782609
  0.6666666666666666  0.0000000000000000  0.3097826086956522
  0.0000000000000000  0.6666666666666666  0.2771739130434783
  0.3333333333333333  0.3333333333333333  0.2771739130434783
  0.3333333333333333  0.3333333333333333  0.2608695652173913
  0.0000000000000000  0.3333333333333333  0.2608695652173913
  0.6666666666666666  0.0000000000000000  0.2608695652173913
  0.3333333333333333  0.0000000000000000  0.2608695652173913
  0.0000000000000000  0.0000000000000000  0.2608695652173913
  0.7777777777777778  0.7777777777777777  0.2554347826086956
  0.4444444444444444  0.7777777777777777  0.2554347826086956
  0.1111111111111111  0.7777777777777777  0.2554347826086956
  0.7777777777777778  0.4444444444444444  0.2554347826086956
  0.4444444444444444  0.4444444444444444  0.2554347826086956
  0.6666666666666666  0.3333333333333333  0.2608695652173913
  0.1111111111111111  0.4444444444444444  0.2554347826086956
  0.4444444444444444  0.1111111111111111  0.2554347826086956
  0.1111111111111111  0.1111111111111111  0.2554347826086956
  0.8888888888888888  0.8888888888888887  0.2500000000000000
  0.5555555555555556  0.8888888888888887  0.2500000000000000
  0.2222222222222223  0.8888888888888887  0.2500000000000000
  0.8888888888888887  0.5555555555555556  0.2500000000000000
  0.5555555555555555  0.5555555555555556  0.2500000000000000
  0.2222222222222222  0.5555555555555556  0.2500000000000000
  0.8888888888888887  0.2222222222222222  0.2500000000000000
  0.5555555555555556  0.2222222222222222  0.2500000000000000
  0.7777777777777778  0.1111111111111111  0.2554347826086956
  0.6666666666666666  0.3333333333333333  0.2771739130434783
  0.0000000000000000  0.6666666666666666  0.2608695652173913
  0.6666666666666666  0.6666666666666666  0.2608695652173913
  0.0000000000000000  0.3333333333333333  0.2771739130434783
  0.6666666666666666  0.0000000000000000  0.2771739130434783
  0.3333333333333333  0.0000000000000000  0.2771739130434783
  0.0000000000000000  0.0000000000000000  0.2771739130434783
  0.7777777777777778  0.7777777777777777  0.2717391304347826
  0.4444444444444444  0.7777777777777777  0.2717391304347826
  0.1111111111111111  0.7777777777777777  0.2717391304347826
  0.7777777777777778  0.4444444444444444  0.2717391304347826
  0.4444444444444444  0.4444444444444444  0.2717391304347826
  0.1111111111111111  0.4444444444444444  0.2717391304347826
  0.3333333333333333  0.6666666666666666  0.2608695652173913
  0.7777777777777778  0.1111111111111111  0.2717391304347826
  0.1111111111111111  0.1111111111111111  0.2717391304347826
  0.8888888888888888  0.8888888888888887  0.2663043478260870
  0.5555555555555556  0.8888888888888887  0.2663043478260870
  0.2222222222222223  0.8888888888888887  0.2663043478260870
  0.8888888888888887  0.5555555555555556  0.2663043478260870
  0.5555555555555555  0.5555555555555556  0.2663043478260870
  0.2222222222222222  0.5555555555555556  0.2663043478260870
  0.8888888888888887  0.2222222222222222  0.2663043478260870
  0.5555555555555556  0.2222222222222222  0.2663043478260870
  0.2222222222222222  0.2222222222222222  0.2663043478260870
  0.4444444444444444  0.1111111111111111  0.2717391304347826
  0.5555555555555556  0.8888888888888887  0.9945652173913043
  0.0000000000000000  0.3333333333333333  0.3097826086956522
  0.6666666666666666  0.3333333333333333  0.3097826086956522
  0.4444444444444444  0.7777777777777777  0.3532608695652174
  0.1111111111111111  0.7777777777777777  0.3532608695652174
  0.7777777777777778  0.4444444444444444  0.3532608695652174
  0.4444444444444444  0.4444444444444444  0.3532608695652174
  0.1111111111111111  0.4444444444444444  0.3532608695652174
  0.7777777777777778  0.1111111111111111  0.3532608695652174
  0.4444444444444444  0.1111111111111111  0.3532608695652174
  0.1111111111111111  0.1111111111111111  0.3532608695652174
  0.8888888888888888  0.8888888888888887  0.3478260869565217
  0.5555555555555556  0.8888888888888887  0.3478260869565217
  0.7777777777777778  0.7777777777777777  0.3532608695652174
  0.2222222222222223  0.8888888888888887  0.3478260869565217
  0.5555555555555555  0.5555555555555556  0.3478260869565217
  0.2222222222222222  0.5555555555555556  0.3478260869565217
  0.8888888888888887  0.2222222222222222  0.3478260869565217
  0.5555555555555556  0.2222222222222222  0.3478260869565217
  0.2222222222222222  0.2222222222222222  0.3478260869565217
  0.6666666666666666  0.6666666666666666  0.3423913043478261
  0.3333333333333333  0.6666666666666666  0.3423913043478261
  0.0000000000000000  0.6666666666666666  0.3423913043478261
  0.6666666666666666  0.3333333333333333  0.3423913043478261
  0.3333333333333333  0.3333333333333333  0.3423913043478261
  0.8888888888888887  0.5555555555555556  0.3478260869565217
  0.0000000000000000  0.3333333333333333  0.3423913043478261
  0.0000000000000000  0.0000000000000000  0.3586956521739131
  0.6666666666666666  0.0000000000000000  0.3586956521739131
  0.1111111111111111  0.7777777777777777  0.3695652173913043
  0.7777777777777778  0.4444444444444444  0.3695652173913043
  0.4444444444444444  0.4444444444444444  0.3695652173913043
  0.1111111111111111  0.4444444444444444  0.3695652173913043
  0.7777777777777778  0.1111111111111111  0.3695652173913043
  0.4444444444444444  0.1111111111111111  0.3695652173913043
  0.1111111111111111  0.1111111111111111  0.3695652173913043
  0.8888888888888888  0.8888888888888887  0.3641304347826086
  0.5555555555555556  0.8888888888888887  0.3641304347826086
  0.2222222222222223  0.8888888888888887  0.3641304347826086
  0.3333333333333333  0.0000000000000000  0.3586956521739131
  0.8888888888888887  0.5555555555555556  0.3641304347826086
  0.2222222222222222  0.5555555555555556  0.3641304347826086
  0.8888888888888887  0.2222222222222222  0.3641304347826086
  0.5555555555555556  0.2222222222222222  0.3641304347826086
  0.2222222222222222  0.2222222222222222  0.3641304347826086
  0.6666666666666666  0.6666666666666666  0.3586956521739131
  0.3333333333333333  0.6666666666666666  0.3586956521739131
  0.0000000000000000  0.6666666666666666  0.3586956521739131
  0.6666666666666666  0.3333333333333333  0.3586956521739131
  0.3333333333333333  0.3333333333333333  0.3586956521739131
  0.0000000000000000  0.3333333333333333  0.3586956521739131
  0.5555555555555555  0.5555555555555556  0.3641304347826086
  0.3333333333333333  0.3333333333333333  0.3097826086956522
  0.6666666666666666  0.0000000000000000  0.3423913043478261
  0.0000000000000000  0.0000000000000000  0.3423913043478261
  0.0000000000000000  0.0000000000000000  0.3260869565217391
  0.7777777777777778  0.7777777777777777  0.3206521739130435
  0.4444444444444444  0.7777777777777777  0.3206521739130435
  0.1111111111111111  0.7777777777777777  0.3206521739130435
  0.7777777777777778  0.4444444444444444  0.3206521739130435
  0.4444444444444444  0.4444444444444444  0.3206521739130435
  0.1111111111111111  0.4444444444444444  0.3206521739130435
  0.7777777777777778  0.1111111111111111  0.3206521739130435
  0.4444444444444444  0.1111111111111111  0.3206521739130435
  0.1111111111111111  0.1111111111111111  0.3206521739130435
  0.3333333333333333  0.0000000000000000  0.3260869565217391
  0.8888888888888888  0.8888888888888887  0.3152173913043478
  0.2222222222222223  0.8888888888888887  0.3152173913043478
  0.8888888888888887  0.5555555555555556  0.3152173913043478
  0.5555555555555555  0.5555555555555556  0.3152173913043478
  0.2222222222222222  0.5555555555555556  0.3152173913043478
  0.8888888888888887  0.2222222222222222  0.3152173913043478
  0.5555555555555556  0.2222222222222222  0.3152173913043478
  0.2222222222222222  0.2222222222222222  0.3152173913043478
  0.6666666666666666  0.6666666666666666  0.3097826086956522
  0.3333333333333333  0.6666666666666666  0.3097826086956522
  0.0000000000000000  0.6666666666666666  0.3097826086956522
  0.5555555555555556  0.8888888888888887  0.3152173913043478
  0.3333333333333333  0.0000000000000000  0.3423913043478261
  0.6666666666666666  0.0000000000000000  0.3260869565217391
  0.3333333333333333  0.3333333333333333  0.3260869565217391
  0.7777777777777778  0.7777777777777777  0.3369565217391305
  0.4444444444444444  0.7777777777777777  0.3369565217391305
  0.1111111111111111  0.7777777777777777  0.3369565217391305
  0.7777777777777778  0.4444444444444444  0.3369565217391305
  0.4444444444444444  0.4444444444444444  0.3369565217391305
  0.1111111111111111  0.4444444444444444  0.3369565217391305
  0.7777777777777778  0.1111111111111111  0.3369565217391305
  0.4444444444444444  0.1111111111111111  0.3369565217391305
  0.1111111111111111  0.1111111111111111  0.3369565217391305
  0.8888888888888888  0.8888888888888887  0.3315217391304348
  0.0000000000000000  0.3333333333333333  0.3260869565217391
  0.5555555555555556  0.8888888888888887  0.3315217391304348
  0.8888888888888887  0.5555555555555556  0.3315217391304348
  0.5555555555555555  0.5555555555555556  0.3315217391304348
  0.2222222222222222  0.5555555555555556  0.3315217391304348
  0.8888888888888887  0.2222222222222222  0.3315217391304348
  0.5555555555555556  0.2222222222222222  0.3315217391304348
  0.2222222222222222  0.2222222222222222  0.3315217391304348
  0.6666666666666666  0.6666666666666666  0.3260869565217391
  0.3333333333333333  0.6666666666666666  0.3260869565217391
  0.0000000000000000  0.6666666666666666  0.3260869565217391
  0.6666666666666666  0.3333333333333333  0.3260869565217391
  0.2222222222222223  0.8888888888888887  0.3315217391304348
  0.8888888888888888  0.8888888888888887  0.9945652173913043
