Cu
 1.0000000000000000
     7.6685730419681093    0.0000000000000000    0.0000000000000000
     0.0000000000000000    8.8549054201611881    0.0000000000000000
     0.0000000000000000    0.0000000000000000   25.0454546774459672
 Cu 
 144
Direct
  0.1655954360775376  0.0850551311572619  0.0002417137720119
  0.6659294139568420  0.8154219075321609  0.5839480870109979
  0.1643866936520124  0.0675359129980882  0.5840676094856591
  0.4988143010825764  0.0653859845758194  0.5831832598695958
  0.8336055967501301  0.0663659861448459  0.5829111976620547
  0.0014491393032099  0.1522328856209663  0.6662580026774376
  0.3346756756838830  0.1486276904056913  0.6665916644030143
  0.3334538258745221  0.8164336811877111  0.5831148419729487
  0.6669702166435809  0.1489853646565867  0.6669161261511182
  0.5017528069881050  0.4002104582996564  0.6668970623412139
  0.8343237359582796  0.4000448249923623  0.6664038817603352
 -0.0019034815420037  0.6508597615262239  0.6662223528648256
  0.3332907541579723  0.6493432488277033  0.6661627129779149
  0.6668759513371669  0.6521656904485771  0.6665342207749059
  0.1669563945977739  0.9003792718246821  0.6663713917403585
  0.1678930699902583  0.3994919055294249  0.6664491297185167
  0.4981359412288646  0.8990807811939648  0.6672401781328565
 -0.0011905505592954  0.8156239724159757  0.5827940161870806
  0.5022352862576398  0.5667297826877592  0.5839890345067119
  0.8356380590235029  0.2342573133126859  0.5001742106244235
  0.0016507615982996  0.4831923156604455  0.5002469650001693
  0.3313701348122839  0.4833000040640008  0.4996865174501126
  0.6658443110275228  0.4852217992884507  0.5007448555667314
  0.1692088574377298  0.7342416307661489  0.4994510404079726
  0.4977941192763451  0.7341628330084902  0.4995986127476991
  0.8332105640794578  0.5677523988949071  0.5829718643237910
  0.8348108262109869  0.7343884738556695  0.5000297108927982
  0.3329160465286597  0.9823495144213344  0.4994472260417415
  0.6653576338355982  0.9823384127583767  0.4998696636782972
 -0.0001807806369503  0.3163170508183644  0.5836754014237814
  0.3345286121148373  0.3157489893073610  0.5834828433125194
  0.6654149897134805  0.3189017783630580  0.5830416249756069
  0.1689142226426822  0.5664191821862633  0.5836321311933753
  0.0023015833473658  0.9814266776366130  0.5000980246592247
  0.4990249704795981  0.2325152338566639  0.5001835935179707
  0.8331402318408198  0.9015109545334178  0.6672504535442110
  0.5011712560399247  0.2329201962039295  0.7502668266869301
  0.6684627556618774  0.8173299863411346  0.8327696642840442
  0.1674938917321617  0.0671318628496107  0.8337185637807839
  0.4986167375519120  0.0671075499170769  0.8329928427088585
  0.8324753878829032  0.0653059060346021  0.8335538273173168
  0.0006355827263730  0.1509388843220362  0.9160334003381283
  0.3332768306884060  0.1478087241785234  0.9174375458810555
  0.3346095627451619  0.8182162477353397  0.8332640796796177
  0.6679466108182074  0.1507537483097528  0.9169028715141977
  0.4995990708368991  0.4006504176374845  0.9172181726120544
  0.8338359425041127  0.4022122031507023  0.9172388240845161
 -0.0009472084884738  0.6484415981365368  0.9163443544696253
  0.3320481969465628  0.6504160932024836  0.9163059014419183
  0.6650195283120268  0.6482681651936456  0.9170362167414169
  0.1652309662733791  0.9008559739925385  0.9161481797570817
  0.1692000286705656  0.3990800557817704  0.9168798954247706
  0.1672039678446287  0.2318596901459901  0.7496922705162304
 -0.0011928246446360  0.8162547170327397  0.8331979213143229
  0.5016709341786302  0.5688240607569394  0.8339026867690487
  0.8315817139811039  0.2353409346617143  0.7507528604486484
  0.0011642185233740  0.4842270491890687  0.7497058468400343
  0.3311474008247980  0.4842427314337118  0.7500880130981563
  0.6671392308503760  0.4848904478965603  0.7500105023364517
  0.1655285613578717  0.7345096644099577  0.7494249859853304
  0.4976837329631815  0.7336830088307011  0.7501247737033035
  0.8353621804073362  0.5682477540302336  0.8332041281063128
  0.8356888630930221  0.7317445468293214  0.7495809523981569
  0.3333654866742599  0.9813019735162282  0.7500000310655407
  0.6682481236549067  0.9811003672890410  0.7498533004366313
 -0.0009549577902560  0.3167902214938215  0.8335848712547967
  0.3350860441249162  0.3159660046233956  0.8325855355826350
  0.6690022259268377  0.3178439933127046  0.8334944024245060
  0.1690780532027654  0.5660578365804813  0.8335330674950564
 -0.0013374572603387  0.9831062583101254  0.7504748201620933
  0.1662887976527447  0.2340569933393559  0.5006158161609047
  0.8313615033161478  0.7510233317701659  0.4174639837182436
  0.4997360397573261  0.7484930183819635  0.4160220805012689
  0.3323873925721427  0.6655747644349236  0.0838944713297662
  0.6657271345999842  0.6674071311992487  0.0840531313376501
  0.1688645736165282  0.9156401259552815  0.0833576096208764
  0.4989813559072925  0.9179029905894306  0.0831984888944503
  0.8330230197516322  0.9164875882207433  0.0829063101995566
  0.0018358622220690 -0.0008940915342199  0.1658799036374890
  0.0024540277366085  0.6688002116512233  0.0839291729597303
  0.3340363333669545 -0.0007767842546307  0.1674590424216216
  0.1689780774987567  0.2509453608293111  0.1666322352504070
  0.4987404435799309  0.2480495783190902  0.1671653411554360
  0.8327074137325089  0.2520262734558135  0.1659988864290737
  0.0017273542950160  0.4992590968491787  0.1670796914019458
  0.3341702968765494  0.4982939137556701  0.1666608902188944
  0.6692739775859444  0.5012128243143565  0.1664035622780080
  0.6686954329760764 -0.0008491284650465  0.1660805284631243
  0.1689846195640027  0.7509669481576183  0.1673902202538164
  0.8357592370030630  0.4167332509162178  0.0831074040575867
  0.1662697141392513  0.4172236586266307  0.0836708518054831
  0.5025997763852650  0.0855112325116634 -0.0005717958516117
  0.8317880021634737  0.0821509687920143 -0.0003743513034388
  0.0010996017941962  0.3311599243777534 -0.0005952665105049
  0.3325571050743382  0.3319477877692387  0.0000009786115568
  0.6660833298738024  0.3311442197312923 -0.0001269537371580
  0.1656276635788859  0.5852359707619179  0.0007565243045844
  0.5018901507856303  0.4161217760909272  0.0833691590967521
  0.5015132458679328  0.5839953689988853  0.0005636927601963
  0.0002521081199294  0.8314433764484416 -0.0002983863741132
  0.3307524380928060  0.8313014670322741 -0.0004407695373473
  0.6687673935388243  0.8343992110121194  0.0002514307601884
 -0.0013857935805581  0.1654963447801839  0.0837706893407318
  0.3309935828661573  0.1665039553359538  0.0829993268551139
  0.6661947502114909  0.1665956243146685  0.0825817069124719
  0.8312816032914202  0.5852125797689441 -0.0001842246152120
  0.5007634424765584  0.7497010390922857  0.1672797530596072
  0.8326430266324127  0.7507730904325108  0.1671415618362434
  0.1669132410061235  0.0854382209341896  0.2503676029141714
  0.6690312325746903  0.6669077555383215  0.3331583106984371
  0.1654834855407319  0.9159238428523405  0.3340159556049764
  0.5008628173859110  0.9152464279175188  0.3332319647581425
  0.8327435550606846  0.9158727307080895  0.3331519840156081
 -0.0015837147317302  0.0007639930672357  0.4161082556674726
  0.3313900257018847  0.0016844085514084  0.4169934887818886
  0.3350185539912713  0.6675202622731964  0.3329637652724070
  0.6657744524830633 -0.0014451202432595  0.4165895435991885
  0.5017752018853199  0.2491393100519630  0.4163319090809037
  0.8334145069431179  0.2517808616102948  0.4171979861970893
 -0.0025491487905749  0.5015645505131776  0.4159870017082429
  0.3317301045791559  0.4998644128483225  0.4159699629390371
  0.6650390436967818  0.5005548818384374  0.4161636582436678
  0.1685050836886473  0.7481646358591247  0.4173528544531233
  0.1690243465466617  0.2485262230187019  0.4161315820577605
 -0.0025870607001943  0.6653823532529007  0.3338754096232670
  0.8321760262559490  0.4168818796645299  0.3339720166438760
  0.5013242010105177  0.4170269951561122  0.3325536279482362
  0.4974112767394138  0.0847032665264674  0.2494801909792356
  0.8345000367076386  0.0839567658761093  0.2503945033549665
  0.0015938883554190  0.3319882058462390  0.2496961418753213
  0.3347536958289943  0.3345243966041682  0.2499558606152310
  0.6691738096891181  0.3316680985561620  0.2500347368099509
  0.1653121129269617  0.5837449778897129  0.2504133071576006
  0.5002114045762829  0.5830130799306243  0.2502343183102144
  0.8331587773387078  0.5846691889141603  0.2502156544672026
  0.0014611399074429  0.8353850225167428  0.2500242712726015
  0.3350327491701485  0.8350079260663533  0.2497191472865521
  0.6642575256494923  0.8344670497100652  0.2495294804963438
  0.0022578510329602  0.1651954258541667  0.3340727497977262
  0.3356776114435617  0.1684014660921031  0.3330118867234625
  0.6668726409192579  0.1672484158235589  0.3325710784876544
  0.1669555853144000  0.4160298122527580  0.3329776131756860
  0.5002028419446957  0.9006167897056744  0.9173225662462785
  0.8344441981582786  0.9017220242024392  0.9167187713509630
