Cu
 1.0000000000000000
     7.6685730419681093    0.0000000000000000    0.0000000000000000
     0.0000000000000000    8.8549054201611881    0.0000000000000000
     0.0000000000000000    0.0000000000000000   25.0454546774459672
 Cu 
 144
Direct
  0.1651569640568922  0.0848641962315679  0.0007732175290963
  0.9349980720527101  0.9153708782677802  0.5832616025265069
  0.4345430500404131  0.1675939210025832  0.5835980587123265
  0.7647513969598045  0.1649324658599445  0.5827099673164533
  0.1023207947843018  0.1681381562358080  0.5825361570111796
  0.2677013152813421  0.2514248860348465  0.6661090045499573
  0.5979061657072076  0.2515813175157894  0.6670129215822881
  0.5980458088041490  0.9181855571590793  0.5839816144932856
  0.9312681882374715  0.2485468201286392  0.6660289105009309
  0.7655627562065611  0.5020481727980244  0.6672693878786232
  0.1001271253631801  0.4983369054172421  0.6672727924673046
  0.2653899081322666  0.7490745541697937  0.6671791333553073
  0.5999532425266109  0.7511298266044182  0.6666716534498173
  0.9335756812690830  0.7484222605760747  0.6673545784641005
  0.4348788007735854 -0.0018125540123719  0.6664199649803239
  0.4330235622911202  0.5021366995827584  0.6663717664097295
  0.7643875742402614 -0.0004129621237115  0.6674163837080086
  0.2650677548612158  0.9175512427358097  0.5836883130854816
  0.7663837929794003  0.6668317384225546  0.5826380720097161
  0.0992584386547680  0.3351733028182405  0.4995381726876580
  0.2647552413427439  0.5837993295532857  0.5002910074902142
  0.5975034725596525  0.5855575534416149  0.4992268771615579
  0.9325318444401310  0.5829897376643690  0.4997925213462449
  0.4319975974727269  0.8333104369568693  0.5004735147152106
  0.7645786102663055  0.8315423104646980  0.4996527365705573
  0.0991425692858252  0.6667592659662016  0.5836899069929862
  0.1006684899662451  0.8337751235272101  0.4994040491888847
  0.5975038932209527  0.0821782151654473  0.5000056862284251
  0.9316048817857105  0.0818268437711181  0.4999540705353071
  0.2644678964892592  0.4147186536612449  0.5840780223501584
  0.6018196172933290  0.4183274286338302  0.5833155407917682
  0.9328337740599948  0.4156753648003783  0.5826077777870057
  0.4345528247511898  0.6676750250392441  0.5836379039534118
  0.2677480959290884  0.0830800358908558  0.5006524807090419
  0.7687283694941051  0.3348043969011987  0.4998963517191523
  0.0990249463551980 -0.0012439758397408  0.6661359219243610
  0.7657449400105394  0.3311339537647351  0.7501318028607096
  0.9356880781975142  0.9167514382769069  0.8335583409548973
  0.4327645330696155  0.1662975480246900  0.8329146168232368
  0.7654667633847480  0.1684859738101461  0.8336280237306145
  0.1013475606620410  0.1669310652069675  0.8339563733712967
  0.2686889735911830  0.2508631494105324  0.9172604466042985
  0.5977863102857915  0.2502452518755465  0.9161000449400462
  0.5975057816003589  0.9173390705692582  0.8331801524326814
  0.9348013694424623  0.2516796756625910  0.9158824085968701
  0.7650847841365845  0.5008975251833450  0.9158793955746019
  0.1000136354371805  0.5016014969288397  0.9167476409468516
  0.2647259624607756  0.7490831368671472  0.9168100885926016
  0.5975183696973584  0.7512601735455000  0.9166400402174276
  0.9315813129813172  0.7492760255097818  0.9169638489681138
  0.4317209873751113 -0.0022547866663032  0.9173418449105716
  0.4325788165634182  0.5016244695799700  0.9171557508293113
  0.4318948955336818  0.3345422386176471  0.7494617320960671
  0.2673398352144131  0.9144165196229040  0.8337434106735591
  0.7652344003166627  0.6672751066888982  0.8332113498624296
  0.0993647771869475  0.3355507106740165  0.7498632355351312
  0.2644285998385850  0.5835494192817799  0.7503481885439347
  0.5991513342249365  0.5834138039441534  0.7501608508678707
  0.9328089004109307  0.5837099299380965  0.7500130236801406
  0.4337999475334958  0.8344716205226567  0.7498534155288791
  0.7647591859186438  0.8342269663475090  0.7494294175998435
  0.1001459755857428  0.6683071283072155  0.8329037993802004
  0.1016942407454944  0.8353419887519739  0.7496280211418083
  0.5988588441546171  0.0842859594969015  0.7499308819303860
  0.9337233315233326  0.0822265702779970  0.7503659426024507
  0.2670281885349786  0.4182895965927104  0.8337135522084281
  0.6000831372723826  0.4176261249194101  0.8325373132279325
  0.9342299538260153  0.4171908259690579  0.8338903120407183
  0.4352222132367610  0.6673158844909985  0.8330146498965127
  0.2646898258995591  0.0820580353158139  0.7504174358789951
  0.4352705457859219  0.3331042895890767  0.5006425177099162
  0.8329874112903384  0.7516882039530670  0.4160515446434962
  0.5006562958385138  0.7489318338220934  0.4160792790334370
  0.3310730845686660  0.6678916196047556  0.0828521125819198
  0.6666964661751597  0.6682003856343215  0.0836745906147286
  0.1664474898021362  0.9183904648141502  0.0839780006268602
  0.5023267600992033  0.9151701522601958  0.0841242528480269
  0.8344975097174816  0.9175518389516589  0.0837901806334761
 -0.0004289370529011 -0.0012439076297252  0.1666300828242047
 -0.0005215076112933  0.6650758934203979  0.0835468530498781
  0.3314645417982148 -0.0012938778760631  0.1658963067775767
  0.1668607071616609  0.2483252397680741  0.1659394964317802
  0.4975674404468208  0.2509552514932039  0.1669858531462522
  0.8334212140816875  0.2493580488700488  0.1658805803634415
 -0.0008157262451619  0.5005877049205251  0.1664518076675930
  0.3329351887615999  0.5009949289202700  0.1660189788677954
  0.6648591824393347  0.4979685283212515  0.1659443757076350
  0.6677404623956945  0.0017027260994109  0.1667034572194820
  0.1689419887469342  0.7509695944473703  0.1663529050262889
  0.8358477968692093  0.4172828226908088  0.0838453054636828
  0.1649286799242326  0.4167994802033735  0.0827222393489664
  0.4980006305039765  0.0846903491062204 -0.0006517760535704
  0.8313497915638550  0.0848709082240234 -0.0000751811177270
 -0.0023921876099080  0.3354524409031175  0.0002998819906138
  0.3347176446655605  0.3327167429708435 -0.0003097665261566
  0.6665611136105470  0.3313486574500547 -0.0005267571621887
  0.1670058483986282  0.5836291066304613 -0.0000527760785743
  0.5000980341452155  0.4174429262253637  0.0838500371517057
  0.5019763774200217  0.5836499412225254  0.0004173992010523
 -0.0004190223668502  0.8329208993304296 -0.0000287022291305
  0.3336938503654096  0.8312406695227683 -0.0003919960559764
  0.6661260861024428  0.8332649959836178  0.0005410814244144
 -0.0009825826421211  0.1657661756135258  0.0835783309801017
  0.3342607321698072  0.1659513717858939  0.0838703151204940
  0.6685627263261495  0.1684938212700705  0.0835240178593024
  0.8329822739552081  0.5845993738651973  0.0007239307610245
  0.5002758755982845  0.7502428133832609  0.1668223511118530
  0.8342216237601086  0.7520691007031787  0.1665583476711012
  0.1658959406193847  0.0848538453781992  0.2492320294278241
  0.6642838531903034  0.6665648708526228  0.3333523349510538
  0.1690382971703671  0.9160247670627989  0.3328592012516915
  0.5001723931108890  0.9177730102494837  0.3333129014196451
  0.8357933227943729  0.9162979827403763  0.3335291443620415
  0.0017371820784827  0.0017121648405679  0.4159703051593213
  0.3323612811539916 -0.0006745696085583  0.4165895301583525
  0.3342047484701778  0.6658279209148457  0.3328960341749274
  0.6642234785209875 -0.0006944741059849  0.4162421682936702
  0.4991127161110196  0.2511447321725694  0.4170682067676091
  0.8328607066412627  0.2479243987412447  0.4169862068459229
  0.0025656659852770  0.5003015139287361  0.4160893273573168
  0.3309618702421806  0.4998001345759950  0.4172209545846913
  0.6659689037348088  0.4999139531140886  0.4173190220839383
  0.1687266296470152  0.7509362056191066  0.4159310861124993
  0.1673248031214907  0.2478954793914892  0.4165242715933779
 -0.0003092116024234  0.6674466633124718  0.3339823526857249
  0.8313567292850753  0.4152236799301039  0.3335093433892158
  0.5010638910672882  0.4151037171511076  0.3328797647157242
  0.4977922759915704  0.0845218577261892  0.2492162676590374
  0.8358497045010768  0.0830225947480338  0.2507446238543956
 -0.0003568221390098  0.3332913832350051  0.2498733535482859
  0.3325049193330981  0.3333721115815240  0.2493246128332317
  0.6645359511649768  0.3353047415907496  0.2502864533539458
  0.1650565375524136  0.5828129708115375  0.2496599457838470
  0.5014611816084384  0.5840271351017381  0.2501952016957300
  0.8327075442180222  0.5828486646125952  0.2504389362870125
  0.0014691092402811  0.8344018674116158  0.2494251463707642
  0.3342187127401497  0.8335792717615342  0.2496842349887977
  0.6656828381813794  0.8328879377835091  0.2500127734199986
  0.0003686303980770  0.1659209623237781  0.3327866476484514
  0.3354001771676357  0.1669569281996426  0.3329189504824306
  0.6646653253796387  0.1683129936190373  0.3337848134019463
  0.1692421092720282  0.4144925344403287  0.3325624621294394
  0.7657382251672901 -0.0012256080114597  0.9170090663470213
  0.0999446694993924  0.0007317942489352  0.9166868915906492
