Cu
 1.0000000000000000
    17.5855178048793093    0.0000000000000000    0.0000000000000000
     0.0000000000000000   13.6561643321984967    0.0000000000000000
     0.0000000000000000    0.0000000000000000   14.4165725502691089
 Cu 
 260
Cartesian
  6.7914336031263884  1.7749972079537475  6.0019660525141942
  7.5643681350013869  5.9492396579537470  4.7447430375491955
  6.7914336031263884  8.0363608779537472  6.0019660525141942
  7.5643681350013869 12.2106033279537449  4.7447430375491955
  6.0891138084393868  3.8621184379537468  4.7039736043571931
  6.8620483403143870  1.7749972079537475  3.4467505893931945
  4.6138594681213903  1.7749972079537475  4.6632041744471948
  6.1597285318723882  3.8621184379537468  2.1487581445181951
  6.0891138084393868 10.1234820979537474  4.7039736043571931
  6.8620483403143870  8.0363608779537472  3.4467505893931945
  5.3867939999973888  5.9492396579537470  3.4059811594821956
  4.6138594681213903  8.0363608779537472  4.6632041744471948
  6.1597285318723882 10.1234820979537474  2.1487581445181951
  5.3867939999973888 12.2106033279537449  3.4059811594821956
  3.8409249362463895  3.8621184379537468  5.9204271894111944
  5.3161792765643874  5.9492396579537470  5.9611966193221946
  3.8409249362463895 10.1234820979537474  5.9204271894111944
  5.3161792765643874 12.2106033279537449  5.9611966193221946
  3.9115396734353878  3.8621184379537468  3.3652117262901946
  4.6844742053103881  1.7749972079537475  2.1079887113261941
  2.4362853331173886  1.7749972079537475  3.3244422963801927
  3.9821543968673883  3.8621184379537468  0.8099962664511927
  3.9115396734353878 10.1234820979537474  3.3652117262901946
  4.6844742053103881  8.0363608779537472  2.1079887113261941
  3.2092198649923871  5.9492396579537470  2.0672192814151935
  2.4362853331173886  8.0363608779537472  3.3244422963801927
  3.9821543968673883 10.1234820979537474  0.8099962664511927
  3.2092198649923871 12.2106033279537449  2.0672192814151935
  2.3656706096853881  1.7749972079537475  5.8796577562191956
  1.6633508012423883  3.8621184379537468  4.5816653113441950
  3.1386051415603875  5.9492396579537470  4.6224347412541942
  2.3656706096853881  8.0363608779537472  5.8796577562191956
  0.8904162693673880  5.9492396579537470  5.8388883263081972
  1.6633508012423883 10.1234820979537474  4.5816653113441950
  3.1386051415603875 12.2106033279537449  4.6224347412541942
  0.8904162693673880 12.2106033279537449  5.8388883263081972
  1.7339655384313870  3.8621184379537468  2.0264498482231925
  2.5069000703063873  1.7749972079537475  0.7692268332591929
  1.7339655384313870 10.1234820979537474  2.0264498482231925
  2.5069000703063873  8.0363608779537472  0.7692268332591929
  0.1880964746813882  1.7749972079537475  4.5408958781521962
  0.9610310065563885  5.9492396579537470  3.2836728631871956
  0.1880964746813882  8.0363608779537472  4.5408958781521962
  0.9610310065563885 12.2106033279537449  3.2836728631871956
  5.8641625973153877  3.8621184379537468  0.9795942408811930
  5.8641625973153877 10.1234820979537474  0.9795942408811930
  7.3205309382213875  1.7749972079537475  1.2184011300771926
  7.3205309382213875  8.0363608779537472  1.2184011300771926
  0.2332676341063875  3.8621184379537468  1.6960149070681929
  0.2332676341063875 10.1234820979537474  1.6960149070681929
  1.1682646419573874  5.9492396579537470  0.5541663640331933
  1.1682646419573874 12.2106033279537449  0.5541663640331933
  6.8620483403143870  1.7749972079537475 13.4467505893931971
  6.1597285318723882  3.8621184379537468 12.1487581445181974
  6.8620483403143870  8.0363608779537472 13.4467505893931971
  5.3867939999973888  5.9492396579537470 13.4059811594821987
  6.1597285318723882 10.1234820979537474 12.1487581445181974
  5.3867939999973888 12.2106033279537449 13.4059811594821987
  4.5432447446893871  1.7749972079537475  7.2184196342861942
  4.5432447446893871  8.0363608779537472  7.2184196342861942
  3.0679904043713879  5.9492396579537470  7.1776502043751949
  3.0679904043713879 12.2106033279537449  7.1776502043751949
  3.9115396734353878  3.8621184379537468 13.3652117262901982
  4.6844742053103881  1.7749972079537475 12.1079887113261950
  2.4362853331173886  1.7749972079537475 13.3244422963801927
  3.9821543968673883  3.8621184379537468 10.8099962664511953
  3.9115396734353878 10.1234820979537474 13.3652117262901982
  4.6844742053103881  8.0363608779537472 12.1079887113261950
  3.2092198649923871  5.9492396579537470 12.0672192814151966
  2.4362853331173886  8.0363608779537472 13.3244422963801927
  3.9821543968673883 10.1234820979537474 10.8099962664511953
  3.2092198649923871 12.2106033279537449 12.0672192814151966
  1.5927360778103870  3.8621184379537468  7.1368807711831934
  1.5927360778103870 10.1234820979537474  7.1368807711831934
  1.7339655384313870  3.8621184379537468 12.0264498482231943
  2.5069000703063873  1.7749972079537475 10.7692268332591929
  3.2798346021813884  5.9492396579537470  9.5120038182951969
  1.7339655384313870 10.1234820979537474 12.0264498482231943
  2.5069000703063873  8.0363608779537472 10.7692268332591929
  3.2798346021813884 12.2106033279537449  9.5120038182951969
  0.9610310065563885  5.9492396579537470 13.2836728631871992
  0.9610310065563885 12.2106033279537449 13.2836728631871992
  5.7564169249843884  1.7749972079537475  7.0764348347871930
  3.8864229092823885  3.8621184379537468  9.3601319208561939
  4.8214199171333885  5.9492396579537470  8.2182833778221926
  5.7564169249843884  8.0363608779537472  7.0764348347871930
  3.8864229092823885 10.1234820979537474  9.3601319208561939
  4.8214199171333885 12.2106033279537449  8.2182833778221926
  6.2777882580393891  3.8621184379537468  8.4570902670181951
  5.3427912501883874  1.7749972079537475  9.5989388100521928
  5.8641625973153877  3.8621184379537468 10.9795942408811964
  6.2777882580393891 10.1234820979537474  8.4570902670181951
  5.3427912501883874  8.0363608779537472  9.5989388100521928
  6.7991596051663867  5.9492396579537470  9.8377456978471969
  5.8641625973153877 10.1234820979537474 10.9795942408811964
  6.7991596051663867 12.2106033279537449  9.8377456978471969
  7.2127852658903882  5.9492396579537470  7.3152417239831928
  7.2127852658903882 12.2106033279537449  7.3152417239831928
  7.3205309382213875  1.7749972079537475 11.2184011300771935
  7.3205309382213875  8.0363608779537472 11.2184011300771935
  0.1255219617753873  1.7749972079537475  7.7928555009741940
  0.6468933089023876  3.8621184379537468  9.1735109318031967
  0.1255219617753873  8.0363608779537472  7.7928555009741940
  1.5818903167543876  5.9492396579537470  8.0316623887681970
  0.6468933089023876 10.1234820979537474  9.1735109318031967
  1.5818903167543876 12.2106033279537449  8.0316623887681970
  0.2332676341063875  3.8621184379537468 11.6960149070681965
  0.2332676341063875 10.1234820979537474 11.6960149070681965
  2.1032616498093875  1.7749972079537475  9.4123178209991920
  1.1682646419573874  5.9492396579537470 10.5541663640331969
  2.1032616498093875  8.0363608779537472  9.4123178209991920
  1.1682646419573874 12.2106033279537449 10.5541663640331969
  9.0396224753183887  1.7749972079537475  4.7855124674601921
 16.7914336031263893  1.7749972079537475  6.0019660525141942
  8.3373026668763881  3.8621184379537468  3.4875200225851950
  9.0396224753183887  8.0363608779537472  4.7855124674601921
 17.5643681350013878  5.9492396579537470  4.7447430375491955
 16.7914336031263893  8.0363608779537472  6.0019660525141942
  8.3373026668763881 10.1234820979537474  3.4875200225851950
 17.5643681350013878 12.2106033279537449  4.7447430375491955
 16.0891138084393859  3.8621184379537468  4.7039736043571931
 16.8620483403143879  1.7749972079537475  3.4467505893931945
 14.6138594681213903  1.7749972079537475  4.6632041744471948
 16.1597285318723891  3.8621184379537468  2.1487581445181951
 16.0891138084393859 10.1234820979537474  4.7039736043571931
 16.8620483403143879  8.0363608779537472  3.4467505893931945
 15.3867939999973888  5.9492396579537470  3.4059811594821956
 14.6138594681213903  8.0363608779537472  4.6632041744471948
 16.1597285318723891 10.1234820979537474  2.1487581445181951
 15.3867939999973888 12.2106033279537449  3.4059811594821956
 13.8409249362463882  3.8621184379537468  5.9204271894111944
 15.3161792765643874  5.9492396579537470  5.9611966193221946
 13.8409249362463882 10.1234820979537474  5.9204271894111944
 15.3161792765643874 12.2106033279537449  5.9611966193221946
 13.9115396734353887  3.8621184379537468  3.3652117262901946
 14.6844742053103907  1.7749972079537475  2.1079887113261941
 12.4362853331173895  1.7749972079537475  3.3244422963801927
 13.9821543968673900  3.8621184379537468  0.8099962664511927
 13.9115396734353887 10.1234820979537474  3.3652117262901946
 14.6844742053103907  8.0363608779537472  2.1079887113261941
 13.2092198649923880  5.9492396579537470  2.0672192814151935
 12.4362853331173895  8.0363608779537472  3.3244422963801927
 13.9821543968673900 10.1234820979537474  0.8099962664511927
 13.2092198649923880 12.2106033279537449  2.0672192814151935
 12.3656706096853881  1.7749972079537475  5.8796577562191956
 11.6633508012423874  3.8621184379537468  4.5816653113441950
 13.1386051415603866  5.9492396579537470  4.6224347412541942
 12.3656706096853881  8.0363608779537472  5.8796577562191956
 10.8904162693673872  5.9492396579537470  5.8388883263081972
 11.6633508012423874 10.1234820979537474  4.5816653113441950
 13.1386051415603866 12.2106033279537449  4.6224347412541942
 10.8904162693673872 12.2106033279537449  5.8388883263081972
 11.7339655384313915  3.8621184379537468  2.0264498482231925
 12.5069000703063864  1.7749972079537475  0.7692268332591929
 11.7339655384313915 10.1234820979537474  2.0264498482231925
 12.5069000703063864  8.0363608779537472  0.7692268332591929
 10.1880964746813873  1.7749972079537475  4.5408958781521962
 10.9610310065563894  5.9492396579537470  3.2836728631871956
 10.1880964746813873  8.0363608779537472  4.5408958781521962
 10.9610310065563894 12.2106033279537449  3.2836728631871956
 15.8641625973153921  3.8621184379537468  0.9795942408811930
 15.8641625973153921 10.1234820979537474  0.9795942408811930
  8.1477822737413881  1.7749972079537475  6.1733931809491933
  8.1477822737413881  8.0363608779537472  6.1733931809491933
  9.6041506287203884  5.9492396579537470  6.4122000687431928
  9.6041506287203884 12.2106033279537449  6.4122000687431928
  8.2555279460733875  3.8621184379537468  0.0765525870431940
 17.3205309382213883  1.7749972079537475  1.2184011300771926
  9.7118963010513877  1.7749972079537475  0.3153594748371945
  7.8419022853493878  3.8621184379537468  2.5990565609061953
  8.2555279460733875 10.1234820979537474  0.0765525870431940
 17.3205309382213883  8.0363608779537472  1.2184011300771926
  8.7768992932003869  5.9492396579537470  1.4572080178721931
  9.7118963010513877  8.0363608779537472  0.3153594748371945
  7.8419022853493878 10.1234820979537474  2.5990565609061953
  8.7768992932003869 12.2106033279537449  1.4572080178721931
 10.2332676341063866  3.8621184379537468  1.6960149070681929
  9.2982706262553911  1.7749972079537475  2.8378634501021933
 10.2332676341063866 10.1234820979537474  1.6960149070681929
  9.2982706262553911  8.0363608779537472  2.8378634501021933
 11.1682646419573874  5.9492396579537470  0.5541663640331933
 11.1682646419573874 12.2106033279537449  0.5541663640331933
  8.3373026668763881  3.8621184379537468 13.4875200225851941
  8.3373026668763881 10.1234820979537474 13.4875200225851941
 16.8620483403143879  1.7749972079537475 13.4467505893931971
 16.1597285318723891  3.8621184379537468 12.1487581445181974
 16.8620483403143879  8.0363608779537472 13.4467505893931971
 15.3867939999973888  5.9492396579537470 13.4059811594821987
 16.1597285318723891 10.1234820979537474 12.1487581445181974
 15.3867939999973888 12.2106033279537449 13.4059811594821987
 14.5432447446893871  1.7749972079537475  7.2184196342861942
 14.5432447446893871  8.0363608779537472  7.2184196342861942
 13.0679904043713879  5.9492396579537470  7.1776502043751949
 13.0679904043713879 12.2106033279537449  7.1776502043751949
 13.9115396734353887  3.8621184379537468 13.3652117262901982
 14.6844742053103907  1.7749972079537475 12.1079887113261950
 12.4362853331173895  1.7749972079537475 13.3244422963801927
 13.9821543968673900  3.8621184379537468 10.8099962664511953
 13.9115396734353887 10.1234820979537474 13.3652117262901982
 14.6844742053103907  8.0363608779537472 12.1079887113261950
 13.2092198649923880  5.9492396579537470 12.0672192814151966
 12.4362853331173895  8.0363608779537472 13.3244422963801927
 13.9821543968673900 10.1234820979537474 10.8099962664511953
 13.2092198649923880 12.2106033279537449 12.0672192814151966
 11.5927360778103878  3.8621184379537468  7.1368807711831934
 11.5927360778103878 10.1234820979537474  7.1368807711831934
 11.7339655384313915  3.8621184379537468 12.0264498482231943
 12.5069000703063864  1.7749972079537475 10.7692268332591929
 13.2798346021813884  5.9492396579537470  9.5120038182951969
 11.7339655384313915 10.1234820979537474 12.0264498482231943
 12.5069000703063864  8.0363608779537472 10.7692268332591929
 13.2798346021813884 12.2106033279537449  9.5120038182951969
 10.9610310065563894  5.9492396579537470 13.2836728631871992
 10.9610310065563894 12.2106033279537449 13.2836728631871992
 15.7564169249843893  1.7749972079537475  7.0764348347871930
 13.8864229092823876  3.8621184379537468  9.3601319208561939
 14.8214199171333885  5.9492396579537470  8.2182833778221926
 15.7564169249843893  8.0363608779537472  7.0764348347871930
 13.8864229092823876 10.1234820979537474  9.3601319208561939
 14.8214199171333885 12.2106033279537449  8.2182833778221926
 16.2777882580393900  3.8621184379537468  8.4570902670181951
 15.3427912501883874  1.7749972079537475  9.5989388100521928
  7.7341566130183876  1.7749972079537475  8.6958971548121973
 15.8641625973153921  3.8621184379537468 10.9795942408811964
 16.2777882580393900 10.1234820979537474  8.4570902670181951
 15.3427912501883874  8.0363608779537472  9.5989388100521928
 16.7991596051663876  5.9492396579537470  9.8377456978471969
  7.7341566130183876  8.0363608779537472  8.6958971548121973
 15.8641625973153921 10.1234820979537474 10.9795942408811964
 16.7991596051663876 12.2106033279537449  9.8377456978471969
  8.6691536208693876  3.8621184379537468  7.5540486117781942
 17.2127852658903890  5.9492396579537470  7.3152417239831928
  8.6691536208693876 10.1234820979537474  7.5540486117781942
 17.2127852658903890 12.2106033279537449  7.3152417239831928
  8.2555279460733875  3.8621184379537468 10.0765525870431940
 17.3205309382213883  1.7749972079537475 11.2184011300771935
  9.7118963010513877  1.7749972079537475 10.3153594748371962
  7.8419022853493878  3.8621184379537468 12.5990565609061953
  8.2555279460733875 10.1234820979537474 10.0765525870431940
 17.3205309382213883  8.0363608779537472 11.2184011300771935
  8.7768992932003869  5.9492396579537470 11.4572080178721976
  9.7118963010513877  8.0363608779537472 10.3153594748371962
  7.8419022853493878 10.1234820979537474 12.5990565609061953
  8.7768992932003869 12.2106033279537449 11.4572080178721976
 10.1255219617753873  1.7749972079537475  7.7928555009741940
 10.6468933089023885  3.8621184379537468  9.1735109318031967
  9.1905249539243883  5.9492396579537470  8.9347040440081926
 10.1255219617753873  8.0363608779537472  7.7928555009741940
 11.5818903167543876  5.9492396579537470  8.0316623887681970
 10.6468933089023885 10.1234820979537474  9.1735109318031967
  9.1905249539243883 12.2106033279537449  8.9347040440081926
 11.5818903167543876 12.2106033279537449  8.0316623887681970
 10.2332676341063866  3.8621184379537468 11.6960149070681965
  9.2982706262553911  1.7749972079537475 12.8378634501021978
 10.2332676341063866 10.1234820979537474 11.6960149070681965
  9.2982706262553911  8.0363608779537472 12.8378634501021978
 12.1032616498093866  1.7749972079537475  9.4123178209991920
 11.1682646419573874  5.9492396579537470 10.5541663640331969
 12.1032616498093866  8.0363608779537472  9.4123178209991920
 11.1682646419573874 12.2106033279537449 10.5541663640331969
