Cu
 1.0000000000000000
    15.3300994056255391    0.0000000000000000    0.0000000000000000
     0.0000000000000000   12.3940329594207519    0.0000000000000000
     0.0000000000000000    0.0000000000000000   14.9889131076765736
 Cu 
 192
Cartesian
  4.4122793749478104  6.2200241389862887  1.1810943220555599
  1.4617707080678106  2.0457816989862891  1.0995554589525609
  2.9370250483858085  4.1329029189862885  1.1403248888635593
  1.4617707080678106  8.3071453689862871  1.0995554589525609
  2.9370250483858085 10.3942665889862891  1.1403248888635593
  5.1852139068228089  4.1329029189862885  9.9238713070905611
  4.4122793749478104  6.2200241389862887 11.1810943220555608
  5.1852139068228089 10.3942665889862891  9.9238713070905611
  3.7099595802608079  2.0457816989862891  9.8831018738985605
  3.7805743036938102  2.0457816989862891  7.3278864140595621
  3.7099595802608079  8.3071453689862871  9.8831018738985605
  4.4828941121358081  6.2200241389862887  8.6258788589345610
  3.0076397718188099  4.1329029189862885  8.5851094290235608
  2.2347052399428105  6.2200241389862887  9.8423324439885604
  3.7805743036938102  8.3071453689862871  7.3278864140595621
  3.0076397718188099 10.3942665889862891  8.5851094290235608
  1.4617707080678106  2.0457816989862891 11.0995554589525618
  2.9370250483858085  4.1329029189862885 11.1403248888635620
  2.1640905165108082  6.2200241389862887  2.3975479038275602
  0.6888361761928097  4.1329029189862885  2.3567784739165596
  1.4617707080678106  8.3071453689862871 11.0995554589525618
  2.9370250483858085 10.3942665889862891 11.1403248888635620
  0.6888361761928097 10.3942665889862891  2.3567784739165596
  1.5323854452568093  2.0457816989862891  8.5443399958315602
  1.6030001686888089  2.0457816989862891  5.9891245359925591
  1.5323854452568093  8.3071453689862871  8.5443399958315602
  2.3053199771318100  6.2200241389862887  7.2871169808675624
  0.8300656368138088  4.1329029189862885  7.2463475509565596
  0.0571311049388106  6.2200241389862887  8.5035705659215601
  1.6030001686888089  8.3071453689862871  5.9891245359925591
  0.8300656368138088 10.3942665889862891  7.2463475509565596
  0.7594509133818093  4.1329029189862885  9.8015630107955580
  0.7594509133818093 10.3942665889862891  9.8015630107955580
  0.9006803740028104  4.1329029189862885  4.6911320878365590
  0.1277458421278092  6.2200241389862887  5.9483551028005595
  0.9006803740028104 10.3942665889862891  4.6911320878365590
  1.5072686811038101  2.0457816989862891  4.5392601903975596
  2.4422656889548087  4.1329029189862885  3.3974116473635592
  3.3772626968058095  6.2200241389862887  2.2555631043285596
  1.5072686811038101  8.3071453689862871  4.5392601903975596
  2.4422656889548087 10.3942665889862891  3.3974116473635592
  3.8986340298608093  2.0457816989862891  3.6362185365595598
  3.4850083691368097  2.0457816989862891  6.1587225104225594
  3.8986340298608093  8.3071453689862871  3.6362185365595598
  2.9636370220098085  6.2200241389862887  4.7780670795935594
  4.4200053769878087  4.1329029189862885  5.0168739673885607
  3.4850083691368097  8.3071453689862871  6.1587225104225594
  4.4200053769878087 10.3942665889862891  5.0168739673885607
  4.8336310377118084  4.1329029189862885  2.4943699935245598
  4.8336310377118084 10.3942665889862891  2.4943699935245598
  4.9413767100428077  6.2200241389862887  6.3975293996185592
  2.1640905165108082  6.2200241389862887 12.3975479038275580
  0.6888361761928097  4.1329029189862885 12.3567784739165596
  0.6888361761928097 10.3942665889862891 12.3567784739165596
  0.9006803740028104  4.1329029189862885 14.6911320878365608
  0.9006803740028104 10.3942665889862891 14.6911320878365608
  1.5072686811038101  2.0457816989862891 14.5392601903975596
  2.4422656889548087  4.1329029189862885 13.3974116473635583
  3.3772626968058095  6.2200241389862887 12.2555631043285587
  1.5072686811038101  8.3071453689862871 14.5392601903975596
  2.4422656889548087 10.3942665889862891 13.3974116473635583
  3.8986340298608093  2.0457816989862891 13.6362185365595607
  3.8986340298608093  8.3071453689862871 13.6362185365595607
  2.9636370220098085  6.2200241389862887 14.7780670795935585
  4.8336310377118084  4.1329029189862885 12.4943699935245611
  4.8336310377118084 10.3942665889862891 12.4943699935245611
 14.4122793749478078  6.2200241389862887  1.1810943220555599
 11.4617707080678102  2.0457816989862891  1.0995554589525609
 12.9370250483858058  4.1329029189862885  1.1403248888635593
 11.4617707080678102  8.3071453689862871  1.0995554589525609
 12.9370250483858058 10.3942665889862891  1.1403248888635593
  9.9865163815068065  6.2200241389862887  1.0587860257605608
  8.5112620411888056  4.1329029189862885  1.0180165958495619
  8.5112620411888056 10.3942665889862891  1.0180165958495619
  5.7686280455628074  6.2200241389862887  1.3525214504905589
  7.2249964005418104  4.1329029189862885  1.5913283382845593
  7.2249964005418104 10.3942665889862891  1.5913283382845593
  5.9581484386978074  2.0457816989862891  8.6666482921265597
  6.6604682471398071  6.2200241389862887  9.9646407370015595
 15.1852139068228098  4.1329029189862885  9.9238713070905611
 14.4122793749478078  6.2200241389862887 11.1810943220555608
  5.9581484386978074  8.3071453689862871  8.6666482921265597
 15.1852139068228098 10.3942665889862891  9.9238713070905611
 13.7099595802608043  2.0457816989862891  9.8831018738985605
 13.7805743036938075  2.0457816989862891  7.3278864140595621
 13.7099595802608043  8.3071453689862871  9.8831018738985605
 14.4828941121358064  6.2200241389862887  8.6258788589345610
 13.0076397718188073  4.1329029189862885  8.5851094290235608
 12.2347052399428122  6.2200241389862887  9.8423324439885604
 13.7805743036938075  8.3071453689862871  7.3278864140595621
 13.0076397718188073 10.3942665889862891  8.5851094290235608
 11.4617707080678102  2.0457816989862891 11.0995554589525618
 12.9370250483858058  4.1329029189862885 11.1403248888635620
 12.1640905165108055  6.2200241389862887  2.3975479038275602
 10.6888361761928099  4.1329029189862885  2.3567784739165596
 11.4617707080678102  8.3071453689862871 11.0995554589525618
 12.9370250483858058 10.3942665889862891 11.1403248888635620
 10.6888361761928099 10.3942665889862891  2.3567784739165596
 11.5323854452568071  2.0457816989862891  8.5443399958315602
 11.6030001686888085  2.0457816989862891  5.9891245359925591
 11.5323854452568071  8.3071453689862871  8.5443399958315602
 12.3053199771318056  6.2200241389862887  7.2871169808675624
 10.8300656368138100  4.1329029189862885  7.2463475509565596
 10.0571311049388097  6.2200241389862887  8.5035705659215601
 11.6030001686888085  8.3071453689862871  5.9891245359925591
 10.8300656368138100 10.3942665889862891  7.2463475509565596
  9.2135818496318098  2.0457816989862891  2.3160090407245595
  9.2841965730638076  2.0457816989862891  9.7607935808855650
 10.7594509133818050  4.1329029189862885  9.8015630107955580
  9.2135818496318098  8.3071453689862871  2.3160090407245595
  9.9865163815068065  6.2200241389862887 11.0587860257605612
  8.5112620411888056  4.1329029189862885 11.0180165958495628
  9.2841965730638076  8.3071453689862871  9.7607935808855650
 10.7594509133818050 10.3942665889862891  9.8015630107955580
  8.5112620411888056 10.3942665889862891 11.0180165958495628
  9.3548113102528099  2.0457816989862891  7.2055781177645590
 10.9006803740028069  4.1329029189862885  4.6911320878365590
  9.3548113102528099  8.3071453689862871  7.2055781177645590
 10.1277458421278084  6.2200241389862887  5.9483551028005595
 10.9006803740028069 10.3942665889862891  4.6911320878365590
  8.5818767783778114  4.1329029189862885  8.4628011327285613
  7.8089422465028067  6.2200241389862887  9.7200241476935609
  8.5818767783778114 10.3942665889862891  8.4628011327285613
 11.5072686811038061  2.0457816989862891  4.5392601903975596
 12.4422656889548051  4.1329029189862885  3.3974116473635592
 13.3772626968058077  6.2200241389862887  2.2555631043285596
 11.5072686811038061  8.3071453689862871  4.5392601903975596
 12.4422656889548051 10.3942665889862891  3.3974116473635592
 13.8986340298608084  2.0457816989862891  3.6362185365595598
 13.4850083691368070  2.0457816989862891  6.1587225104225594
 13.8986340298608084  8.3071453689862871  3.6362185365595598
 12.9636370220098058  6.2200241389862887  4.7780670795935594
 14.4200053769878060  4.1329029189862885  5.0168739673885607
  5.3550023848398096  6.2200241389862887  3.8750254243535598
 13.4850083691368070  8.3071453689862871  6.1587225104225594
 14.4200053769878060 10.3942665889862891  5.0168739673885607
  6.2899993926908095  2.0457816989862891  2.7331768813195598
 14.8336310377118075  4.1329029189862885  2.4943699935245598
  5.7686280455628074  6.2200241389862887 11.3525214504905634
  7.2249964005418104  4.1329029189862885 11.5913283382845584
  6.2899993926908095  8.3071453689862871  2.7331768813195598
 14.8336310377118075 10.3942665889862891  2.4943699935245598
  7.2249964005418104 10.3942665889862891 11.5913283382845584
  5.8763737178948094  2.0457816989862891  5.2556808565845596
  5.4627480571708080  2.0457816989862891  7.7781848304475618
  5.8763737178948094  8.3071453689862871  5.2556808565845596
 14.9413767100428103  6.2200241389862887  6.3975293996185592
  6.3977450650218071  4.1329029189862885  6.6363362874135596
  7.3327420728728079  6.2200241389862887  5.4944877443785600
  5.4627480571708080  8.3071453689862871  7.7781848304475618
  6.3977450650218071 10.3942665889862891  6.6363362874135596
  8.2677390807238105  2.0457816989862891  4.3526392013445596
  6.8113707257458076  4.1329029189862885  4.1138323135495600
  7.7463677335968084  6.2200241389862887  2.9719837705155596
  9.2027360885758061  4.1329029189862885  3.2107906583095600
  8.2677390807238105  8.3071453689862871  4.3526392013445596
  6.8113707257458076 10.3942665889862891  4.1138323135495600
  9.2027360885758061 10.3942665889862891  3.2107906583095600
  7.8541134059278095  2.0457816989862891  6.8751431766095594
  7.8541134059278095  8.3071453689862871  6.8751431766095594
  6.9191163980768096  6.2200241389862887  8.0169917196435598
  8.7891104137788059  4.1329029189862885  5.7332946335745607
  9.7241074216308085  6.2200241389862887  4.5914460905405594
  8.7891104137788059 10.3942665889862891  5.7332946335745607
 12.1640905165108055  6.2200241389862887 12.3975479038275580
 10.6888361761928099  4.1329029189862885 12.3567784739165596
 10.6888361761928099 10.3942665889862891 12.3567784739165596
  9.2135818496318098  2.0457816989862891 12.3160090407245590
  9.2135818496318098  8.3071453689862871 12.3160090407245590
 10.9006803740028069  4.1329029189862885 14.6911320878365608
 10.9006803740028069 10.3942665889862891 14.6911320878365608
 11.5072686811038061  2.0457816989862891 14.5392601903975596
 12.4422656889548051  4.1329029189862885 13.3974116473635583
 13.3772626968058077  6.2200241389862887 12.2555631043285587
 11.5072686811038061  8.3071453689862871 14.5392601903975596
 12.4422656889548051 10.3942665889862891 13.3974116473635583
 13.8986340298608084  2.0457816989862891 13.6362185365595607
 13.8986340298608084  8.3071453689862871 13.6362185365595607
 12.9636370220098058  6.2200241389862887 14.7780670795935585
  5.3550023848398096  6.2200241389862887 13.8750254243535593
  6.2899993926908095  2.0457816989862891 12.7331768813195580
 14.8336310377118075  4.1329029189862885 12.4943699935245611
  6.2899993926908095  8.3071453689862871 12.7331768813195580
 14.8336310377118075 10.3942665889862891 12.4943699935245611
  8.2677390807238105  2.0457816989862891 14.3526392013445623
  6.8113707257458076  4.1329029189862885 14.1138323135495583
  7.7463677335968084  6.2200241389862887 12.9719837705155641
  9.2027360885758061  4.1329029189862885 13.2107906583095591
  8.2677390807238105  8.3071453689862871 14.3526392013445623
  6.8113707257458076 10.3942665889862891 14.1138323135495583
  9.2027360885758061 10.3942665889862891 13.2107906583095591
  9.7241074216308085  6.2200241389862887 14.5914460905405647
