Cu
 1.0000000000000000
    12.4648678537715796    0.0000000000000000    0.0000000000000000
     0.0000000000000000   14.9328670794608982    0.0000000000000000
     0.0000000000000000    0.0000000000000000   16.3162194820934303
 Cu 
 285
Cartesian
  1.6683388343160463  2.1157672739612039  0.3382778525254242
  0.2119704793370459 12.5513733939612102  0.0994709647314238
  1.6683388343160463 14.6384946139612033  0.3382778525254242
  0.2119704793370459  6.2900097239612052  0.0994709647314238
  1.6683388343160463  8.3771309439612054  0.3382778525254242
  0.4014908724720459  0.0286460439612064  7.4135978063674255
  9.6285563405970453  2.1157672739612039  8.6708208213314286
  1.1038106809140458 12.5513733939612102  8.7115902512424235
  9.6285563405970453 14.6384946139612033  8.6708208213314286
  8.8556218087220469 12.5513733939612102  9.9280438362964247
  0.4014908724720459 10.4642521639612056  7.4135978063674255
  1.1038106809140458  6.2900097239612052  8.7115902512424235
  9.6285563405970453  8.3771309439612054  8.6708208213314286
  8.8556218087220469  6.2900097239612052  9.9280438362964247
  0.4014908724720459  4.2028885039612041  7.4135978063674255
  8.1533020140350452  0.0286460439612064  8.6300513881394245
  8.2239167374680466  0.0286460439612064  6.0748359283004261
  7.4509822055930481  2.1157672739612039  7.3320589432644265
  8.1533020140350452 10.4642521639612056  8.6300513881394245
  8.9262365459100455 12.5513733939612102  7.3728283731754249
  7.4509822055930481 14.6384946139612033  7.3320589432644265
  6.6780476737170478 12.5513733939612102  8.5892819582294244
  8.2239167374680466 10.4642521639612056  6.0748359283004261
  8.1533020140350452  4.2028885039612041  8.6300513881394245
  8.9262365459100455  6.2900097239612052  7.3728283731754249
  7.4509822055930481  8.3771309439612054  7.3320589432644265
  6.6780476737170478  6.2900097239612052  8.5892819582294244
  8.2239167374680466  4.2028885039612041  6.0748359283004261
  5.9051131418420475  0.0286460439612064  9.8465049731934258
  7.3803674821600467  2.1157672739612039  9.8872744031044242
  5.1321786099670463  2.1157672739612039  1.1037279881574245
  7.3803674821600467 14.6384946139612033  9.8872744031044242
  6.6074329502850455 12.5513733939612102  1.1444974180684246
  5.1321786099670463 14.6384946139612033  1.1037279881574245
  5.9051131418420475 10.4642521639612056  9.8465049731934258
  7.3803674821600467  8.3771309439612054  9.8872744031044242
  6.6074329502850455  6.2900097239612052  1.1444974180684246
  5.1321786099670463  8.3771309439612054  1.1037279881574245
  5.9051131418420475  4.2028885039612041  9.8465049731934258
  5.9757278790310471  0.0286460439612064  7.2912895100724260
  6.0463426024630458  0.0286460439612064  4.7360740502334240
  5.2734080705880455  2.1157672739612039  5.9932970651974244
  5.9757278790310471 10.4642521639612056  7.2912895100724260
  6.7486624109060473 12.5513733939612102  6.0340664951084255
  5.2734080705880455 14.6384946139612033  5.9932970651974244
  4.5004735387130470 12.5513733939612102  7.2505200801624241
  6.0463426024630458 10.4642521639612056  4.7360740502334240
  5.9757278790310471  4.2028885039612041  7.2912895100724260
  6.7486624109060473  6.2900097239612052  6.0340664951084255
  5.2734080705880455  8.3771309439612054  5.9932970651974244
  4.5004735387130470  6.2900097239612052  7.2505200801624241
  6.0463426024630458  4.2028885039612041  4.7360740502334240
  3.6569242834060467  0.0286460439612064  1.0629585549654244
  3.7275390068380463  0.0286460439612064  8.5077430951264255
  5.2027933471560459  2.1157672739612039  8.5485125250364238
  2.9546044749630465  2.1157672739612039  9.7649661100904268
  5.2027933471560459 14.6384946139612033  8.5485125250364238
  3.6569242834060467 10.4642521639612056  1.0629585549654244
  4.4298588152810456 12.5513733939612102  9.8057355400014252
  2.9546044749630465 14.6384946139612033  9.7649661100904268
  3.7275390068380463 10.4642521639612056  8.5077430951264255
  5.2027933471560459  8.3771309439612054  8.5485125250364238
  3.6569242834060467  4.2028885039612041  1.0629585549654244
  4.4298588152810456  6.2900097239612052  9.8057355400014252
  2.9546044749630465  8.3771309439612054  9.7649661100904268
  3.7275390068380463  4.2028885039612041  8.5077430951264255
  3.7981537440270454  0.0286460439612064  5.9525276320054239
  5.3440228077770477  2.1157672739612039  3.4380816020774243
  5.3440228077770477 14.6384946139612033  3.4380816020774243
  3.7981537440270454 10.4642521639612056  5.9525276320054239
  4.5710882759020457 12.5513733939612102  4.6953046170414243
  5.3440228077770477  8.3771309439612054  3.4380816020774243
  3.7981537440270454  4.2028885039612041  5.9525276320054239
  4.5710882759020457  6.2900097239612052  4.6953046170414243
  3.0252192121520469  2.1157672739612039  7.2097506469694261
  3.0252192121520469 14.6384946139612033  7.2097506469694261
  2.2522846802770462 12.5513733939612102  8.4669736619344249
  3.0252192121520469  8.3771309439612054  7.2097506469694261
  2.2522846802770462  6.2900097239612052  8.4669736619344249
  5.9506111148780469  0.0286460439612064  3.2862097046384244
  6.8856081227290460  2.1157672739612039  2.1443611616044240
  6.8856081227290460 14.6384946139612033  2.1443611616044240
  7.8206051305800468 12.5513733939612102  1.0025126185694244
  5.9506111148780469 10.4642521639612056  3.2862097046384244
  6.8856081227290460  8.3771309439612054  2.1443611616044240
  7.8206051305800468  6.2900097239612052  1.0025126185694244
  5.9506111148780469  4.2028885039612041  3.2862097046384244
  8.3419764636350475  0.0286460439612064  2.3831680508004247
  7.9283508029110470  0.0286460439612064  4.9056720246634260
  8.8633478107620451  2.1157672739612039  3.7638234816294251
  8.3419764636350475 10.4642521639612056  2.3831680508004247
  7.4069794557840458 12.5513733939612102  3.5250165938344242
  8.8633478107620451 14.6384946139612033  3.7638234816294251
  7.9283508029110470 10.4642521639612056  4.9056720246634260
  8.3419764636350475  4.2028885039612041  2.3831680508004247
  7.4069794557840458  6.2900097239612052  3.5250165938344242
  8.8633478107620451  8.3771309439612054  3.7638234816294251
  7.9283508029110470  4.2028885039612041  4.9056720246634260
  0.7333418264650459  0.0286460439612064  1.4801263955604247
  9.2769734714860466  2.1157672739612039  1.2413195077654247
  1.6683388343160463  2.1157672739612039 10.3382778525254242
  9.2769734714860466 14.6384946139612033  1.2413195077654247
  0.2119704793370459 12.5513733939612102 10.0994709647314238
  1.6683388343160463 14.6384946139612033 10.3382778525254242
  0.7333418264650459 10.4642521639612056  1.4801263955604247
  9.2769734714860466  8.3771309439612054  1.2413195077654247
  0.2119704793370459  6.2900097239612052 10.0994709647314238
  1.6683388343160463  8.3771309439612054 10.3382778525254242
  0.7333418264650459  4.2028885039612041  1.4801263955604247
  0.3197161516690458  0.0286460439612064  4.0026303708254254
  0.8410874987960457  2.1157672739612039  5.3832858016544245
  0.3197161516690458 10.4642521639612056  4.0026303708254254
  9.3847191438170459 12.5513733939612102  5.1444789138594240
  0.8410874987960457 14.6384946139612033  5.3832858016544245
  1.7760845066470456 12.5513733939612102  4.2414372586194258
  0.3197161516690458  4.2028885039612041  4.0026303708254254
  9.3847191438170459  6.2900097239612052  5.1444789138594240
  0.8410874987960457  8.3771309439612054  5.3832858016544245
  1.7760845066470456  6.2900097239612052  4.2414372586194258
  2.7110815144980465  0.0286460439612064  3.0995887155854254
  1.2547131595200458  2.1157672739612039  2.8607818277904244
  3.6460785223500460  2.1157672739612039  1.9577401725504247
  1.2547131595200458 14.6384946139612033  2.8607818277904244
  2.1897101673710457 12.5513733939612102  1.7189332847564243
  3.6460785223500460 14.6384946139612033  1.9577401725504247
  2.7110815144980465 10.4642521639612056  3.0995887155854254
  1.2547131595200458  8.3771309439612054  2.8607818277904244
  2.1897101673710457  6.2900097239612052  1.7189332847564243
  3.6460785223500460  8.3771309439612054  1.9577401725504247
  2.7110815144980465  4.2028885039612041  3.0995887155854254
  2.2974558397020459  0.0286460439612064  5.6220926908504243
  2.2974558397020459 10.4642521639612056  5.6220926908504243
  1.3624588318510464 12.5513733939612102  6.7639412338844247
  2.2974558397020459  4.2028885039612041  5.6220926908504243
  1.3624588318510464  6.2900097239612052  6.7639412338844247
  3.2324528475530463  2.1157672739612039  4.4802441478154247
  3.2324528475530463 14.6384946139612033  4.4802441478154247
  4.1674498554050468 12.5513733939612102  3.3383956047814243
  3.2324528475530463  8.3771309439612054  4.4802441478154247
  4.1674498554050468  6.2900097239612052  3.3383956047814243
  8.2239167374680466  0.0286460439612064 16.0748359283004270
  8.2239167374680466 10.4642521639612056 16.0748359283004270
  8.2239167374680466  4.2028885039612041 16.0748359283004270
  5.1321786099670463  2.1157672739612039 11.1037279881574236
  6.6074329502850455 12.5513733939612102 11.1444974180684238
  5.1321786099670463 14.6384946139612033 11.1037279881574236
  6.6074329502850455  6.2900097239612052 11.1444974180684238
  5.1321786099670463  8.3771309439612054 11.1037279881574236
  6.0463426024630458  0.0286460439612064 14.7360740502334231
  5.2734080705880455  2.1157672739612039 15.9932970651974244
  6.7486624109060473 12.5513733939612102 16.0340664951084264
  5.2734080705880455 14.6384946139612033 15.9932970651974244
  6.0463426024630458 10.4642521639612056 14.7360740502334231
  6.7486624109060473  6.2900097239612052 16.0340664951084264
  5.2734080705880455  8.3771309439612054 15.9932970651974244
  6.0463426024630458  4.2028885039612041 14.7360740502334231
  3.6569242834060467  0.0286460439612064 11.0629585549654248
  3.6569242834060467 10.4642521639612056 11.0629585549654248
  3.6569242834060467  4.2028885039612041 11.0629585549654248
  3.7981537440270454  0.0286460439612064 15.9525276320054239
  5.3440228077770477  2.1157672739612039 13.4380816020774247
  5.3440228077770477 14.6384946139612033 13.4380816020774247
  3.7981537440270454 10.4642521639612056 15.9525276320054239
  4.5710882759020457 12.5513733939612102 14.6953046170414243
  5.3440228077770477  8.3771309439612054 13.4380816020774247
  3.7981537440270454  4.2028885039612041 15.9525276320054239
  4.5710882759020457  6.2900097239612052 14.6953046170414243
  5.9506111148780469  0.0286460439612064 13.2862097046384235
  6.8856081227290460  2.1157672739612039 12.1443611616044240
  6.8856081227290460 14.6384946139612033 12.1443611616044240
  7.8206051305800468 12.5513733939612102 11.0025126185694244
  5.9506111148780469 10.4642521639612056 13.2862097046384235
  6.8856081227290460  8.3771309439612054 12.1443611616044240
  7.8206051305800468  6.2900097239612052 11.0025126185694244
  5.9506111148780469  4.2028885039612041 13.2862097046384235
  8.3419764636350475  0.0286460439612064 12.3831680508004247
  7.9283508029110470  0.0286460439612064 14.9056720246634242
  8.8633478107620451  2.1157672739612039 13.7638234816294247
  8.3419764636350475 10.4642521639612056 12.3831680508004247
  7.4069794557840458 12.5513733939612102 13.5250165938344242
  8.8633478107620451 14.6384946139612033 13.7638234816294247
  7.9283508029110470 10.4642521639612056 14.9056720246634242
  8.3419764636350475  4.2028885039612041 12.3831680508004247
  7.4069794557840458  6.2900097239612052 13.5250165938344242
  8.8633478107620451  8.3771309439612054 13.7638234816294247
  7.9283508029110470  4.2028885039612041 14.9056720246634242
  0.7333418264650459  0.0286460439612064 11.4801263955604238
  9.2769734714860466  2.1157672739612039 11.2413195077654251
  9.2769734714860466 14.6384946139612033 11.2413195077654251
  0.7333418264650459 10.4642521639612056 11.4801263955604238
  9.2769734714860466  8.3771309439612054 11.2413195077654251
  0.7333418264650459  4.2028885039612041 11.4801263955604238
  0.3197161516690458  0.0286460439612064 14.0026303708254254
  0.8410874987960457  2.1157672739612039 15.3832858016544236
  0.3197161516690458 10.4642521639612056 14.0026303708254254
  9.3847191438170459 12.5513733939612102 15.1444789138594231
  0.8410874987960457 14.6384946139612033 15.3832858016544236
  1.7760845066470456 12.5513733939612102 14.2414372586194258
  0.3197161516690458  4.2028885039612041 14.0026303708254254
  9.3847191438170459  6.2900097239612052 15.1444789138594231
  0.8410874987960457  8.3771309439612054 15.3832858016544236
  1.7760845066470456  6.2900097239612052 14.2414372586194258
  2.7110815144980465  0.0286460439612064 13.0995887155854245
  1.2547131595200458  2.1157672739612039 12.8607818277904240
  3.6460785223500460  2.1157672739612039 11.9577401725504249
  1.2547131595200458 14.6384946139612033 12.8607818277904240
  2.1897101673710457 12.5513733939612102 11.7189332847564245
  3.6460785223500460 14.6384946139612033 11.9577401725504249
  2.7110815144980465 10.4642521639612056 13.0995887155854245
  1.2547131595200458  8.3771309439612054 12.8607818277904240
  2.1897101673710457  6.2900097239612052 11.7189332847564245
  3.6460785223500460  8.3771309439612054 11.9577401725504249
  2.7110815144980465  4.2028885039612041 13.0995887155854245
  2.2974558397020459  0.0286460439612064 15.6220926908504278
  2.2974558397020459 10.4642521639612056 15.6220926908504278
  2.2974558397020459  4.2028885039612041 15.6220926908504278
  3.2324528475530463  2.1157672739612039 14.4802441478154247
  3.2324528475530463 14.6384946139612033 14.4802441478154247
  4.1674498554050468 12.5513733939612102 13.3383956047814252
  3.2324528475530463  8.3771309439612054 14.4802441478154247
  4.1674498554050468  6.2900097239612052 13.3383956047814252
 11.6683388343160477  2.1157672739612039  0.3382778525254242
 10.2119704793370456 12.5513733939612102  0.0994709647314238
 11.6683388343160477 14.6384946139612033  0.3382778525254242
 10.2119704793370456  6.2900097239612052  0.0994709647314238
 11.6683388343160477  8.3771309439612054  0.3382778525254242
 10.4014908724720456  0.0286460439612064  7.4135978063674255
 11.1038106809140462 12.5513733939612102  8.7115902512424235
 10.4014908724720456 10.4642521639612056  7.4135978063674255
 11.1038106809140462  6.2900097239612052  8.7115902512424235
 10.4014908724720456  4.2028885039612041  7.4135978063674255
 12.2522846802770466 12.5513733939612102  8.4669736619344249
 12.2522846802770466  6.2900097239612052  8.4669736619344249
  9.7983448186140460 12.5513733939612102  2.6219749385944242
  9.7983448186140460  6.2900097239612052  2.6219749385944242
 10.7333418264650469  0.0286460439612064  1.4801263955604247
 11.6683388343160477  2.1157672739612039 10.3382778525254242
 10.2119704793370456 12.5513733939612102 10.0994709647314238
 11.6683388343160477 14.6384946139612033 10.3382778525254242
 10.7333418264650469 10.4642521639612056  1.4801263955604247
 10.2119704793370456  6.2900097239612052 10.0994709647314238
 11.6683388343160477  8.3771309439612054 10.3382778525254242
 10.7333418264650469  4.2028885039612041  1.4801263955604247
 10.3197161516690450  0.0286460439612064  4.0026303708254254
  9.9060904909450471  0.0286460439612064  6.5251343446884258
 10.8410874987960479  2.1157672739612039  5.3832858016544245
 10.3197161516690450 10.4642521639612056  4.0026303708254254
 10.8410874987960479 14.6384946139612033  5.3832858016544245
 11.7760845066470452 12.5513733939612102  4.2414372586194258
  9.9060904909450471 10.4642521639612056  6.5251343446884258
 10.3197161516690450  4.2028885039612041  4.0026303708254254
 10.8410874987960479  8.3771309439612054  5.3832858016544245
 11.7760845066470452  6.2900097239612052  4.2414372586194258
  9.9060904909450471  4.2028885039612041  6.5251343446884258
 11.2547131595200458  2.1157672739612039  2.8607818277904244
 11.2547131595200458 14.6384946139612033  2.8607818277904244
 12.1897101673710448 12.5513733939612102  1.7189332847564243
 11.2547131595200458  8.3771309439612054  2.8607818277904244
 12.1897101673710448  6.2900097239612052  1.7189332847564243
 12.2974558397020459  0.0286460439612064  5.6220926908504243
 12.2974558397020459 10.4642521639612056  5.6220926908504243
 11.3624588318510469 12.5513733939612102  6.7639412338844247
 12.2974558397020459  4.2028885039612041  5.6220926908504243
 11.3624588318510469  6.2900097239612052  6.7639412338844247
  9.7983448186140460 12.5513733939612102 12.6219749385944233
  9.7983448186140460  6.2900097239612052 12.6219749385944233
 10.7333418264650469  0.0286460439612064 11.4801263955604238
 10.7333418264650469 10.4642521639612056 11.4801263955604238
 10.7333418264650469  4.2028885039612041 11.4801263955604238
 10.3197161516690450  0.0286460439612064 14.0026303708254254
 10.8410874987960479  2.1157672739612039 15.3832858016544236
 10.3197161516690450 10.4642521639612056 14.0026303708254254
 10.8410874987960479 14.6384946139612033 15.3832858016544236
 11.7760845066470452 12.5513733939612102 14.2414372586194258
 10.3197161516690450  4.2028885039612041 14.0026303708254254
 10.8410874987960479  8.3771309439612054 15.3832858016544236
 11.7760845066470452  6.2900097239612052 14.2414372586194258
 11.2547131595200458  2.1157672739612039 12.8607818277904240
 11.2547131595200458 14.6384946139612033 12.8607818277904240
 12.1897101673710448 12.5513733939612102 11.7189332847564245
 11.2547131595200458  8.3771309439612054 12.8607818277904240
 12.1897101673710448  6.2900097239612052 11.7189332847564245
 12.2974558397020459  0.0286460439612064 15.6220926908504278
 12.2974558397020459 10.4642521639612056 15.6220926908504278
 12.2974558397020459  4.2028885039612041 15.6220926908504278
