Cu
 1.0000000000000000
    15.2635356090502583    0.0000000000000000    0.0000000000000000
     0.0000000000000000   13.0945702242370103    0.0000000000000000
     0.0000000000000000    0.0000000000000000   16.5989754369842686
 Cu 
 274
Cartesian
  0.9203190001333128  5.5509338058490592  3.5183778489714852
  8.6721301279413137  5.5509338058490592  4.7348314340254856
  0.2179991916913127  3.4638125758490581  2.2203854040964863
  9.4450646598163122  1.3766913558490579  3.4776084190604859
  7.9698103332543120  3.4638125758490581  3.4368389858684854
  8.7427448651293123  5.5509338058490592  2.1796159709044858
  6.4945559929363164  5.5509338058490592  3.3960695559584861
  8.0404250566873170  3.4638125758490581  0.8816235260294869
  7.2674905248123158  1.3766913558490579  2.1388465409934874
  5.7216214610613143  3.4638125758490581  4.6532925709224866
  7.1968758013793126  1.3766913558490579  4.6940620008334850
  5.7922361982503130  3.4638125758490581  2.0980771078014868
  6.5651707301253150  5.5509338058490592  0.8408540928374865
  4.3169818579323138  5.5509338058490592  2.0573076778914849
  5.0899163898073123  1.3766913558490579  0.8000846629264853
  4.2463671345003124  5.5509338058490592  4.6125231377304861
  3.5440473260573131  3.4638125758490581  3.3145306928554872
  5.0193016663753127  1.3766913558490579  3.3553001227654846
  2.7711127941823128  1.3766913558490579  4.5717537078194876
  3.6146620632463131  3.4638125758490581  0.7593152297344847
  2.0687929994963130  5.5509338058490592  3.2737612596634866
  2.8417275313713137  1.3766913558490579  2.0165382446984870
  0.0284787985563127  5.5509338058490592  4.9062585624604846
  1.4848471535353132  1.3766913558490579  5.1450654502544850
  0.6575958180153127  1.3766913558490579  0.1900733993834853
  2.1139641589213127  3.4638125758490581  0.4288802885794851
  1.1789671510703130  5.5509338058490592  1.5707288316134855
  0.9203190001333128  5.5509338058490592 13.5183778489714843
  8.6721301279413137  5.5509338058490592 14.7348314340254856
  0.2179991916913127  3.4638125758490581 12.2203854040964863
  9.4450646598163122  1.3766913558490579 13.4776084190604859
  7.9698103332543120  3.4638125758490581 13.4368389858684854
  8.7427448651293123  5.5509338058490592 12.1796159709044858
  6.4945559929363164  5.5509338058490592 13.3960695559584853
  8.0404250566873170  3.4638125758490581 10.8816235260294860
  7.2674905248123158  1.3766913558490579 12.1388465409934874
  6.4239412695043141  5.5509338058490592  5.9512850157974855
  5.7216214610613143  3.4638125758490581 14.6532925709224866
  7.1968758013793126  1.3766913558490579 14.6940620008334850
  4.9486869291863131  1.3766913558490579  5.9105155858864853
  5.7922361982503130  3.4638125758490581 12.0980771078014868
  6.5651707301253150  5.5509338058490592 10.8408540928374855
  4.3169818579323138  5.5509338058490592 12.0573076778914849
  5.8628509216823135  3.4638125758490581  9.5428616479624857
  5.0899163898073123  1.3766913558490579 10.8000846629264853
  3.4734326026253135  3.4638125758490581  5.8697461526944856
  4.2463671345003124  5.5509338058490592 14.6125231377304861
  3.5440473260573131  3.4638125758490581 13.3145306928554881
  5.0193016663753127  1.3766913558490579 13.3553001227654846
  2.7711127941823128  1.3766913558490579 14.5717537078194876
  3.6146620632463131  3.4638125758490581 10.7593152297344865
  4.3875965951213125  5.5509338058490592  9.5020922147704852
  5.1605311269963137  1.3766913558490579  8.2448691998064856
  2.0687929994963130  5.5509338058490592 13.2737612596634875
  2.8417275313713137  1.3766913558490579 12.0165382446984879
  7.6371134497993136  5.5509338058490592  5.8093002162984853
  5.7671194340973146  3.4638125758490581  8.0929973023674862
  6.7021164419483128  1.3766913558490579  6.9511487593334849
  8.1584847828543143  3.4638125758490581  7.1899556485294855
  7.2234877750033126  5.5509338058490592  8.3318041915634851
  7.7448591221303129  3.4638125758490581  9.7124596223924851
  8.6798561299813137  1.3766913558490579  8.5706110793584855
  0.0284787985563127  5.5509338058490592 14.9062585624604846
  0.5498501456843128  3.4638125758490581  6.2869139932894855
  9.0934817907053134  1.3766913558490579  6.0481071054944850
  1.4848471535353132  1.3766913558490579 15.1450654502544850
  0.1362244708883126  3.4638125758490581  8.8094179685544862
  9.2012274630363144  5.5509338058490592  9.9512665115884857
  1.5925928258663129  5.5509338058490592  9.0482248563484866
  0.6575958180153127  1.3766913558490579 10.1900733993834862
  2.0062184865903125  5.5509338058490592  6.5257208824854853
  2.5275898337173133  3.4638125758490581  7.9063763133144853
  1.0712214787393126  1.3766913558490579  7.6675694255194848
  3.4625868415693128  1.3766913558490579  6.7645277702794857
  2.1139641589213127  3.4638125758490581 10.4288802885794851
  1.1789671510703130  5.5509338058490592 11.5707288316134864
  3.9839581746243127  5.5509338058490592  8.1451832025104842
  3.0489611667723127  1.3766913558490579  9.2870317455444855
  6.4239412695043141  5.5509338058490592 15.9512850157974846
  4.9486869291863131  1.3766913558490579 15.9105155858864844
  3.4734326026253135  3.4638125758490581 15.8697461526944856
  7.6371134497993136  5.5509338058490592 15.8093002162984853
  0.5498501456843128  3.4638125758490581 16.2869139932894846
  9.0934817907053134  1.3766913558490579 16.0481071054944877
  2.0062184865903125  5.5509338058490592 16.5257208824854871
  0.9203190001333128  9.7251762458490596  3.5183778489714852
  9.4450646598163122  7.6380550258490594  3.4776084190604859
  8.6721301279413137  9.7251762458490596  4.7348314340254856
  0.2179991916913127 11.8122974758490606  2.2203854040964863
  7.9698103332543120 11.8122974758490606  3.4368389858684854
  8.7427448651293123  9.7251762458490596  2.1796159709044858
  7.2674905248123158  7.6380550258490594  2.1388465409934874
  6.4945559929363164  9.7251762458490596  3.3960695559584861
  8.0404250566873170 11.8122974758490606  0.8816235260294869
  7.1968758013793126  7.6380550258490594  4.6940620008334850
  5.7216214610613143 11.8122974758490606  4.6532925709224866
  5.7922361982503130 11.8122974758490606  2.0980771078014868
  6.5651707301253150  9.7251762458490596  0.8408540928374865
  5.0899163898073123  7.6380550258490594  0.8000846629264853
  4.3169818579323138  9.7251762458490596  2.0573076778914849
  5.0193016663753127  7.6380550258490594  3.3553001227654846
  4.2463671345003124  9.7251762458490596  4.6125231377304861
  2.7711127941823128  7.6380550258490594  4.5717537078194876
  3.5440473260573131 11.8122974758490606  3.3145306928554872
  3.6146620632463131 11.8122974758490606  0.7593152297344847
  2.8417275313713137  7.6380550258490594  2.0165382446984870
  2.0687929994963130  9.7251762458490596  3.2737612596634866
  0.0284787985563127  9.7251762458490596  4.9062585624604846
  1.4848471535353132  7.6380550258490594  5.1450654502544850
  0.6575958180153127  7.6380550258490594  0.1900733993834853
  2.1139641589213127 11.8122974758490606  0.4288802885794851
  1.1789671510703130  9.7251762458490596  1.5707288316134855
  0.9203190001333128  9.7251762458490596 13.5183778489714843
  9.4450646598163122  7.6380550258490594 13.4776084190604859
  8.6721301279413137  9.7251762458490596 14.7348314340254856
  0.2179991916913127 11.8122974758490606 12.2203854040964863
  7.9698103332543120 11.8122974758490606 13.4368389858684854
  8.7427448651293123  9.7251762458490596 12.1796159709044858
  7.2674905248123158  7.6380550258490594 12.1388465409934874
  6.4945559929363164  9.7251762458490596 13.3960695559584853
  8.0404250566873170 11.8122974758490606 10.8816235260294860
  7.1968758013793126  7.6380550258490594 14.6940620008334850
  6.4239412695043141  9.7251762458490596  5.9512850157974855
  4.9486869291863131  7.6380550258490594  5.9105155858864853
  5.7216214610613143 11.8122974758490606 14.6532925709224866
  5.7922361982503130 11.8122974758490606 12.0980771078014868
  6.5651707301253150  9.7251762458490596 10.8408540928374855
  5.0899163898073123  7.6380550258490594 10.8000846629264853
  4.3169818579323138  9.7251762458490596 12.0573076778914849
  5.8628509216823135 11.8122974758490606  9.5428616479624857
  5.0193016663753127  7.6380550258490594 13.3553001227654846
  3.4734326026253135 11.8122974758490606  5.8697461526944856
  4.2463671345003124  9.7251762458490596 14.6125231377304861
  2.7711127941823128  7.6380550258490594 14.5717537078194876
  3.5440473260573131 11.8122974758490606 13.3145306928554881
  5.1605311269963137  7.6380550258490594  8.2448691998064856
  3.6146620632463131 11.8122974758490606 10.7593152297344865
  4.3875965951213125  9.7251762458490596  9.5020922147704852
  2.8417275313713137  7.6380550258490594 12.0165382446984879
  2.0687929994963130  9.7251762458490596 13.2737612596634875
  6.7021164419483128  7.6380550258490594  6.9511487593334849
  7.6371134497993136  9.7251762458490596  5.8093002162984853
  5.7671194340973146 11.8122974758490606  8.0929973023674862
  8.1584847828543143 11.8122974758490606  7.1899556485294855
  7.2234877750033126  9.7251762458490596  8.3318041915634851
  8.6798561299813137  7.6380550258490594  8.5706110793584855
  7.7448591221303129 11.8122974758490606  9.7124596223924851
  9.0934817907053134  7.6380550258490594  6.0481071054944850
  0.0284787985563127  9.7251762458490596 14.9062585624604846
  1.4848471535353132  7.6380550258490594 15.1450654502544850
  0.5498501456843128 11.8122974758490606  6.2869139932894855
  0.1362244708883126 11.8122974758490606  8.8094179685544862
  9.2012274630363144  9.7251762458490596  9.9512665115884857
  0.6575958180153127  7.6380550258490594 10.1900733993834862
  1.5925928258663129  9.7251762458490596  9.0482248563484866
  1.0712214787393126  7.6380550258490594  7.6675694255194848
  2.0062184865903125  9.7251762458490596  6.5257208824854853
  3.4625868415693128  7.6380550258490594  6.7645277702794857
  2.5275898337173133 11.8122974758490606  7.9063763133144853
  2.1139641589213127 11.8122974758490606 10.4288802885794851
  1.1789671510703130  9.7251762458490596 11.5707288316134864
  3.0489611667723127  7.6380550258490594  9.2870317455444855
  3.9839581746243127  9.7251762458490596  8.1451832025104842
  6.4239412695043141  9.7251762458490596 15.9512850157974846
  4.9486869291863131  7.6380550258490594 15.9105155858864844
  3.4734326026253135 11.8122974758490606 15.8697461526944856
  7.6371134497993136  9.7251762458490596 15.8093002162984853
  9.0934817907053134  7.6380550258490594 16.0481071054944877
  0.5498501456843128 11.8122974758490606 16.2869139932894846
  2.0062184865903125  9.7251762458490596 16.5257208824854871
 10.9203190001333130  5.5509338058490592  3.5183778489714852
 10.2179991916913160  3.4638125758490581  2.2203854040964863
 14.3169818579323174  5.5509338058490592  2.0573076778914849
 15.0899163898073159  1.3766913558490579  0.8000846629264853
 14.2463671345003124  5.5509338058490592  4.6125231377304861
 13.5440473260573135  3.4638125758490581  3.3145306928554872
 15.0193016663753127  1.3766913558490579  3.3553001227654846
 12.7711127941823133  1.3766913558490579  4.5717537078194876
 13.6146620632463122  3.4638125758490581  0.7593152297344847
 12.0687929994963135  5.5509338058490592  3.2737612596634866
 12.8417275313713137  1.3766913558490579  2.0165382446984870
 10.0284787985563160  5.5509338058490592  4.9062585624604846
 11.4848471535353127  1.3766913558490579  5.1450654502544850
  9.7225988101643157  3.4638125758490581  1.3319219424174866
 10.6575958180153130  1.3766913558490579  0.1900733993834853
 12.1139641589213127  3.4638125758490581  0.4288802885794851
 11.1789671510703137  5.5509338058490592  1.5707288316134855
 10.9203190001333130  5.5509338058490592 13.5183778489714843
 10.2179991916913160  3.4638125758490581 12.2203854040964863
 14.9486869291863140  1.3766913558490579  5.9105155858864853
 14.3169818579323174  5.5509338058490592 12.0573076778914849
 15.0899163898073159  1.3766913558490579 10.8000846629264853
 13.4734326026253122  3.4638125758490581  5.8697461526944856
 14.2463671345003124  5.5509338058490592 14.6125231377304861
 13.5440473260573135  3.4638125758490581 13.3145306928554881
 15.0193016663753127  1.3766913558490579 13.3553001227654846
 12.7711127941823133  1.3766913558490579 14.5717537078194876
 13.6146620632463122  3.4638125758490581 10.7593152297344865
 14.3875965951213161  5.5509338058490592  9.5020922147704852
 15.1605311269963163  1.3766913558490579  8.2448691998064856
 12.0687929994963135  5.5509338058490592 13.2737612596634875
 12.8417275313713137  1.3766913558490579 12.0165382446984879
  9.6148531378333129  5.5509338058490592  7.4287625363234850
 10.0284787985563160  5.5509338058490592 14.9062585624604846
 10.5498501456843119  3.4638125758490581  6.2869139932894855
 11.4848471535353127  1.3766913558490579 15.1450654502544850
 10.1362244708883118  3.4638125758490581  8.8094179685544862
 11.5925928258663120  5.5509338058490592  9.0482248563484866
  9.7225988101643157  3.4638125758490581 11.3319219424174875
 10.6575958180153130  1.3766913558490579 10.1900733993834862
 12.0062184865903152  5.5509338058490592  6.5257208824854853
 12.5275898337173164  3.4638125758490581  7.9063763133144853
 11.0712214787393126  1.3766913558490579  7.6675694255194848
 13.4625868415693137  1.3766913558490579  6.7645277702794857
 12.1139641589213127  3.4638125758490581 10.4288802885794851
 11.1789671510703137  5.5509338058490592 11.5707288316134864
 13.9839581746243127  5.5509338058490592  8.1451832025104842
 13.0489611667723171  1.3766913558490579  9.2870317455444855
 14.9486869291863140  1.3766913558490579 15.9105155858864844
 13.4734326026253122  3.4638125758490581 15.8697461526944856
 10.5498501456843119  3.4638125758490581 16.2869139932894846
 12.0062184865903152  5.5509338058490592 16.5257208824854871
 10.9203190001333130  9.7251762458490596  3.5183778489714852
 10.2179991916913160 11.8122974758490606  2.2203854040964863
 15.0899163898073159  7.6380550258490594  0.8000846629264853
 14.3169818579323174  9.7251762458490596  2.0573076778914849
 15.0193016663753127  7.6380550258490594  3.3553001227654846
 14.2463671345003124  9.7251762458490596  4.6125231377304861
 12.7711127941823133  7.6380550258490594  4.5717537078194876
 13.5440473260573135 11.8122974758490606  3.3145306928554872
 13.6146620632463122 11.8122974758490606  0.7593152297344847
 12.8417275313713137  7.6380550258490594  2.0165382446984870
 12.0687929994963135  9.7251762458490596  3.2737612596634866
 10.0284787985563160  9.7251762458490596  4.9062585624604846
 11.4848471535353127  7.6380550258490594  5.1450654502544850
 10.6575958180153130  7.6380550258490594  0.1900733993834853
  9.7225988101643157 11.8122974758490606  1.3319219424174866
 12.1139641589213127 11.8122974758490606  0.4288802885794851
 11.1789671510703137  9.7251762458490596  1.5707288316134855
 10.9203190001333130  9.7251762458490596 13.5183778489714843
 10.2179991916913160 11.8122974758490606 12.2203854040964863
 14.9486869291863140  7.6380550258490594  5.9105155858864853
 15.0899163898073159  7.6380550258490594 10.8000846629264853
 14.3169818579323174  9.7251762458490596 12.0573076778914849
 15.0193016663753127  7.6380550258490594 13.3553001227654846
 13.4734326026253122 11.8122974758490606  5.8697461526944856
 14.2463671345003124  9.7251762458490596 14.6125231377304861
 12.7711127941823133  7.6380550258490594 14.5717537078194876
 13.5440473260573135 11.8122974758490606 13.3145306928554881
 15.1605311269963163  7.6380550258490594  8.2448691998064856
 13.6146620632463122 11.8122974758490606 10.7593152297344865
 14.3875965951213161  9.7251762458490596  9.5020922147704852
 12.8417275313713137  7.6380550258490594 12.0165382446984879
 12.0687929994963135  9.7251762458490596 13.2737612596634875
  9.6148531378333129  9.7251762458490596  7.4287625363234850
 10.0284787985563160  9.7251762458490596 14.9062585624604846
 11.4848471535353127  7.6380550258490594 15.1450654502544850
 10.5498501456843119 11.8122974758490606  6.2869139932894855
 10.1362244708883118 11.8122974758490606  8.8094179685544862
 10.6575958180153130  7.6380550258490594 10.1900733993834862
 11.5925928258663120  9.7251762458490596  9.0482248563484866
  9.7225988101643157 11.8122974758490606 11.3319219424174875
 11.0712214787393126  7.6380550258490594  7.6675694255194848
 12.0062184865903152  9.7251762458490596  6.5257208824854853
 13.4625868415693137  7.6380550258490594  6.7645277702794857
 12.5275898337173164 11.8122974758490606  7.9063763133144853
 12.1139641589213127 11.8122974758490606 10.4288802885794851
 11.1789671510703137  9.7251762458490596 11.5707288316134864
 13.0489611667723171  7.6380550258490594  9.2870317455444855
 13.9839581746243127  9.7251762458490596  8.1451832025104842
 14.9486869291863140  7.6380550258490594 15.9105155858864844
 13.4734326026253122 11.8122974758490606 15.8697461526944856
 10.5498501456843119 11.8122974758490606 16.2869139932894846
 12.0062184865903152  9.7251762458490596 16.5257208824854871
