Cu
 1.0000000000000000
    13.3850227713800258    0.0000000000000000    0.0000000000000000
     0.0000000000000000   12.7337680465935854    0.0000000000000000
     0.0000000000000000    0.0000000000000000   13.4682658310425509
 Cu 
 198
Cartesian
  5.3836842530673428  9.6757584181328156  9.0373143501600683
  6.1566187849423413  5.5015159681328143  7.7800913351950678
  5.3836842530673428  3.4143947481328216  9.0373143501600683
  4.6813644583803420  7.5886371881328145  7.7393219020030672
  5.4542989902553414  9.6757584181328156  6.4820988870390668
  3.2061101180623441  9.6757584181328156  7.6985524720930671
  4.7519791818133426  7.5886371881328145  5.1841064421640679
  4.6813644583803420  1.3272735181328166  7.7393219020030672
  5.4542989902553414  3.4143947481328216  6.4820988870390668
  3.9790446499383432  5.5015159681328143  6.4413294571280693
  3.2061101180623441  3.4143947481328216  7.6985524720930671
  4.7519791818133426  1.3272735181328166  5.1841064421640679
  3.1354953946303414  9.6757584181328156  0.2537679319320679
  2.4331755861873434  7.5886371881328145  8.9557754870570676
  3.9084299265053417  5.5015159681328143  8.9965449169680678
  3.1354953946303414  3.4143947481328216  0.2537679319320679
  1.6602410543123427  5.5015159681328143  0.2129985020210680
  2.4331755861873434  1.3272735181328166  8.9557754870570676
  2.5037903233763430  7.5886371881328145  6.4005600239360696
  3.2767248552513424  9.6757584181328156  5.1433370089720682
  1.0285359830583434  9.6757584181328156  6.3597905940260659
  2.5744050468083417  7.5886371881328145  3.8453445640970676
  2.5037903233763430  1.3272735181328166  6.4005600239360696
  3.2767248552513424  3.4143947481328216  5.1433370089720682
  1.8014705149333414  5.5015159681328143  5.1025675790610663
  1.0285359830583434  3.4143947481328216  6.3597905940260659
  2.5744050468083417  1.3272735181328166  3.8453445640970676
  0.1849867277513413  7.5886371881328145  0.1722290688290680
  0.9579212596263417  9.6757584181328156  8.9150060538650671
  0.2556014511833427  7.5886371881328145  7.6170136089900691
  1.7308557915013421  5.5015159681328143  7.6577830389000665
  0.1849867277513413  1.3272735181328166  0.1722290688290680
  0.9579212596263417  3.4143947481328216  8.9150060538650671
  0.2556014511833427  1.3272735181328166  7.6170136089900691
  0.3262161883723414  7.5886371881328145  5.0617981458690666
  1.0991507202473418  9.6757584181328156  3.8045751309050679
  1.8720852521223428  5.5015159681328143  2.5473521159410670
  0.3262161883723414  1.3272735181328166  5.0617981458690666
  1.0991507202473418  3.4143947481328216  3.8045751309050679
  4.3486675749253427  9.6757584181328156  0.1117831324330679
  2.4786735592233429  7.5886371881328145  2.3954802185020672
  3.4136705670743424  5.5015159681328143  1.2536316754680674
  4.3486675749253427  3.4143947481328216  0.1117831324330679
  2.4786735592233429  1.3272735181328166  2.3954802185020672
  4.8700389079803434  7.5886371881328145  1.4924385646640679
  3.9350419001293422  9.6757584181328156  2.6342871076980678
  4.4564132472563420  7.5886371881328145  4.0149425385270678
  4.8700389079803434  1.3272735181328166  1.4924385646640679
  3.9350419001293422  3.4143947481328216  2.6342871076980678
  5.3914102551073411  5.5015159681328143  2.8730939954930688
  4.4564132472563420  1.3272735181328166  4.0149425385270678
  5.8050359158313425  5.5015159681328143  0.3505900216290682
  5.9127815881623436  9.6757584181328156  4.2537494277230676
  5.9127815881623436  3.4143947481328216  4.2537494277230676
  0.1741409666953420  5.5015159681328143  1.0670106864140683
  0.6955122997503418  9.6757584181328156  2.4476661186450679
  0.6955122997503418  3.4143947481328216  2.4476661186450679
  3.1354953946303414  9.6757584181328156 10.2537679319320674
  3.1354953946303414  3.4143947481328216 10.2537679319320674
  1.6602410543123427  5.5015159681328143 10.2129985020210672
  0.1849867277513413  7.5886371881328145 10.1722290688290684
  0.1849867277513413  1.3272735181328166 10.1722290688290684
  1.8720852521223428  5.5015159681328143 12.5473521159410648
  4.3486675749253427  9.6757584181328156 10.1117831324330663
  2.4786735592233429  7.5886371881328145 12.3954802185020636
  3.4136705670743424  5.5015159681328143 11.2536316754680676
  4.3486675749253427  3.4143947481328216 10.1117831324330663
  2.4786735592233429  1.3272735181328166 12.3954802185020636
  4.8700389079803434  7.5886371881328145 11.4924385646640683
  3.9350419001293422  9.6757584181328156 12.6342871076980643
  4.8700389079803434  1.3272735181328166 11.4924385646640683
  3.9350419001293422  3.4143947481328216 12.6342871076980643
  5.3914102551073411  5.5015159681328143 12.8730939954930648
  5.8050359158313425  5.5015159681328143 10.3505900216290669
  0.1741409666953420  5.5015159681328143 11.0670106864140649
  0.6955122997503418  9.6757584181328156 12.4476661186450688
  0.6955122997503418  3.4143947481328216 12.4476661186450688
  6.1566187849423413 11.7628796381328158  7.7800913351950678
  3.9790446499383432 11.7628796381328158  6.4413294571280693
  3.9084299265053417 11.7628796381328158  8.9965449169680678
  1.6602410543123427 11.7628796381328158  0.2129985020210680
  1.8014705149333414 11.7628796381328158  5.1025675790610663
  1.7308557915013421 11.7628796381328158  7.6577830389000665
  1.8720852521223428 11.7628796381328158  2.5473521159410670
  3.4136705670743424 11.7628796381328158  1.2536316754680674
  5.3914102551073411 11.7628796381328158  2.8730939954930688
  5.8050359158313425 11.7628796381328158  0.3505900216290682
  0.1741409666953420 11.7628796381328158  1.0670106864140683
  1.6602410543123427 11.7628796381328158 10.2129985020210672
  1.8720852521223428 11.7628796381328158 12.5473521159410648
  3.4136705670743424 11.7628796381328158 11.2536316754680676
  5.3914102551073411 11.7628796381328158 12.8730939954930648
  5.8050359158313425 11.7628796381328158 10.3505900216290669
  0.1741409666953420 11.7628796381328158 11.0670106864140649
  7.6318731252593413  9.6757584181328156  7.8208607651060662
  6.9295533168173415  7.5886371881328145  6.5228683202310673
  7.6318731252593413  3.4143947481328216  7.8208607651060662
  6.9295533168173415  1.3272735181328166  6.5228683202310673
 13.2061101180623481  9.6757584181328156  7.6985524720930671
 13.2061101180623481  3.4143947481328216  7.6985524720930671
 13.1354953946303450  9.6757584181328156  0.2537679319320679
 12.4331755861873425  7.5886371881328145  8.9557754870570676
 13.1354953946303450  3.4143947481328216  0.2537679319320679
 11.6602410543123423  5.5015159681328143  0.2129985020210680
 12.4331755861873425  1.3272735181328166  8.9557754870570676
 12.5037903233763448  7.5886371881328145  6.4005600239360696
 13.2767248552513433  9.6757584181328156  5.1433370089720682
 11.0285359830583438  9.6757584181328156  6.3597905940260659
 12.5744050468083408  7.5886371881328145  3.8453445640970676
 12.5037903233763448  1.3272735181328166  6.4005600239360696
 13.2767248552513433  3.4143947481328216  5.1433370089720682
 11.8014705149333423  5.5015159681328143  5.1025675790610663
 11.0285359830583438  3.4143947481328216  6.3597905940260659
 12.5744050468083408  1.3272735181328166  3.8453445640970676
 10.1849867277513422  7.5886371881328145  0.1722290688290680
 10.9579212596263460  9.6757584181328156  8.9150060538650671
 10.2556014511833418  7.5886371881328145  7.6170136089900691
 11.7308557915013445  5.5015159681328143  7.6577830389000665
 10.1849867277513422  1.3272735181328166  0.1722290688290680
 10.9579212596263460  3.4143947481328216  8.9150060538650671
  9.4826669193083433  5.5015159681328143  8.8742366239540669
 10.2556014511833418  1.3272735181328166  7.6170136089900691
 10.3262161883723458  7.5886371881328145  5.0617981458690666
 11.0991507202473443  9.6757584181328156  3.8045751309050679
 11.8720852521223428  5.5015159681328143  2.5473521159410670
 10.3262161883723458  1.3272735181328166  5.0617981458690666
 11.0991507202473443  3.4143947481328216  3.8045751309050679
  8.7803471246223417  9.6757584181328156  7.5762441757980676
  9.5532816564973473  5.5015159681328143  6.3190211608330689
  8.7803471246223417  3.4143947481328216  7.5762441757980676
 12.4786735592233420  7.5886371881328145  2.3954802185020672
 12.4786735592233420  1.3272735181328166  2.3954802185020672
  6.3264072629593429  9.6757584181328156  1.7312454524580676
  6.3264072629593429  3.4143947481328216  1.7312454524580676
  6.7400329236823424  9.6757584181328156  9.2087414785950639
  7.2614042708103428  7.5886371881328145  0.5893969094240681
  6.7400329236823424  3.4143947481328216  9.2087414785950639
  8.1964012786613445  5.5015159681328143  9.4475483663890678
  7.2614042708103428  1.3272735181328166  0.5893969094240681
  6.8477785960143427  7.5886371881328145  3.1119008846890681
  8.3041469509923420  9.6757584181328156  3.3507077724830689
  6.4341529352903422  7.5886371881328145  5.6344048585520694
  6.8477785960143427  1.3272735181328166  3.1119008846890681
  7.3691499431413412  5.5015159681328143  4.4925563155180681
  8.3041469509923420  3.4143947481328216  3.3507077724830689
  6.4341529352903422  1.3272735181328166  5.6344048585520694
  8.7177726117163417  9.6757584181328156  0.8282037986200677
  9.2391439588433464  7.5886371881328145  2.2088592294490672
  7.7827756038653417  5.5015159681328143  1.9700523416540681
  8.7177726117163417  3.4143947481328216  0.8282037986200677
 10.1741409666953455  5.5015159681328143  1.0670106864140683
  9.2391439588433464  1.3272735181328166  2.2088592294490672
  8.8255182840473427  7.5886371881328145  4.7313632047140679
  7.8905212761963428  9.6757584181328156  5.8732117477480665
  8.8255182840473427  1.3272735181328166  4.7313632047140679
  7.8905212761963428  3.4143947481328216  5.8732117477480665
 10.6955122997503409  9.6757584181328156  2.4476661186450679
  9.7605152918983418  5.5015159681328143  3.5895146616790683
 10.6955122997503409  3.4143947481328216  2.4476661186450679
 13.1354953946303450  9.6757584181328156 10.2537679319320674
 13.1354953946303450  3.4143947481328216 10.2537679319320674
 11.6602410543123423  5.5015159681328143 10.2129985020210672
 10.1849867277513422  7.5886371881328145 10.1722290688290684
 10.1849867277513422  1.3272735181328166 10.1722290688290684
 11.8720852521223428  5.5015159681328143 12.5473521159410648
 12.4786735592233420  7.5886371881328145 12.3954802185020636
 12.4786735592233420  1.3272735181328166 12.3954802185020636
  6.3264072629593429  9.6757584181328156 11.7312454524580669
  6.3264072629593429  3.4143947481328216 11.7312454524580669
  7.2614042708103428  7.5886371881328145 10.5893969094240656
  7.2614042708103428  1.3272735181328166 10.5893969094240656
  6.8477785960143427  7.5886371881328145 13.1119008846890654
  8.3041469509923420  9.6757584181328156 13.3507077724830694
  6.8477785960143427  1.3272735181328166 13.1119008846890654
  8.3041469509923420  3.4143947481328216 13.3507077724830694
  8.7177726117163417  9.6757584181328156 10.8282037986200663
  9.2391439588433464  7.5886371881328145 12.2088592294490681
  7.7827756038653417  5.5015159681328143 11.9700523416540676
  8.7177726117163417  3.4143947481328216 10.8282037986200663
 10.1741409666953455  5.5015159681328143 11.0670106864140649
  9.2391439588433464  1.3272735181328166 12.2088592294490681
 10.6955122997503409  9.6757584181328156 12.4476661186450688
 10.6955122997503409  3.4143947481328216 12.4476661186450688
 11.6602410543123423 11.7628796381328158  0.2129985020210680
 11.8014705149333423 11.7628796381328158  5.1025675790610663
 11.7308557915013445 11.7628796381328158  7.6577830389000665
  9.4826669193083433 11.7628796381328158  8.8742366239540669
 11.8720852521223428 11.7628796381328158  2.5473521159410670
  9.5532816564973473 11.7628796381328158  6.3190211608330689
  8.1964012786613445 11.7628796381328158  9.4475483663890678
  7.3691499431413412 11.7628796381328158  4.4925563155180681
  7.7827756038653417 11.7628796381328158  1.9700523416540681
 10.1741409666953455 11.7628796381328158  1.0670106864140683
  9.7605152918983418 11.7628796381328158  3.5895146616790683
 11.6602410543123423 11.7628796381328158 10.2129985020210672
 11.8720852521223428 11.7628796381328158 12.5473521159410648
  7.7827756038653417 11.7628796381328158 11.9700523416540676
 10.1741409666953455 11.7628796381328158 11.0670106864140649
