Cu
 1.0000000000000000
    14.5363272905379031    0.0000000000000000    0.0000000000000000
     0.0000000000000000   12.2884786742189096    0.0000000000000000
     0.0000000000000000    0.0000000000000000   15.3472003532548840
 Cu 
 234
Cartesian
  2.2950109341609810  1.0990130650805572  1.1895019781823604
  2.2950109341609810  7.3603767350805578  1.1895019781823604
  0.8197566075989808  5.2732555150805567  1.1487325449903598
  0.8197566075989808 11.5346191850805582  1.1487325449903598
  2.2950109341609810  1.0990130650805572 11.1895019781823599
  3.0679454660359804  5.2732555150805567  9.9322789632173638
  2.2950109341609810  7.3603767350805578 11.1895019781823599
  3.0679454660359804 11.5346191850805582  9.9322789632173638
  1.5926911394739802  3.1861342950805569  9.8915095300253597
  2.3656256713489805  1.0990130650805572  8.6342865150613601
  0.1174367991559828  1.0990130650805572  9.8507401001153596
  1.6633058629069817  3.1861342950805569  7.3362940701863613
  1.5926911394739802  9.4474979650805579  9.8915095300253597
  2.3656256713489805  7.3603767350805578  8.6342865150613601
  0.8903713310319822  5.2732555150805567  8.5935170851503653
  0.1174367991559828  7.3603767350805578  9.8507401001153596
  1.6633058629069817  9.4474979650805579  7.3362940701863613
  0.8903713310319822 11.5346191850805582  8.5935170851503653
  0.0468220757239806  1.0990130650805572  2.4059555599543594
  0.8197566075989808  5.2732555150805567 11.1487325449903594
  0.0468220757239806  7.3603767350805578  2.4059555599543594
  0.8197566075989808 11.5346191850805582 11.1487325449903594
  0.1880515363449815  1.0990130650805572  7.2955246369943607
  0.1880515363449815  7.3603767350805578  7.2955246369943607
  1.2599942560189814  1.0990130650805572  2.2639707604553601
  0.3249972481679810  5.2732555150805567  3.4058193034903592
  1.2599942560189814  7.3603767350805578  2.2639707604553601
  0.3249972481679810 11.5346191850805582  3.4058193034903592
  1.7813655890739821  3.1861342950805569  3.6446261926863608
  0.8463685812229806  1.0990130650805572  4.7864747357203612
  1.3677399283499807  3.1861342950805569  6.1671301665493612
  1.7813655890739821  9.4474979650805579  3.6446261926863608
  0.8463685812229806  7.3603767350805578  4.7864747357203612
  2.3027369362009802  5.2732555150805567  5.0252816235153617
  1.3677399283499807  9.4474979650805579  6.1671301665493612
  2.3027369362009802 11.5346191850805582  5.0252816235153617
  2.7163625969249807  5.2732555150805567  2.5027776496513598
  2.7163625969249807 11.5346191850805582  2.5027776496513598
  2.8241082692559809  1.0990130650805572  6.4059370557453592
  2.8241082692559809  7.3603767350805578  6.4059370557453592
  0.0468220757239806  1.0990130650805572 12.4059555599543625
  0.0468220757239806  7.3603767350805578 12.4059555599543625
  1.2599942560189814  1.0990130650805572 12.2639707604553614
  0.3249972481679810  5.2732555150805567 13.4058193034903592
  1.2599942560189814  7.3603767350805578 12.2639707604553614
  0.3249972481679810 11.5346191850805582 13.4058193034903592
  1.7813655890739821  3.1861342950805569 13.6446261926863599
  0.8463685812229806  1.0990130650805572 14.7864747357203630
  1.7813655890739821  9.4474979650805579 13.6446261926863599
  0.8463685812229806  7.3603767350805578 14.7864747357203630
  2.3027369362009802  5.2732555150805567 15.0252816235153617
  2.3027369362009802 11.5346191850805582 15.0252816235153617
  2.7163625969249807  5.2732555150805567 12.5027776496513638
  2.7163625969249807 11.5346191850805582 12.5027776496513638
 12.2950109341609810  1.0990130650805572  1.1895019781823604
 12.2950109341609810  7.3603767350805578  1.1895019781823604
  9.3445022672809834  3.1861342950805569  1.1079631150793614
 10.8197566075989808  5.2732555150805567  1.1487325449903598
  9.3445022672809834  9.4474979650805579  1.1079631150793614
 10.8197566075989808 11.5346191850805582  1.1487325449903598
  7.8692479407199789  1.0990130650805572  1.0671936818873609
  7.8692479407199789  7.3603767350805578  1.0671936818873609
  6.3939936004019788  5.2732555150805567  1.0264242519763624
  6.3939936004019788 11.5346191850805582  1.0264242519763624
  3.6513596047759806  1.0990130650805572  1.3609291066173590
  3.6513596047759806  7.3603767350805578  1.3609291066173590
  5.1077279597549818  5.2732555150805567  1.5997359944113594
  5.1077279597549818 11.5346191850805582  1.5997359944113594
  4.5431998063529804  1.0990130650805572  9.9730483931283622
 12.2950109341609810  1.0990130650805572 11.1895019781823599
  3.8408799979109802  3.1861342950805569  8.6750559482533607
  4.5431998063529804  7.3603767350805578  9.9730483931283622
 13.0679454660359795  5.2732555150805567  9.9322789632173638
 12.2950109341609810  7.3603767350805578 11.1895019781823599
  3.8408799979109802  9.4474979650805579  8.6750559482533607
 13.0679454660359795 11.5346191850805582  9.9322789632173638
 11.5926911394739811  3.1861342950805569  9.8915095300253597
 12.3656256713489761  1.0990130650805572  8.6342865150613601
 10.1174367991559819  1.0990130650805572  9.8507401001153596
 11.6633058629069808  3.1861342950805569  7.3362940701863613
 11.5926911394739811  9.4474979650805579  9.8915095300253597
 12.3656256713489761  7.3603767350805578  8.6342865150613601
 10.8903713310319823  5.2732555150805567  8.5935170851503653
 10.1174367991559819  7.3603767350805578  9.8507401001153596
 11.6633058629069808  9.4474979650805579  7.3362940701863613
 10.8903713310319823 11.5346191850805582  8.5935170851503653
 10.0468220757239806  1.0990130650805572  2.4059555599543594
  9.3445022672809834  3.1861342950805569 11.1079631150793610
 10.8197566075989808  5.2732555150805567 11.1487325449903594
 10.0468220757239806  7.3603767350805578  2.4059555599543594
  8.5715677354059778  5.2732555150805567  2.3651861300433605
  9.3445022672809834  9.4474979650805579 11.1079631150793610
 10.8197566075989808 11.5346191850805582 11.1487325449903594
  8.5715677354059778 11.5346191850805582  2.3651861300433605
  9.4151170044699803  3.1861342950805569  8.5527476519583612
 10.1880515363449806  1.0990130650805572  7.2955246369943607
  7.9398626641519812  1.0990130650805572  8.5119782220483593
  9.4857317279019817  3.1861342950805569  5.9975321921193609
  9.4151170044699803  9.4474979650805579  8.5527476519583612
 10.1880515363449806  7.3603767350805578  7.2955246369943607
  8.7127971960269797  5.2732555150805567  7.2547552070833596
  7.9398626641519812  7.3603767350805578  8.5119782220483593
  9.4857317279019817  9.4474979650805579  5.9975321921193609
  8.7127971960269797 11.5346191850805582  7.2547552070833596
  7.0963134088449813  3.1861342950805569  2.3244166968513604
  7.8692479407199789  1.0990130650805572 11.0671936818873640
  7.1669281322769809  3.1861342950805569  9.7692012370123624
  8.6421824725949818  5.2732555150805567  9.8099706669223625
  7.0963134088449813  9.4474979650805579  2.3244166968513604
  7.8692479407199789  7.3603767350805578 11.0671936818873640
  6.3939936004019788  5.2732555150805567 11.0264242519763656
  7.1669281322769809  9.4474979650805579  9.7692012370123624
  8.6421824725949818 11.5346191850805582  9.8099706669223625
  6.3939936004019788 11.5346191850805582 11.0264242519763656
  7.2375428694659787  3.1861342950805569  7.2139857738913591
  8.0104774013409816  1.0990130650805572  5.9567627589273613
  8.7834119332159801  5.2732555150805567  4.6995397439633599
  7.2375428694659787  9.4474979650805579  7.2139857738913591
  8.0104774013409816  7.3603767350805578  5.9567627589273613
  8.7834119332159801 11.5346191850805582  4.6995397439633599
  5.6916738057159808  1.0990130650805572  9.7284318038203601
  6.4646083375909802  5.2732555150805567  8.4712087888553640
  5.6916738057159808  7.3603767350805578  9.7284318038203601
  6.4646083375909802 11.5346191850805582  8.4712087888553640
 11.2599942560189774  1.0990130650805572  2.2639707604553601
  9.3900002403169829  3.1861342950805569  4.5476678465243596
 10.3249972481679819  5.2732555150805567  3.4058193034903592
 11.2599942560189774  7.3603767350805578  2.2639707604553601
  9.3900002403169829  9.4474979650805579  4.5476678465243596
 10.3249972481679819 11.5346191850805582  3.4058193034903592
 11.7813655890739781  3.1861342950805569  3.6446261926863608
 10.8463685812229791  1.0990130650805572  4.7864747357203612
  3.2377339440529798  1.0990130650805572  3.8834330804803598
 11.3677399283499803  3.1861342950805569  6.1671301665493612
 11.7813655890739781  9.4474979650805579  3.6446261926863608
 10.8463685812229791  7.3603767350805578  4.7864747357203612
 12.3027369362009757  5.2732555150805567  5.0252816235153617
  3.2377339440529798  7.3603767350805578  3.8834330804803598
 11.3677399283499803  9.4474979650805579  6.1671301665493612
 12.3027369362009757 11.5346191850805582  5.0252816235153617
  3.6513596047759806  1.0990130650805572 11.3609291066173590
  4.1727309519039810  3.1861342950805569  2.7415845374463599
 12.7163625969249807  5.2732555150805567  2.5027776496513598
  3.6513596047759806  7.3603767350805578 11.3609291066173590
  5.1077279597549818  5.2732555150805567 11.5997359944113629
  4.1727309519039810  9.4474979650805579  2.7415845374463599
 12.7163625969249807 11.5346191850805582  2.5027776496513598
  5.1077279597549818 11.5346191850805582 11.5997359944113629
  3.7591052771079809  3.1861342950805569  5.2640885127113606
 12.8241082692559765  1.0990130650805572  6.4059370557453592
  5.2154736320859811  1.0990130650805572  5.5028954005053627
  3.3454796163839808  3.1861342950805569  7.7865924865743628
  3.7591052771079809  9.4474979650805579  5.2640885127113606
 12.8241082692559765  7.3603767350805578  6.4059370557453592
  4.2804766242349803  5.2732555150805567  6.6447439435403597
  5.2154736320859811  7.3603767350805578  5.5028954005053627
  3.3454796163839808  9.4474979650805579  7.7865924865743628
  4.2804766242349803 11.5346191850805582  6.6447439435403597
  5.6290992928099808  1.0990130650805572  2.9803914266423606
  6.1504706399369820  3.1861342950805569  4.3610468574713614
  4.6941022849589791  5.2732555150805567  4.1222399696763610
  5.6290992928099808  7.3603767350805578  2.9803914266423606
  7.0854676477889811  5.2732555150805567  3.2191983144363610
  6.1504706399369820  9.4474979650805579  4.3610468574713614
  4.6941022849589791 11.5346191850805582  4.1222399696763610
  7.0854676477889811 11.5346191850805582  3.2191983144363610
  5.7368449651409792  3.1861342950805569  6.8835508327363613
  4.8018479572899810  1.0990130650805572  8.0253993757703590
  5.7368449651409792  9.4474979650805579  6.8835508327363613
  4.8018479572899810  7.3603767350805578  8.0253993757703590
  7.6068389808439800  1.0990130650805572  4.5998537466673595
  6.6718419729919791  5.2732555150805567  5.7417022897013599
  7.6068389808439800  7.3603767350805578  4.5998537466673595
  6.6718419729919791 11.5346191850805582  5.7417022897013599
 10.0468220757239806  1.0990130650805572 12.4059555599543625
 10.0468220757239806  7.3603767350805578 12.4059555599543625
  8.5715677354059778  5.2732555150805567 12.3651861300433623
  8.5715677354059778 11.5346191850805582 12.3651861300433623
  7.0963134088449813  3.1861342950805569 12.3244166968513600
  7.0963134088449813  9.4474979650805579 12.3244166968513600
  8.7834119332159801  5.2732555150805567 14.6995397439633635
  8.7834119332159801 11.5346191850805582 14.6995397439633635
 11.2599942560189774  1.0990130650805572 12.2639707604553614
  9.3900002403169829  3.1861342950805569 14.5476678465243623
 10.3249972481679819  5.2732555150805567 13.4058193034903592
 11.2599942560189774  7.3603767350805578 12.2639707604553614
  9.3900002403169829  9.4474979650805579 14.5476678465243623
 10.3249972481679819 11.5346191850805582 13.4058193034903592
 11.7813655890739781  3.1861342950805569 13.6446261926863599
 10.8463685812229791  1.0990130650805572 14.7864747357203630
  3.2377339440529798  1.0990130650805572 13.8834330804803621
 11.7813655890739781  9.4474979650805579 13.6446261926863599
 10.8463685812229791  7.3603767350805578 14.7864747357203630
 12.3027369362009757  5.2732555150805567 15.0252816235153617
  3.2377339440529798  7.3603767350805578 13.8834330804803621
 12.3027369362009757 11.5346191850805582 15.0252816235153617
  4.1727309519039810  3.1861342950805569 12.7415845374463590
 12.7163625969249807  5.2732555150805567 12.5027776496513638
  4.1727309519039810  9.4474979650805579 12.7415845374463590
 12.7163625969249807 11.5346191850805582 12.5027776496513638
  3.7591052771079809  3.1861342950805569 15.2640885127113641
  3.7591052771079809  9.4474979650805579 15.2640885127113641
  5.6290992928099808  1.0990130650805572 12.9803914266423597
  6.1504706399369820  3.1861342950805569 14.3610468574713614
  4.6941022849589791  5.2732555150805567 14.1222399696763627
  5.6290992928099808  7.3603767350805578 12.9803914266423597
  7.0854676477889811  5.2732555150805567 13.2191983144363636
  6.1504706399369820  9.4474979650805579 14.3610468574713614
  4.6941022849589791 11.5346191850805582 14.1222399696763627
  7.0854676477889811 11.5346191850805582 13.2191983144363636
  7.6068389808439800  1.0990130650805572 14.5998537466673639
  7.6068389808439800  7.3603767350805578 14.5998537466673639
 13.6513596047759762  1.0990130650805572  1.3609291066173590
 13.6513596047759762  7.3603767350805578  1.3609291066173590
 13.8408799979109798  3.1861342950805569  8.6750559482533607
 13.8408799979109798  9.4474979650805579  8.6750559482533607
 13.2377339440529767  1.0990130650805572  3.8834330804803598
 13.2377339440529767  7.3603767350805578  3.8834330804803598
 13.6513596047759762  1.0990130650805572 11.3609291066173590
 14.1727309519039792  3.1861342950805569  2.7415845374463599
 13.6513596047759762  7.3603767350805578 11.3609291066173590
 14.1727309519039792  9.4474979650805579  2.7415845374463599
 13.7591052771079809  3.1861342950805569  5.2640885127113606
 13.3454796163839795  3.1861342950805569  7.7865924865743628
 13.7591052771079809  9.4474979650805579  5.2640885127113606
 14.2804766242349785  5.2732555150805567  6.6447439435403597
 13.3454796163839795  9.4474979650805579  7.7865924865743628
 14.2804766242349785 11.5346191850805582  6.6447439435403597
 13.2377339440529767  1.0990130650805572 13.8834330804803621
 13.2377339440529767  7.3603767350805578 13.8834330804803621
 14.1727309519039792  3.1861342950805569 12.7415845374463590
 14.1727309519039792  9.4474979650805579 12.7415845374463590
 13.7591052771079809  3.1861342950805569 15.2640885127113641
 13.7591052771079809  9.4474979650805579 15.2640885127113641
