Cu
 1.0000000000000000
    15.4937391138588989    0.0000000000000000    0.0000000000000000
     0.0000000000000000   13.7166773825562345    0.0000000000000000
     0.0000000000000000    0.0000000000000000   15.2682291497970901
 Cu 
 289
Cartesian
  2.0424108645293133  2.7444103639320518  5.4676774998991515
  1.2694763326543144  4.8315315839320530  6.7249005148641512
  2.0424108645293133  9.0057740339320524  5.4676774998991515
  1.2694763326543144 11.0928952539320527  6.7249005148641512
  0.5671565379673129  0.6572891439320525  5.4269080667071510
  0.6377712614003144  0.6572891439320525  2.8716926068681525
  0.5671565379673129  6.9186528139320522  5.4269080667071510
  1.3400910698423130  4.8315315839320530  4.1696850517431514
  0.6377712614003144  6.9186528139320522  2.8716926068681525
  0.5671565379673129 13.1800164739320529  5.4269080667071510
  1.3400910698423130 11.0928952539320527  4.1696850517431514
  0.6377712614003144 13.1800164739320529  2.8716926068681525
  0.3422053268433141  0.6572891439320525  1.7025287032311507
  1.2772023346943127  2.7444103639320518  0.5606801601971512
  0.3422053268433141  6.9186528139320522  1.7025287032311507
  1.2772023346943127  9.0057740339320524  0.5606801601971512
  0.3422053268433141 13.1800164739320529  1.7025287032311507
  1.7985736677493134  4.8315315839320530  1.9413355924271507
  1.7985736677493134 11.0928952539320527  1.9413355924271507
  0.6377712614003144  0.6572891439320525 12.8716926068681516
  1.3400910698423130  4.8315315839320530 14.1696850517431514
  0.6377712614003144  6.9186528139320522 12.8716926068681516
  1.3400910698423130 11.0928952539320527 14.1696850517431514
  0.6377712614003144 13.1800164739320529 12.8716926068681516
  0.2344596545123147  4.8315315839320530  7.7993692971371518
  0.2344596545123147 11.0928952539320527  7.7993692971371518
  0.7558309875673153  0.6572891439320525  9.1800247293681512
  0.3422053268433141  0.6572891439320525 11.7025287032311471
  0.7558309875673153  6.9186528139320522  9.1800247293681512
  1.2772023346943127  2.7444103639320518 10.5606801601971512
  0.3422053268433141  6.9186528139320522 11.7025287032311471
  0.7558309875673153 13.1800164739320529  9.1800247293681512
  1.2772023346943127  9.0057740339320524 10.5606801601971512
  0.3422053268433141 13.1800164739320529 11.7025287032311471
  1.6908279954183145  2.7444103639320518  8.0381761863331516
  1.6908279954183145  9.0057740339320524  8.0381761863331516
  1.7985736677493134  4.8315315839320530 11.9413355924271514
  1.7985736677493134 11.0928952539320527 11.9413355924271514
  2.8153453964043127  0.6572891439320525  4.2104544849351520
  3.5176652048463128  4.8315315839320530  5.5084469298101499
 12.0424108645293089  2.7444103639320518  5.4676774998991515
 11.2694763326543139  4.8315315839320530  6.7249005148641512
  2.8153453964043127  6.9186528139320522  4.2104544849351520
  3.5176652048463128 11.0928952539320527  5.5084469298101499
 12.0424108645293089  9.0057740339320524  5.4676774998991515
 11.2694763326543139 11.0928952539320527  6.7249005148641512
  2.8153453964043127 13.1800164739320529  4.2104544849351520
 10.5671565379673105  0.6572891439320525  5.4269080667071510
 10.6377712614003137  0.6572891439320525  2.8716926068681525
 10.5671565379673105  6.9186528139320522  5.4269080667071510
 11.3400910698423125  4.8315315839320530  4.1696850517431514
  9.8648367295253117  2.7444103639320518  4.1289156218321530
  9.0919021976493113  4.8315315839320530  5.3861386367971509
 10.6377712614003137  6.9186528139320522  2.8716926068681525
 10.5671565379673105 13.1800164739320529  5.4269080667071510
 11.3400910698423125 11.0928952539320527  4.1696850517431514
  9.8648367295253117  9.0057740339320524  4.1289156218321530
  9.0919021976493113 11.0928952539320527  5.3861386367971509
 10.6377712614003137 13.1800164739320529  2.8716926068681525
  8.3189676657743146  0.6572891439320525  6.6433616517611522
  9.7942220060923137  2.7444103639320518  6.6841310816721506
  8.3189676657743146  6.9186528139320522  6.6433616517611522
  9.7942220060923137  9.0057740339320524  6.6841310816721506
  8.3189676657743146 13.1800164739320529  6.6433616517611522
  8.3895824029633097  0.6572891439320525  4.0881461886401524
  8.4601971263953111  0.6572891439320525  1.5329307288011504
  8.3895824029633097  6.9186528139320522  4.0881461886401524
  9.1625169348383153  4.8315315839320530  2.8309231736761520
  7.6872625945203135  2.7444103639320518  2.7901537437651509
  6.9143280626453132  4.8315315839320530  4.0473767587301506
  8.4601971263953111  6.9186528139320522  1.5329307288011504
  8.3895824029633097 13.1800164739320529  4.0881461886401524
  9.1625169348383153 11.0928952539320527  2.8309231736761520
  7.6872625945203135  9.0057740339320524  2.7901537437651509
  6.9143280626453132 11.0928952539320527  4.0473767587301506
  8.4601971263953111 13.1800164739320529  1.5329307288011504
  6.1413935307703120  0.6572891439320525  5.3045997736941528
  7.6166478710883139  2.7444103639320518  5.3453692036041494
  6.8437133392133118  4.8315315839320530  6.6025922185691517
  5.3684589988953118  2.7444103639320518  6.5618227886581533
  6.1413935307703120  6.9186528139320522  5.3045997736941528
  7.6166478710883139  9.0057740339320524  5.3453692036041494
  6.8437133392133118 11.0928952539320527  6.6025922185691517
  5.3684589988953118  9.0057740339320524  6.5618227886581533
  6.1413935307703120 13.1800164739320529  5.3045997736941528
  6.2120082679593116  0.6572891439320525  2.7493843105731504
  7.7578773317093148  2.7444103639320518  0.2349382806451512
  6.2120082679593116  6.9186528139320522  2.7493843105731504
  6.9849427998343119  4.8315315839320530  1.4921612956091508
  7.7578773317093148  9.0057740339320524  0.2349382806451512
  6.2120082679593116 13.1800164739320529  2.7493843105731504
  6.9849427998343119 11.0928952539320527  1.4921612956091508
  5.4390737360843149  2.7444103639320518  4.0066073255371526
  4.6661392042093137  4.8315315839320530  5.2638303405021523
  5.4390737360843149  9.0057740339320524  4.0066073255371526
  4.6661392042093137 11.0928952539320527  5.2638303405021523
  8.3644656388103158  0.6572891439320525  0.0830663832061509
  8.3644656388103158  6.9186528139320522  0.0830663832061509
  8.3644656388103158 13.1800164739320529  0.0830663832061509
 10.3422053268433096  0.6572891439320525  1.7025287032311507
  9.8208339797163138  4.8315315839320530  0.3218732724021507
 11.2772023346943087  2.7444103639320518  0.5606801601971512
 10.3422053268433096  6.9186528139320522  1.7025287032311507
  9.8208339797163138 11.0928952539320527  0.3218732724021507
 11.2772023346943087  9.0057740339320524  0.5606801601971512
 10.3422053268433096 13.1800164739320529  1.7025287032311507
  2.6258250032693131  4.8315315839320530  6.8963276432991503
  4.0821933582483148  2.7444103639320518  7.1351345310931507
  2.6258250032693131 11.0928952539320527  6.8963276432991503
  4.0821933582483148  9.0057740339320524  7.1351345310931507
  2.7335706756013138  0.6572891439320525  0.7994870493931518
  2.3199450148773129  0.6572891439320525  3.3219910232561523
  2.7335706756013138  6.9186528139320522  0.7994870493931518
 11.7985736677493094  4.8315315839320530  1.9413355924271507
  3.2549420227283128  2.7444103639320518  2.1801424802221510
  4.1899390305793140  4.8315315839320530  1.0382939371871522
  2.3199450148773129  6.9186528139320522  3.3219910232561523
  2.7335706756013138 13.1800164739320529  0.7994870493931518
 11.7985736677493094 11.0928952539320527  1.9413355924271507
  3.2549420227283128  9.0057740339320524  2.1801424802221510
  4.1899390305793140 11.0928952539320527  1.0382939371871522
  2.3199450148773129 13.1800164739320529  3.3219910232561523
  4.7113103636343121  0.6572891439320525  2.4189493694181499
  4.7113103636343121  6.9186528139320522  2.4189493694181499
  3.7763133557833131  4.8315315839320530  3.5607979124521512
  4.7113103636343121 13.1800164739320529  2.4189493694181499
  3.7763133557833131 11.0928952539320527  3.5607979124521512
  5.6463073714853138  2.7444103639320518  1.2771008263831511
  6.5813043793373120  4.8315315839320530  0.1352522833491507
  5.6463073714853138  9.0057740339320524  1.2771008263831511
  6.5813043793373120 11.0928952539320527  0.1352522833491507
  2.8153453964043127  0.6572891439320525 14.2104544849351520
  2.8153453964043127  6.9186528139320522 14.2104544849351520
  2.8153453964043127 13.1800164739320529 14.2104544849351520
 10.6377712614003137  0.6572891439320525 12.8716926068681516
 11.3400910698423125  4.8315315839320530 14.1696850517431514
  9.8648367295253117  2.7444103639320518 14.1289156218321530
 10.6377712614003137  6.9186528139320522 12.8716926068681516
 11.3400910698423125 11.0928952539320527 14.1696850517431514
  9.8648367295253117  9.0057740339320524 14.1289156218321530
 10.6377712614003137 13.1800164739320529 12.8716926068681516
  9.0212874742173099  4.8315315839320530  7.9413540966361511
  7.5460331338993143  2.7444103639320518  7.9005846667251509
  9.0212874742173099 11.0928952539320527  7.9413540966361511
  7.5460331338993143  9.0057740339320524  7.9005846667251509
  8.3895824029633097  0.6572891439320525 14.0881461886401524
  8.4601971263953111  0.6572891439320525 11.5329307288011513
  8.3895824029633097  6.9186528139320522 14.0881461886401524
  9.1625169348383153  4.8315315839320530 12.8309231736761511
  7.6872625945203135  2.7444103639320518 12.7901537437651509
  6.9143280626453132  4.8315315839320530 14.0473767587301506
  8.4601971263953111  6.9186528139320522 11.5329307288011513
  8.3895824029633097 13.1800164739320529 14.0881461886401524
  9.1625169348383153 11.0928952539320527 12.8309231736761511
  7.6872625945203135  9.0057740339320524 12.7901537437651509
  6.9143280626453132 11.0928952539320527 14.0473767587301506
  8.4601971263953111 13.1800164739320529 11.5329307288011513
  6.0707788073383124  0.6572891439320525  7.8598152335331504
  6.0707788073383124  6.9186528139320522  7.8598152335331504
  6.0707788073383124 13.1800164739320529  7.8598152335331504
  6.2120082679593116  0.6572891439320525 12.7493843105731504
  7.7578773317093148  2.7444103639320518 10.2349382806451512
  6.2120082679593116  6.9186528139320522 12.7493843105731504
  6.9849427998343119  4.8315315839320530 11.4921612956091508
  7.7578773317093148  9.0057740339320524 10.2349382806451512
  6.2120082679593116 13.1800164739320529 12.7493843105731504
  6.9849427998343119 11.0928952539320527 11.4921612956091508
  5.4390737360843149  2.7444103639320518 14.0066073255371535
  4.6661392042093137  4.8315315839320530 15.2638303405021531
  5.4390737360843149  9.0057740339320524 14.0066073255371535
  4.6661392042093137 11.0928952539320527 15.2638303405021531
  8.3644656388103158  0.6572891439320525 10.0830663832061518
  9.2994626466613148  2.7444103639320518  8.9412178401721505
 10.2344596545123103  4.8315315839320530  7.7993692971371518
  8.3644656388103158  6.9186528139320522 10.0830663832061518
  9.2994626466613148  9.0057740339320524  8.9412178401721505
 10.2344596545123103 11.0928952539320527  7.7993692971371518
  8.3644656388103158 13.1800164739320529 10.0830663832061518
 10.7558309875673146  0.6572891439320525  9.1800247293681512
 10.3422053268433096  0.6572891439320525 11.7025287032311471
 10.7558309875673146  6.9186528139320522  9.1800247293681512
  9.8208339797163138  4.8315315839320530 10.3218732724021507
 11.2772023346943087  2.7444103639320518 10.5606801601971512
  2.2121993425463131  4.8315315839320530  9.4188316171621516
 10.3422053268433096  6.9186528139320522 11.7025287032311471
 10.7558309875673146 13.1800164739320529  9.1800247293681512
  9.8208339797163138 11.0928952539320527 10.3218732724021507
 11.2772023346943087  9.0057740339320524 10.5606801601971512
  2.2121993425463131 11.0928952539320527  9.4188316171621516
 10.3422053268433096 13.1800164739320529 11.7025287032311471
  3.1471963503973135  0.6572891439320525  8.2769830741281503
 11.6908279954183101  2.7444103639320518  8.0381761863331516
  3.1471963503973135  6.9186528139320522  8.2769830741281503
 11.6908279954183101  9.0057740339320524  8.0381761863331516
  3.1471963503973135 13.1800164739320529  8.2769830741281503
  2.7335706756013138  0.6572891439320525 10.7994870493931518
  2.3199450148773129  0.6572891439320525 13.3219910232561531
  2.7335706756013138  6.9186528139320522 10.7994870493931518
 11.7985736677493094  4.8315315839320530 11.9413355924271514
  3.2549420227283128  2.7444103639320518 12.1801424802221518
  4.1899390305793140  4.8315315839320530 11.0382939371871522
  2.3199450148773129  6.9186528139320522 13.3219910232561531
  2.7335706756013138 13.1800164739320529 10.7994870493931518
 11.7985736677493094 11.0928952539320527 11.9413355924271514
  3.2549420227283128  9.0057740339320524 12.1801424802221518
  4.1899390305793140 11.0928952539320527 11.0382939371871522
  2.3199450148773129 13.1800164739320529 13.3219910232561531
  5.1249360384303131  0.6572891439320525  9.8964453941531509
  3.6685676834523138  2.7444103639320518  9.6576385063581505
  4.6035646913033119  4.8315315839320530  8.5157899633241509
  6.0599330462823140  2.7444103639320518  8.7545968511181513
  5.1249360384303131  6.9186528139320522  9.8964453941531509
  3.6685676834523138  9.0057740339320524  9.6576385063581505
  4.6035646913033119 11.0928952539320527  8.5157899633241509
  6.0599330462823140  9.0057740339320524  8.7545968511181513
  5.1249360384303131 13.1800164739320529  9.8964453941531509
  4.7113103636343121  0.6572891439320525 12.4189493694181508
  4.7113103636343121  6.9186528139320522 12.4189493694181508
  3.7763133557833131  4.8315315839320530 13.5607979124521520
  4.7113103636343121 13.1800164739320529 12.4189493694181508
  3.7763133557833131 11.0928952539320527 13.5607979124521520
  5.6463073714853138  2.7444103639320518 11.2771008263831511
  6.5813043793373120  4.8315315839320530 10.1352522833491481
  5.6463073714853138  9.0057740339320524 11.2771008263831511
  6.5813043793373120 11.0928952539320527 10.1352522833491481
 12.8153453964043145  0.6572891439320525  4.2104544849351520
 13.5176652048463133  4.8315315839320530  5.5084469298101499
 12.8153453964043145  6.9186528139320522  4.2104544849351520
 13.5176652048463133 11.0928952539320527  5.5084469298101499
 12.8153453964043145 13.1800164739320529  4.2104544849351520
 15.3684589988953100  2.7444103639320518  6.5618227886581533
 15.3684589988953100  9.0057740339320524  6.5618227886581533
 15.4390737360843104  2.7444103639320518  4.0066073255371526
 14.6661392042093155  4.8315315839320530  5.2638303405021523
 15.4390737360843104  9.0057740339320524  4.0066073255371526
 14.6661392042093155 11.0928952539320527  5.2638303405021523
 12.6258250032693091  4.8315315839320530  6.8963276432991503
 14.0821933582483148  2.7444103639320518  7.1351345310931507
 12.6258250032693091 11.0928952539320527  6.8963276432991503
 14.0821933582483148  9.0057740339320524  7.1351345310931507
 12.7335706756013103  0.6572891439320525  0.7994870493931518
 12.3199450148773089  0.6572891439320525  3.3219910232561523
 12.7335706756013103  6.9186528139320522  0.7994870493931518
 13.2549420227283115  2.7444103639320518  2.1801424802221510
 14.1899390305793140  4.8315315839320530  1.0382939371871522
 12.3199450148773089  6.9186528139320522  3.3219910232561523
 12.7335706756013103 13.1800164739320529  0.7994870493931518
 13.2549420227283115  9.0057740339320524  2.1801424802221510
 14.1899390305793140 11.0928952539320527  1.0382939371871522
 12.3199450148773089 13.1800164739320529  3.3219910232561523
 14.7113103636343112  0.6572891439320525  2.4189493694181499
 14.7113103636343112  6.9186528139320522  2.4189493694181499
 13.7763133557833122  4.8315315839320530  3.5607979124521512
 14.7113103636343112 13.1800164739320529  2.4189493694181499
 13.7763133557833122 11.0928952539320527  3.5607979124521512
 12.8153453964043145  0.6572891439320525 14.2104544849351520
 12.8153453964043145  6.9186528139320522 14.2104544849351520
 12.8153453964043145 13.1800164739320529 14.2104544849351520
 15.4390737360843104  2.7444103639320518 14.0066073255371535
 14.6661392042093155  4.8315315839320530 15.2638303405021531
 15.4390737360843104  9.0057740339320524 14.0066073255371535
 14.6661392042093155 11.0928952539320527 15.2638303405021531
 12.2121993425463096  4.8315315839320530  9.4188316171621516
 12.2121993425463096 11.0928952539320527  9.4188316171621516
 13.1471963503973086  0.6572891439320525  8.2769830741281503
 13.1471963503973086  6.9186528139320522  8.2769830741281503
 13.1471963503973086 13.1800164739320529  8.2769830741281503
 12.7335706756013103  0.6572891439320525 10.7994870493931518
 12.3199450148773089  0.6572891439320525 13.3219910232561531
 12.7335706756013103  6.9186528139320522 10.7994870493931518
 13.2549420227283115  2.7444103639320518 12.1801424802221518
 14.1899390305793140  4.8315315839320530 11.0382939371871522
 12.3199450148773089  6.9186528139320522 13.3219910232561531
 12.7335706756013103 13.1800164739320529 10.7994870493931518
 13.2549420227283115  9.0057740339320524 12.1801424802221518
 14.1899390305793140 11.0928952539320527 11.0382939371871522
 12.3199450148773089 13.1800164739320529 13.3219910232561531
 15.1249360384303095  0.6572891439320525  9.8964453941531509
 13.6685676834523093  2.7444103639320518  9.6576385063581505
 14.6035646913033101  4.8315315839320530  8.5157899633241509
 15.1249360384303095  6.9186528139320522  9.8964453941531509
 13.6685676834523093  9.0057740339320524  9.6576385063581505
 14.6035646913033101 11.0928952539320527  8.5157899633241509
 15.1249360384303095 13.1800164739320529  9.8964453941531509
 14.7113103636343112  0.6572891439320525 12.4189493694181508
 14.7113103636343112  6.9186528139320522 12.4189493694181508
 13.7763133557833122  4.8315315839320530 13.5607979124521520
 14.7113103636343112 13.1800164739320529 12.4189493694181508
 13.7763133557833122 11.0928952539320527 13.5607979124521520
