Cu
 1.0000000000000000
    13.2289071615364691    0.0000000000000000    0.0000000000000000
     0.0000000000000000   12.9239205093228406    0.0000000000000000
     0.0000000000000000    0.0000000000000000   12.1691841306915194
 Cu 
 162
Cartesian
  7.2923617709477329  1.2867949765253175  1.3791325126464049
  6.5194272390727352  3.3739161965253182  2.6363555276114043
  7.2923617709477329  7.5481586465253168  1.3791325126464049
  6.5194272390727352  9.6352798665253196  2.6363555276114043
  5.8171074443857318  5.4610374265253183  1.3383630794544041
  6.5900419762607321  3.3739161965253182  0.0811400644904046
  5.1147876359437356  1.2867949765253175  0.0403706345794062
  4.3418531040677344  3.3739161965253182  1.2975936495444043
  5.8171074443857318 11.7224010965253154  1.3383630794544041
  6.5900419762607321  9.6352798665253196  0.0811400644904046
  5.1147876359437356  7.5481586465253168  0.0403706345794062
  4.3418531040677344  9.6352798665253196  1.2975936495444043
  5.0441729125107324  1.2867949765253175  2.5955860944194038
  3.5689185721927341  5.4610374265253183  2.5548166645084054
  5.0441729125107324  7.5481586465253168  2.5955860944194038
  3.5689185721927341 11.7224010965253154  2.5548166645084054
  2.8665987775067334  1.2867949765253175  1.2568242163514034
  2.0936642456317323  3.3739161965253182  2.5140472313164048
  0.6184099053137327  1.2867949765253175  2.4732778014054064
  1.3913444371887329  5.4610374265253183  1.2160547864414060
  2.8665987775067334  7.5481586465253168  1.2568242163514034
  2.0936642456317323  9.6352798665253196  2.5140472313164048
  0.6184099053137327  7.5481586465253168  2.4732778014054064
  1.3913444371887329 11.7224010965253154  1.2160547864414060
  7.2923617709477329  1.2867949765253175 11.3791325126464038
  7.2923617709477329  7.5481586465253168 11.3791325126464038
  5.8171074443857318  5.4610374265253183 11.3383630794544032
  6.5900419762607321  3.3739161965253182 10.0811400644904072
  5.1147876359437356  1.2867949765253175 10.0403706345794088
  4.3418531040677344  3.3739161965253182 11.2975936495444031
  5.8877221678187333  5.4610374265253183  8.7831476196154057
  5.8171074443857318 11.7224010965253154 11.3383630794544032
  6.5900419762607321  9.6352798665253196 10.0811400644904072
  5.1147876359437356  7.5481586465253168 10.0403706345794088
  4.3418531040677344  9.6352798665253196 11.2975936495444031
  5.8877221678187333 11.7224010965253154  8.7831476196154057
  4.2712383806357321  3.3739161965253182  3.8528091093834043
  2.7959840403177330  1.2867949765253175  3.8120396794724041
  4.2712383806357321  9.6352798665253196  3.8528091093834043
  2.7959840403177330  7.5481586465253168  3.8120396794724041
  3.6395333093817333  5.4610374265253183  9.9996012013874065
  4.4124678412567340  3.3739161965253182  8.7423781864234051
  2.9372135009387330  1.2867949765253175  8.7016087565124032
  2.1642789690637341  3.3739161965253182  9.9588317714774046
  3.7101480328137324  5.4610374265253183  7.4443857415484036
  3.6395333093817333 11.7224010965253154  9.9996012013874065
  4.4124678412567340  9.6352798665253196  8.7423781864234051
  2.9372135009387330  7.5481586465253168  8.7016087565124032
  2.1642789690637341  9.6352798665253196  9.9588317714774046
  3.7101480328137324 11.7224010965253154  7.4443857415484036
  2.8665987775067334  1.2867949765253175 11.2568242163514061
  1.3207297137567326  5.4610374265253183  3.7712702462804044
  1.3913444371887329  5.4610374265253183 11.2160547864414060
  2.8665987775067334  7.5481586465253168 11.2568242163514061
  1.3207297137567326 11.7224010965253154  3.7712702462804044
  1.3913444371887329 11.7224010965253154 11.2160547864414060
  3.0078282381277335  1.2867949765253175  6.1463932933924035
  1.4619591743777320  5.4610374265253183  8.6608393233204026
  2.2348937062527328  3.3739161965253182  7.4036163083564039
  3.0078282381277335  7.5481586465253168  6.1463932933924035
  1.4619591743777320 11.7224010965253154  8.6608393233204026
  2.2348937062527328  9.6352798665253196  7.4036163083564039
  0.6890246425027335  1.2867949765253175  9.9180623382844075
  0.6890246425027335  7.5481586465253168  9.9180623382844075
  4.5494135530797326  1.2867949765253175  4.8526728529194036
  5.4844105609307334  3.3739161965253182  3.7108243098844040
  3.6144165452287340  5.4610374265253183  5.9945213959534041
  4.5494135530797326  7.5481586465253168  4.8526728529194036
  5.4844105609307334  9.6352798665253196  3.7108243098844040
  3.6144165452287340 11.7224010965253154  5.9945213959534041
  6.0057818939857341  5.4610374265253183  5.0914797421154052
  5.0707848861347324  3.3739161965253182  6.2333282851494038
  6.5271532411127335  1.2867949765253175  6.4721351729444052
  5.5921562332617336  5.4610374265253183  7.6139837159784038
  6.0057818939857341 11.7224010965253154  5.0914797421154052
  5.0707848861347324  9.6352798665253196  6.2333282851494038
  6.5271532411127335  7.5481586465253168  6.4721351729444052
  5.5921562332617336 11.7224010965253154  7.6139837159784038
  6.9407789018367332  1.2867949765253175  3.9496311990804052
  6.9407789018367332  7.5481586465253168  3.9496311990804052
  7.0485245741677334  3.3739161965253182  7.8527906051744054
  7.0485245741677334  9.6352798665253196  7.8527906051744054
  1.3098839527007329  1.2867949765253175  4.6660518638654045
  0.3748869448487331  5.4610374265253183  5.8079004069004041
  1.3098839527007329  7.5481586465253168  4.6660518638654045
  0.3748869448487331 11.7224010965253154  5.8079004069004041
  0.8962582779037326  1.2867949765253175  7.1885558391304061
  1.8312552857557325  3.3739161965253182  6.0467072960964039
  0.8962582779037326  7.5481586465253168  7.1885558391304061
  1.8312552857557325  9.6352798665253196  6.0467072960964039
  8.7676161112647328  3.3739161965253182  1.4199019425574033
  8.0652963028227340  5.4610374265253183  0.1219094976824051
  8.7676161112647328  9.6352798665253196  1.4199019425574033
  8.0652963028227340 11.7224010965253154  0.1219094976824051
 12.8665987775067325  1.2867949765253175  1.2568242163514034
 12.0936642456317323  3.3739161965253182  2.5140472313164048
 10.6184099053137331  1.2867949765253175  2.4732778014054064
 11.3913444371887334  5.4610374265253183  1.2160547864414060
 12.8665987775067325  7.5481586465253168  1.2568242163514034
 12.0936642456317323  9.6352798665253196  2.5140472313164048
 10.6184099053137331  7.5481586465253168  2.4732778014054064
 11.3913444371887334 11.7224010965253154  1.2160547864414060
  9.9160901106277368  3.3739161965253182  1.1752853532494056
  9.9160901106277368  9.6352798665253196  1.1752853532494056
  7.8757759096877322  3.3739161965253182  2.8077826560464039
  9.3321442646667325  1.2867949765253175  3.0465895438404038
  7.8757759096877322  9.6352798665253196  2.8077826560464039
  9.3321442646667325  7.5481586465253168  3.0465895438404038
  8.7676161112647328  3.3739161965253182 11.4199019425574022
  8.0652963028227340  5.4610374265253183 10.1219094976824060
  8.7676161112647328  9.6352798665253196 11.4199019425574022
  8.0652963028227340 11.7224010965253154 10.1219094976824060
 12.7959840403177374  1.2867949765253175  3.8120396794724041
 12.7959840403177374  7.5481586465253168  3.8120396794724041
 12.9372135009387357  1.2867949765253175  8.7016087565124032
 12.1642789690637336  3.3739161965253182  9.9588317714774046
 12.9372135009387357  7.5481586465253168  8.7016087565124032
 12.1642789690637336  9.6352798665253196  9.9588317714774046
 12.8665987775067325  1.2867949765253175 11.2568242163514061
 11.3207297137567320  5.4610374265253183  3.7712702462804044
 11.3913444371887334  5.4610374265253183 11.2160547864414060
 12.8665987775067325  7.5481586465253168 11.2568242163514061
 11.3207297137567320 11.7224010965253154  3.7712702462804044
 11.3913444371887334 11.7224010965253154 11.2160547864414060
 13.0078282381277326  1.2867949765253175  6.1463932933924035
 11.4619591743777320  5.4610374265253183  8.6608393233204026
 12.2348937062527323  3.3739161965253182  7.4036163083564039
 13.0078282381277326  7.5481586465253168  6.1463932933924035
 11.4619591743777320 11.7224010965253154  8.6608393233204026
 12.2348937062527323  9.6352798665253196  7.4036163083564039
 10.6890246425027371  1.2867949765253175  9.9180623382844075
  9.9160901106277368  3.3739161965253182 11.1752853532494054
 10.6890246425027371  7.5481586465253168  9.9180623382844075
  9.9160901106277368  9.6352798665253196 11.1752853532494054
  7.4621502489647344  3.3739161965253182  5.3302866299094038
  7.4621502489647344  9.6352798665253196  5.3302866299094038
  8.3971472568157317  5.4610374265253183  4.1884380868754043
  8.3971472568157317 11.7224010965253154  4.1884380868754043
  7.9835215820197316  5.4610374265253183  6.7109420621404041
  8.5048929291467328  1.2867949765253175  8.0915974929694041
  9.4398899369977318  3.3739161965253182  6.9497489499344045
  7.5698959212957320  5.4610374265253183  9.2334460360034072
  7.9835215820197316 11.7224010965253154  6.7109420621404041
  8.5048929291467328  7.5481586465253168  8.0915974929694041
  9.4398899369977318  9.6352798665253196  6.9497489499344045
  7.5698959212957320 11.7224010965253154  9.2334460360034072
  8.9185185898707342  1.2867949765253175  5.5690935191054045
  9.8535155977217315  3.3739161965253182  4.4272449760714050
 11.3098839527007371  1.2867949765253175  4.6660518638654045
 10.3748869448487326  5.4610374265253183  5.8079004069004041
  8.9185185898707342  7.5481586465253168  5.5690935191054045
  9.8535155977217315  9.6352798665253196  4.4272449760714050
 11.3098839527007371  7.5481586465253168  4.6660518638654045
 10.3748869448487326 11.7224010965253154  5.8079004069004041
  9.9612612700527325  5.4610374265253183  8.3304043821654048
  9.0262642622017335  3.3739161965253182  9.4722529251994061
  9.9612612700527325 11.7224010965253154  8.3304043821654048
  9.0262642622017335  9.6352798665253196  9.4722529251994061
 10.8962582779037334  1.2867949765253175  7.1885558391304061
 11.8312552857557325  3.3739161965253182  6.0467072960964039
 10.8962582779037334  7.5481586465253168  7.1885558391304061
 11.8312552857557325  9.6352798665253196  6.0467072960964039
