Cu
 1.0000000000000000
    13.1181472876316541    0.0000000000000000    0.0000000000000000
     0.0000000000000000   15.8230181921899664    0.0000000000000000
     0.0000000000000000    0.0000000000000000   15.3351149487590810
 Cu 
 242
Cartesian
  2.5957915978662918  3.7119313306195956  3.1446655700510817
  1.8228570659912930 14.1475374506196019  4.4018885850160814
  2.5957915978662918  9.9732950006195971  3.1446655700510817
  1.8228570659912930  7.8861737806195968  4.4018885850160814
  1.1205372713042916  1.6248101006195981  3.1038961368590803
  1.1911519947372931  1.6248101006195981  0.5486806770200818
  0.4182174628622937  3.7119313306195956  1.8059036919840827
  1.1205372713042916 12.0604162206195973  3.1038961368590803
  1.8934718031792919 14.1475374506196019  1.8466731218950811
  1.1911519947372931 12.0604162206195973  0.5486806770200818
  1.1205372713042916  5.7990525606195966  3.1038961368590803
  1.8934718031792919  7.8861737806195968  1.8466731218950811
  0.4182174628622937  9.9732950006195971  1.8059036919840827
  1.1911519947372931  5.7990525606195966  0.5486806770200818
  0.3476027394292922  3.7119313306195956  4.3611191518240799
  0.3476027394292922  9.9732950006195971  4.3611191518240799
  2.5957915978662918  3.7119313306195956 13.1446655700510853
  1.8228570659912930 14.1475374506196019 14.4018885850160849
  2.5957915978662918  9.9732950006195971 13.1446655700510853
  1.8228570659912930  7.8861737806195968 14.4018885850160849
  1.1205372713042916  1.6248101006195981 13.1038961368590847
  1.1911519947372931  1.6248101006195981 10.5486806770200854
  0.4182174628622937  3.7119313306195956 11.8059036919840814
  1.1205372713042916 12.0604162206195973 13.1038961368590847
  1.8934718031792919 14.1475374506196019 11.8466731218950798
  1.1911519947372931 12.0604162206195973 10.5486806770200854
  1.1205372713042916  5.7990525606195966 13.1038961368590847
  1.8934718031792919  7.8861737806195968 11.8466731218950798
  0.4182174628622937  9.9732950006195971 11.8059036919840814
  1.1911519947372931  5.7990525606195966 10.5486806770200854
  0.3476027394292922  3.7119313306195956 14.3611191518240844
  0.3476027394292922  9.9732950006195971 14.3611191518240844
  0.7878403878492932 14.1475374506196019  5.4763573672890802
  0.7878403878492932  7.8861737806195968  5.4763573672890802
  1.3092117209042939  1.6248101006195981  6.8570127995200822
  0.8955860601802924  1.6248101006195981  9.3795167733830809
  1.8305830680312916  3.7119313306195956  8.2376682303490814
  1.3092117209042939 12.0604162206195973  6.8570127995200822
  0.3742147130532922 14.1475374506196019  7.9988613425540809
  0.8955860601802924 12.0604162206195973  9.3795167733830809
  1.3092117209042939  5.7990525606195966  6.8570127995200822
  0.3742147130532922  7.8861737806195968  7.9988613425540809
  1.8305830680312916  9.9732950006195971  8.2376682303490814
  0.8955860601802924  5.7990525606195966  9.3795167733830809
  2.2442087287552930  3.7119313306195956  5.7151642564850818
  2.2442087287552930  9.9732950006195971  5.7151642564850818
  2.3519544010862923 14.1475374506196019  9.6183236625790798
  2.3519544010862923  7.8861737806195968  9.6183236625790798
  3.3687261297412920  1.6248101006195981  1.8874425550870815
 12.5957915978662918  3.7119313306195956  3.1446655700510817
  4.0710459381832926 14.1475374506196019  3.1854349999620801
 11.8228570659912933 14.1475374506196019  4.4018885850160814
  3.3687261297412920 12.0604162206195973  1.8874425550870815
  4.0710459381832926  7.8861737806195968  3.1854349999620801
 12.5957915978662918  9.9732950006195971  3.1446655700510817
 11.8228570659912933  7.8861737806195968  4.4018885850160814
  3.3687261297412920  5.7990525606195966  1.8874425550870815
 11.1205372713042916  1.6248101006195981  3.1038961368590803
 11.1911519947372931  1.6248101006195981  0.5486806770200818
 10.4182174628622946  3.7119313306195956  1.8059036919840827
 11.1205372713042916 12.0604162206195973  3.1038961368590803
 11.8934718031792919 14.1475374506196019  1.8466731218950811
  9.6452829309862942 14.1475374506196019  3.0631267069490811
 11.1911519947372931 12.0604162206195973  0.5486806770200818
 11.1205372713042916  5.7990525606195966  3.1038961368590803
 11.8934718031792919  7.8861737806195968  1.8466731218950811
 10.4182174628622946  9.9732950006195971  1.8059036919840827
  9.6452829309862942  7.8861737806195968  3.0631267069490811
 11.1911519947372931  5.7990525606195966  0.5486806770200818
  8.8723483991112939  1.6248101006195981  4.3203497219130833
 10.3476027394292913  3.7119313306195956  4.3611191518240799
  8.8723483991112939 12.0604162206195973  4.3203497219130833
 10.3476027394292913  9.9732950006195971  4.3611191518240799
  8.8723483991112939  5.7990525606195966  4.3203497219130833
  8.9429631363002926  1.6248101006195981  1.7651342587920817
  8.2406433278572919  3.7119313306195956  0.4671418139170803
  8.9429631363002926 12.0604162206195973  1.7651342587920817
  9.7158976681752929 14.1475374506196019  0.5079112438280815
  7.4677087959822934 14.1475374506196019  1.7243648288820801
  8.9429631363002926  5.7990525606195966  1.7651342587920817
  9.7158976681752929  7.8861737806195968  0.5079112438280815
  8.2406433278572919  9.9732950006195971  0.4671418139170803
  7.4677087959822934  7.8861737806195968  1.7243648288820801
  6.6947742641072940  1.6248101006195981  2.9815878438460821
  8.1700286044252923  3.7119313306195956  3.0223572737560795
  5.9218397322322929  3.7119313306195956  4.2388108588100826
  7.3970940725502921 14.1475374506196019  4.2795802887210828
  6.6947742641072940 12.0604162206195973  2.9815878438460821
  8.1700286044252923  9.9732950006195971  3.0223572737560795
  7.3970940725502921  7.8861737806195968  4.2795802887210828
  5.9218397322322929  9.9732950006195971  4.2388108588100826
  6.6947742641072940  5.7990525606195966  2.9815878438460821
  6.7653890012962918  1.6248101006195981  0.4263723807250798
  6.7653890012962918 12.0604162206195973  0.4263723807250798
  6.7653890012962918  5.7990525606195966  0.4263723807250798
  5.9924544694212933  3.7119313306195956  1.6835953956890823
  5.2195199375462931 14.1475374506196019  2.9408184106540816
  5.9924544694212933  9.9732950006195971  1.6835953956890823
  5.2195199375462931  7.8861737806195968  2.9408184106540816
  4.6355740915852923  3.7119313306195956  4.8121226012450800
  3.1792057366062925 14.1475374506196019  4.5733157134510796
  3.1792057366062925  7.8861737806195968  4.5733157134510796
  4.6355740915852923  9.9732950006195971  4.8121226012450800
  2.8733257482142922  1.6248101006195981  0.9989790934080820
  2.8733257482142922 12.0604162206195973  0.9989790934080820
  2.8733257482142922  5.7990525606195966  0.9989790934080820
  5.2646910969712923  1.6248101006195981  0.0959374395700801
  5.2646910969712923 12.0604162206195973  0.0959374395700801
  4.3296940891202924 14.1475374506196019  1.2377859826040809
  5.2646910969712923  5.7990525606195966  0.0959374395700801
  4.3296940891202924  7.8861737806195968  1.2377859826040809
  3.3687261297412920  1.6248101006195981 11.8874425550870804
 12.5957915978662918  3.7119313306195956 13.1446655700510853
  4.0710459381832926 14.1475374506196019 13.1854349999620801
 11.8228570659912933 14.1475374506196019 14.4018885850160849
  3.3687261297412920 12.0604162206195973 11.8874425550870804
  4.0710459381832926  7.8861737806195968 13.1854349999620801
 12.5957915978662918  9.9732950006195971 13.1446655700510853
 11.8228570659912933  7.8861737806195968 14.4018885850160849
  3.3687261297412920  5.7990525606195966 11.8874425550870804
 11.1205372713042916  1.6248101006195981 13.1038961368590847
 11.1911519947372931  1.6248101006195981 10.5486806770200854
 10.4182174628622946  3.7119313306195956 11.8059036919840814
 11.1205372713042916 12.0604162206195973 13.1038961368590847
 11.8934718031792919 14.1475374506196019 11.8466731218950798
  9.6452829309862942 14.1475374506196019 13.0631267069490811
 11.1911519947372931 12.0604162206195973 10.5486806770200854
 11.1205372713042916  5.7990525606195966 13.1038961368590847
 11.8934718031792919  7.8861737806195968 11.8466731218950798
 10.4182174628622946  9.9732950006195971 11.8059036919840814
  9.6452829309862942  7.8861737806195968 13.0631267069490811
 11.1911519947372931  5.7990525606195966 10.5486806770200854
  8.8723483991112939  1.6248101006195981 14.3203497219130860
 10.3476027394292913  3.7119313306195956 14.3611191518240844
  8.0994138672362936  3.7119313306195956  5.5775727368770820
  9.5746682075542928 14.1475374506196019  5.6183421667880804
  8.8723483991112939 12.0604162206195973 14.3203497219130860
 10.3476027394292913  9.9732950006195971 14.3611191518240844
  9.5746682075542928  7.8861737806195968  5.6183421667880804
  8.0994138672362936  9.9732950006195971  5.5775727368770820
  8.8723483991112939  5.7990525606195966 14.3203497219130860
  8.9429631363002926  1.6248101006195981 11.7651342587920844
  9.0135778597322922  1.6248101006195981  9.2099187989530833
  8.2406433278572919  3.7119313306195956 10.4671418139170811
  8.9429631363002926 12.0604162206195973 11.7651342587920844
  9.7158976681752929 14.1475374506196019 10.5079112438280813
  7.4677087959822934 14.1475374506196019 11.7243648288820808
  9.0135778597322922 12.0604162206195973  9.2099187989530833
  8.9429631363002926  5.7990525606195966 11.7651342587920844
  9.7158976681752929  7.8861737806195968 10.5079112438280813
  8.2406433278572919  9.9732950006195971 10.4671418139170811
  7.4677087959822934  7.8861737806195968 11.7243648288820808
  9.0135778597322922  5.7990525606195966  9.2099187989530833
  6.6241595406752927  1.6248101006195981  5.5368033036850814
  6.6947742641072940  1.6248101006195981 12.9815878438460857
  8.1700286044252923  3.7119313306195956 13.0223572737560804
  5.9218397322322929  3.7119313306195956 14.2388108588100835
  6.6241595406752927 12.0604162206195973  5.5368033036850814
  7.3970940725502921 14.1475374506196019 14.2795802887210819
  6.6947742641072940 12.0604162206195973 12.9815878438460857
  8.1700286044252923  9.9732950006195971 13.0223572737560804
  6.6241595406752927  5.7990525606195966  5.5368033036850814
  7.3970940725502921  7.8861737806195968 14.2795802887210819
  5.9218397322322929  9.9732950006195971 14.2388108588100835
  6.6947742641072940  5.7990525606195966 12.9815878438460857
  6.7653890012962918  1.6248101006195981 10.4263723807250805
  8.3112580650462924  3.7119313306195956  7.9119263507970814
  6.7653890012962918 12.0604162206195973 10.4263723807250805
  7.5383235331712930 14.1475374506196019  9.1691493657610827
  8.3112580650462924  9.9732950006195971  7.9119263507970814
  6.7653890012962918  5.7990525606195966 10.4263723807250805
  7.5383235331712930  7.8861737806195968  9.1691493657610827
  5.9924544694212933  3.7119313306195956 11.6835953956890854
  5.2195199375462931 14.1475374506196019 12.9408184106540851
  5.9924544694212933  9.9732950006195971 11.6835953956890854
  5.2195199375462931  7.8861737806195968 12.9408184106540851
  8.9178463721472934  1.6248101006195981  7.7600544533580802
  9.8528433799982924  3.7119313306195956  6.6182059103240798
 10.7878403878492932 14.1475374506196019  5.4763573672890802
  8.9178463721472934 12.0604162206195973  7.7600544533580802
  9.8528433799982924  9.9732950006195971  6.6182059103240798
 10.7878403878492932  7.8861737806195968  5.4763573672890802
  8.9178463721472934  5.7990525606195966  7.7600544533580802
 11.3092117209042939  1.6248101006195981  6.8570127995200822
 10.8955860601802925  1.6248101006195981  9.3795167733830809
 11.8305830680312916  3.7119313306195956  8.2376682303490814
 11.3092117209042939 12.0604162206195973  6.8570127995200822
 10.3742147130532913 14.1475374506196019  7.9988613425540809
  2.7655800758832920 14.1475374506196019  7.0958196873140817
 10.8955860601802925 12.0604162206195973  9.3795167733830809
 11.3092117209042939  5.7990525606195966  6.8570127995200822
 10.3742147130532913  7.8861737806195968  7.9988613425540809
 11.8305830680312916  9.9732950006195971  8.2376682303490814
  2.7655800758832920  7.8861737806195968  7.0958196873140817
 10.8955860601802925  5.7990525606195966  9.3795167733830809
  3.7005770837342919  1.6248101006195981  5.9539711442800805
 12.2442087287552930  3.7119313306195956  5.7151642564850818
  4.6355740915852923  3.7119313306195956 14.8121226012450826
  3.1792057366062925 14.1475374506196019 14.5733157134510805
  3.7005770837342919 12.0604162206195973  5.9539711442800805
 12.2442087287552930  9.9732950006195971  5.7151642564850818
  3.1792057366062925  7.8861737806195968 14.5733157134510805
  4.6355740915852923  9.9732950006195971 14.8121226012450826
  3.7005770837342919  5.7990525606195966  5.9539711442800805
  3.2869514089382923  1.6248101006195981  8.4764751195450838
  2.8733257482142922  1.6248101006195981 10.9989790934080851
  3.8083227560652921  3.7119313306195956  9.8571305503740803
  3.2869514089382923 12.0604162206195973  8.4764751195450838
 12.3519544010862923 14.1475374506196019  9.6183236625790798
  4.7433197639162916 14.1475374506196019  8.7152820073390806
  2.8733257482142922 12.0604162206195973 10.9989790934080851
  3.2869514089382923  5.7990525606195966  8.4764751195450838
 12.3519544010862923  7.8861737806195968  9.6183236625790798
  3.8083227560652921  9.9732950006195971  9.8571305503740803
  4.7433197639162916  7.8861737806195968  8.7152820073390806
  2.8733257482142922  5.7990525606195966 10.9989790934080851
  5.6783167717672924  1.6248101006195981  7.5734334643050820
  4.2219484167892922  3.7119313306195956  7.3346265765100807
  6.6133137796192916  3.7119313306195956  6.4315849212700824
  5.1569454246402922 14.1475374506196019  6.1927780334760811
  5.6783167717672924 12.0604162206195973  7.5734334643050820
  4.2219484167892922  9.9732950006195971  7.3346265765100807
  5.1569454246402922  7.8861737806195968  6.1927780334760811
  6.6133137796192916  9.9732950006195971  6.4315849212700824
  5.6783167717672924  5.7990525606195966  7.5734334643050820
  5.2646910969712923  1.6248101006195981 10.0959374395700792
  5.2646910969712923 12.0604162206195973 10.0959374395700792
  4.3296940891202924 14.1475374506196019 11.2377859826040805
  5.2646910969712923  5.7990525606195966 10.0959374395700792
  4.3296940891202924  7.8861737806195968 11.2377859826040805
  6.1996881048222923  3.7119313306195956  8.9540888965350813
  7.1346851126742923 14.1475374506196019  7.8122403535010809
  6.1996881048222923  9.9732950006195971  8.9540888965350813
  7.1346851126742923  7.8861737806195968  7.8122403535010809
 12.8733257482142918  1.6248101006195981  0.9989790934080820
 12.8733257482142918 12.0604162206195973  0.9989790934080820
 12.8733257482142918  5.7990525606195966  0.9989790934080820
 12.7655800758832925 14.1475374506196019  7.0958196873140817
 12.7655800758832925  7.8861737806195968  7.0958196873140817
 12.8733257482142918  1.6248101006195981 10.9989790934080851
 12.8733257482142918 12.0604162206195973 10.9989790934080851
 12.8733257482142918  5.7990525606195966 10.9989790934080851
