Cu
 1.0000000000000000
    18.2781075940174986    0.0000000000000000    0.0000000000000000
     0.0000000000000000   12.1426942718159019    0.0000000000000000
     0.0000000000000000    0.0000000000000000   12.8731519741258786
 Cu 
 197
Cartesian
  8.9234999641856376  6.1162275900530076  1.1617242571550248
  5.9729912973056383 10.2904700300530010  1.0801853940520258
  7.4482456376236366  8.2033488100530008  1.1209548239630243
  5.9729912973056383  4.0291063600530030  1.0801853940520258
  7.4482456376236366  1.9419851400530028  1.1209548239630243
  4.4977369707446364  6.1162275900530076  1.0394159608600253
  3.0224826304266368  8.2033488100530008  0.9986465309490269
  3.0224826304266368  1.9419851400530028  0.9986465309490269
  0.2798486348006367  6.1162275900530076  1.3331513855900239
  1.7362169897796371  8.2033488100530008  1.5719582733840243
  1.7362169897796371  1.9419851400530028  1.5719582733840243
  0.4693690279356366 10.2904700300530010  8.6472782272260247
  1.1716888363776365  6.1162275900530076  9.9452706721010244
  9.6964344960606361  8.2033488100530008  9.9045012421900260
  8.9234999641856376  6.1162275900530076 11.1617242571550257
  0.4693690279356366  4.0291063600530030  8.6472782272260247
  9.6964344960606361  1.9419851400530028  9.9045012421900260
  8.2211801694986359 10.2904700300530010  9.8637318089980255
  8.2917948929316374 10.2904700300530010  7.3085163491590261
  8.2211801694986359  4.0291063600530030  9.8637318089980255
  8.9941147013736362  6.1162275900530076  8.6065087940340241
  7.5188603610566380  8.2033488100530008  8.5657393641230257
  6.7459258291806377  6.1162275900530076  9.8229623790880254
  8.2917948929316374  4.0291063600530030  7.3085163491590261
  7.5188603610566380  1.9419851400530028  8.5657393641230257
  5.9729912973056383 10.2904700300530010 11.0801853940520267
  7.4482456376236366  8.2033488100530008 11.1209548239630251
  6.6753111057486345  6.1162275900530076  2.3781778389270243
  5.2000567654306371  8.2033488100530008  2.3374084090160245
  5.9729912973056383  4.0291063600530030 11.0801853940520267
  7.4482456376236366  1.9419851400530028 11.1209548239630251
  5.2000567654306371  1.9419851400530028  2.3374084090160245
  6.0436060344946352 10.2904700300530010  8.5249699309310252
  6.1142207579266366 10.2904700300530010  5.9697544710920241
  6.0436060344946352  4.0291063600530030  8.5249699309310252
  6.8165405663696372  6.1162275900530076  7.2677469159670247
  5.3412862260516345  8.2033488100530008  7.2269774860560254
  4.5683516941766378  6.1162275900530076  8.4842005010210251
  6.1142207579266366  4.0291063600530030  5.9697544710920241
  5.3412862260516345  1.9419851400530028  7.2269774860560254
  3.7248024388696366 10.2904700300530010  2.2966389758240244
  3.7954171623016362 10.2904700300530010  9.7414235159850264
  5.2706715026196367  8.2033488100530008  9.7821929458950230
  3.7248024388696366  4.0291063600530030  2.2966389758240244
  4.4977369707446364  6.1162275900530076 11.0394159608600262
  3.0224826304266368  8.2033488100530008 10.9986465309490278
  3.7954171623016362  4.0291063600530030  9.7414235159850264
  5.2706715026196367  1.9419851400530028  9.7821929458950230
  3.0224826304266368  1.9419851400530028 10.9986465309490278
  3.8660318994906362 10.2904700300530010  7.1862080528640240
  5.4119009632406376  8.2033488100530008  4.6717620229360239
  3.8660318994906362  4.0291063600530030  7.1862080528640240
  4.6389664313656365  6.1162275900530076  5.9289850379000244
  5.4119009632406376  1.9419851400530028  4.6717620229360239
  3.0930973676156368  8.2033488100530008  8.4434310678280262
  2.3201628357406370  6.1162275900530076  9.7006540827930259
  3.0930973676156368  1.9419851400530028  8.4434310678280262
  6.0184892703416377 10.2904700300530010  4.5198901254970245
  6.9534862781926368  8.2033488100530008  3.3780415824630241
  7.8884832860436358  6.1162275900530076  2.2361930394280245
  6.0184892703416377  4.0291063600530030  4.5198901254970245
  6.9534862781926368  1.9419851400530028  3.3780415824630241
  8.4098546190986365 10.2904700300530010  3.6168484716590248
  7.9962289583746369 10.2904700300530010  6.1393524455220243
  8.4098546190986365  4.0291063600530030  3.6168484716590248
  7.4748576112476366  6.1162275900530076  4.7586970146930243
  8.9312259662256359  8.2033488100530008  4.9975039024880257
  7.9962289583746369  4.0291063600530030  6.1393524455220243
  8.9312259662256359  1.9419851400530028  4.9975039024880257
  0.8012199819286366 10.2904700300530010  2.7138068164190248
  9.3448516269496373  8.2033488100530008  2.4749999286240247
  0.2798486348006367  6.1162275900530076 11.3331513855900248
  1.7362169897796371  8.2033488100530008 11.5719582733840234
  0.8012199819286366  4.0291063600530030  2.7138068164190248
  9.3448516269496373  1.9419851400530028  2.4749999286240247
  1.7362169897796371  1.9419851400530028 11.5719582733840234
  0.3875943071326365 10.2904700300530010  5.2363107916840246
  0.3875943071326365  4.0291063600530030  5.2363107916840246
  9.4525972992806349  6.1162275900530076  6.3781593347180241
  0.9089656542596365  8.2033488100530008  6.6169662225130246
  1.8439626621106364  6.1162275900530076  5.4751176794780250
  0.9089656542596365  1.9419851400530028  6.6169662225130246
  2.7789596699616372 10.2904700300530010  4.3332691364440246
  1.3225913149836361  8.2033488100530008  4.0944622486490250
  2.2575883228346365  6.1162275900530076  2.9526137056150246
  3.7139566778136368  8.2033488100530008  3.1914205934090250
  2.7789596699616372  4.0291063600530030  4.3332691364440246
  1.3225913149836361  1.9419851400530028  4.0944622486490250
  3.7139566778136368  1.9419851400530028  3.1914205934090250
  2.3653339951656367 10.2904700300530010  6.8557731117090244
  2.3653339951656367  4.0291063600530030  6.8557731117090244
  1.4303369873146365  6.1162275900530076  7.9976216547430248
  3.3003310030166366  8.2033488100530008  5.7139245686740257
  4.2353280108686358  6.1162275900530076  4.5720760256400244
  3.3003310030166366  1.9419851400530028  5.7139245686740257
  6.6753111057486345  6.1162275900530076 12.3781778389270229
  5.2000567654306371  8.2033488100530008 12.3374084090160245
  5.2000567654306371  1.9419851400530028 12.3374084090160245
  3.7248024388696366 10.2904700300530010 12.2966389758240240
  3.7248024388696366  4.0291063600530030 12.2966389758240240
  7.8884832860436358  6.1162275900530076 12.2361930394280236
  0.8012199819286366 10.2904700300530010 12.7138068164190230
  9.3448516269496373  8.2033488100530008 12.4749999286240261
  0.8012199819286366  4.0291063600530030 12.7138068164190230
  9.3448516269496373  1.9419851400530028 12.4749999286240261
 15.9729912973056365 10.2904700300530010  1.0801853940520258
 17.4482456376236357  8.2033488100530008  1.1209548239630243
 15.9729912973056365  4.0291063600530030  1.0801853940520258
 17.4482456376236357  1.9419851400530028  1.1209548239630243
 14.4977369707446364  6.1162275900530076  1.0394159608600253
 13.0224826304266355  8.2033488100530008  0.9986465309490269
 13.0224826304266355  1.9419851400530028  0.9986465309490269
 10.2798486348006328  6.1162275900530076  1.3331513855900239
 11.7362169897796367  8.2033488100530008  1.5719582733840243
 11.7362169897796367  1.9419851400530028  1.5719582733840243
 10.4693690279356364 10.2904700300530010  8.6472782272260247
 11.1716888363776334  6.1162275900530076  9.9452706721010244
 10.4693690279356364  4.0291063600530030  8.6472782272260247
 18.2211801694986342 10.2904700300530010  9.8637318089980255
 18.2211801694986342  4.0291063600530030  9.8637318089980255
 17.5188603610566389  8.2033488100530008  8.5657393641230257
 16.7459258291806385  6.1162275900530076  9.8229623790880254
 17.5188603610566389  1.9419851400530028  8.5657393641230257
 15.9729912973056365 10.2904700300530010 11.0801853940520267
 17.4482456376236357  8.2033488100530008 11.1209548239630251
 16.6753111057486372  6.1162275900530076  2.3781778389270243
 15.2000567654306380  8.2033488100530008  2.3374084090160245
 15.9729912973056365  4.0291063600530030 11.0801853940520267
 17.4482456376236357  1.9419851400530028 11.1209548239630251
 15.2000567654306380  1.9419851400530028  2.3374084090160245
 16.0436060344946370 10.2904700300530010  8.5249699309310252
 16.1142207579266348 10.2904700300530010  5.9697544710920241
 16.0436060344946370  4.0291063600530030  8.5249699309310252
 16.8165405663696355  6.1162275900530076  7.2677469159670247
 15.3412862260516363  8.2033488100530008  7.2269774860560254
 14.5683516941766378  6.1162275900530076  8.4842005010210251
 16.1142207579266348  4.0291063600530030  5.9697544710920241
 15.3412862260516363  1.9419851400530028  7.2269774860560254
 13.7248024388696326 10.2904700300530010  2.2966389758240244
 13.7954171623016340 10.2904700300530010  9.7414235159850264
 15.2706715026196349  8.2033488100530008  9.7821929458950230
 13.7248024388696326  4.0291063600530030  2.2966389758240244
 14.4977369707446364  6.1162275900530076 11.0394159608600262
 13.0224826304266355  8.2033488100530008 10.9986465309490278
 13.7954171623016340  4.0291063600530030  9.7414235159850264
 15.2706715026196349  1.9419851400530028  9.7821929458950230
 13.0224826304266355  1.9419851400530028 10.9986465309490278
 13.8660318994906362 10.2904700300530010  7.1862080528640240
 15.4119009632406332  8.2033488100530008  4.6717620229360239
 13.8660318994906362  4.0291063600530030  7.1862080528640240
 14.6389664313656347  6.1162275900530076  5.9289850379000244
 15.4119009632406332  1.9419851400530028  4.6717620229360239
 13.0930973676156377  8.2033488100530008  8.4434310678280262
 12.3201628357406339  6.1162275900530076  9.7006540827930259
 13.0930973676156377  1.9419851400530028  8.4434310678280262
 16.0184892703416359 10.2904700300530010  4.5198901254970245
 16.9534862781926385  8.2033488100530008  3.3780415824630241
 17.8884832860436376  6.1162275900530076  2.2361930394280245
 16.0184892703416359  4.0291063600530030  4.5198901254970245
 16.9534862781926385  1.9419851400530028  3.3780415824630241
 17.9962289583746369 10.2904700300530010  6.1393524455220243
 17.4748576112476357  6.1162275900530076  4.7586970146930243
  9.8662229740776368  6.1162275900530076  3.8556553594530243
 17.9962289583746369  4.0291063600530030  6.1393524455220243
 10.8012199819286341 10.2904700300530010  2.7138068164190248
 10.2798486348006328  6.1162275900530076 11.3331513855900248
 11.7362169897796367  8.2033488100530008 11.5719582733840234
 10.8012199819286341  4.0291063600530030  2.7138068164190248
 11.7362169897796367  1.9419851400530028 11.5719582733840234
 10.3875943071326358 10.2904700300530010  5.2363107916840246
  9.9739686464086361 10.2904700300530010  7.7588147655470259
 10.3875943071326358  4.0291063600530030  5.2363107916840246
 10.9089656542596369  8.2033488100530008  6.6169662225130246
 11.8439626621106342  6.1162275900530076  5.4751176794780250
  9.9739686464086361  4.0291063600530030  7.7588147655470259
 10.9089656542596369  1.9419851400530028  6.6169662225130246
 12.7789596699616368 10.2904700300530010  4.3332691364440246
 11.3225913149836366  8.2033488100530008  4.0944622486490250
 12.2575883228346356  6.1162275900530076  2.9526137056150246
 13.7139566778136377  8.2033488100530008  3.1914205934090250
 12.7789596699616368  4.0291063600530030  4.3332691364440246
 11.3225913149836366  1.9419851400530028  4.0944622486490250
 13.7139566778136377  1.9419851400530028  3.1914205934090250
 12.3653339951656331 10.2904700300530010  6.8557731117090244
 12.3653339951656331  4.0291063600530030  6.8557731117090244
 11.4303369873146377  6.1162275900530076  7.9976216547430248
 13.3003310030166357  8.2033488100530008  5.7139245686740257
 14.2353280108686366  6.1162275900530076  4.5720760256400244
 13.3003310030166357  1.9419851400530028  5.7139245686740257
 16.6753111057486372  6.1162275900530076 12.3781778389270229
 15.2000567654306380  8.2033488100530008 12.3374084090160245
 15.2000567654306380  1.9419851400530028 12.3374084090160245
 13.7248024388696326 10.2904700300530010 12.2966389758240240
 13.7248024388696326  4.0291063600530030 12.2966389758240240
 17.8884832860436376  6.1162275900530076 12.2361930394280236
 10.8012199819286341 10.2904700300530010 12.7138068164190230
 10.8012199819286341  4.0291063600530030 12.7138068164190230
