Cu
 1.0000000000000000
    14.2448914890692464    0.0000000000000000    0.0000000000000000
     0.0000000000000000   14.6730403240123657    0.0000000000000000
     0.0000000000000000    0.0000000000000000   13.3839555615327512
 Cu 
 238
Cartesian
  5.5165326569841877 12.2289873617383549  5.5352628973425970
  6.2894671888591862  8.0547449117383536  4.2780398823775974
  5.5165326569841877  5.9676236917383605  5.5352628973425970
  6.2894671888591862  1.7933812417383561  4.2780398823775974
  4.8142128622971878 10.1418661317383574  4.2372704491855968
  5.5871473941721863 12.2289873617383549  2.9800474342215972
  3.3389585219791886 12.2289873617383549  4.1965010192755967
  4.8848275857301875 10.1418661317383574  1.6820549893465981
  4.8142128622971878  3.8805024617383563  4.2372704491855968
  5.5871473941721863  5.9676236917383605  2.9800474342215972
  4.1118930538551890  8.0547449117383536  2.9392780043105988
  3.3389585219791886  5.9676236917383605  4.1965010192755967
  4.8848275857301875  3.8805024617383563  1.6820549893465981
  4.1118930538551890  1.7933812417383561  2.9392780043105988
  2.5660239901041884 10.1418661317383574  5.4537240342395981
  4.0412783304221866  8.0547449117383536  5.4944934641505965
  2.5660239901041884  3.8805024617383563  5.4537240342395981
  4.0412783304221866  1.7933812417383561  5.4944934641505965
  2.6366387272931870 10.1418661317383574  2.8985085711185983
  3.4095732591681882 12.2289873617383549  1.6412855561545978
  1.1613843869751879 12.2289873617383549  2.8577391412085964
  2.7072534507251866 10.1418661317383574  0.3432931112795963
  2.6366387272931870  3.8805024617383563  2.8985085711185983
  3.4095732591681882  5.9676236917383605  1.6412855561545978
  1.9343189188501864  8.0547449117383536  1.6005161262435965
  1.1613843869751879  5.9676236917383605  2.8577391412085964
  2.7072534507251866  3.8805024617383563  0.3432931112795963
  1.9343189188501864  1.7933812417383561  1.6005161262435965
  1.0907696635431865 12.2289873617383549  5.4129546010475975
  0.3884498551001876 10.1418661317383574  4.1149621561725978
  1.8637041954181872  8.0547449117383536  4.1557315860825961
  1.0907696635431865  5.9676236917383605  5.4129546010475975
  0.3884498551001876  3.8805024617383563  4.1149621561725978
  1.8637041954181872  1.7933812417383561  4.1557315860825961
  0.4590645922891863 10.1418661317383574  1.5597466930515962
  1.2319991241641870 12.2289873617383549  0.3025236780875966
  0.4590645922891863  3.8805024617383563  1.5597466930515962
  1.2319991241641870  5.9676236917383605  0.3025236780875966
  4.5892616511731870 10.1418661317383574  0.5128910857095965
  4.5892616511731870  3.8805024617383563  0.5128910857095965
  6.0456299920791867 12.2289873617383549  0.7516979749055963
  6.0456299920791867  5.9676236917383605  0.7516979749055963
  5.5871473941721863 12.2289873617383549 12.9800474342215963
  4.8848275857301875 10.1418661317383574 11.6820549893465984
  5.5871473941721863  5.9676236917383605 12.9800474342215963
  4.1118930538551890  8.0547449117383536 12.9392780043105979
  4.8848275857301875  3.8805024617383563 11.6820549893465984
  4.1118930538551890  1.7933812417383561 12.9392780043105979
  3.2683437985471864 12.2289873617383549  6.7517164791145960
  3.2683437985471864  5.9676236917383605  6.7517164791145960
  1.7930894582291872  8.0547449117383536  6.7109470492035967
  1.7930894582291872  1.7933812417383561  6.7109470492035967
  2.6366387272931870 10.1418661317383574 12.8985085711185974
  3.4095732591681882 12.2289873617383549 11.6412855561545978
  1.1613843869751879 12.2289873617383549 12.8577391412085973
  2.7072534507251866 10.1418661317383574 10.3432931112795963
  2.6366387272931870  3.8805024617383563 12.8985085711185974
  3.4095732591681882  5.9676236917383605 11.6412855561545978
  1.9343189188501864  8.0547449117383536 11.6005161262435976
  1.1613843869751879  5.9676236917383605 12.8577391412085973
  2.7072534507251866  3.8805024617383563 10.3432931112795963
  1.9343189188501864  1.7933812417383561 11.6005161262435976
  0.3178351316681862 10.1418661317383574  6.6701776160115962
  0.3178351316681862  3.8805024617383563  6.6701776160115962
  0.4590645922891863 10.1418661317383574 11.5597466930515971
  1.2319991241641870 12.2289873617383549 10.3025236780875957
  2.0049336560391886  8.0547449117383536  9.0453006631235962
  0.4590645922891863  3.8805024617383563 11.5597466930515971
  1.2319991241641870  5.9676236917383605 10.3025236780875957
  2.0049336560391886  1.7933812417383561  9.0453006631235962
  4.4815159788421894 12.2289873617383549  6.6097316796155967
  2.6115219631401878 10.1418661317383574  8.8934287656845967
  3.5465189709911877  8.0547449117383536  7.7515802226505963
  4.4815159788421894  5.9676236917383605  6.6097316796155967
  2.6115219631401878  3.8805024617383563  8.8934287656845967
  3.5465189709911877  1.7933812417383561  7.7515802226505963
  5.0028873118971902 10.1418661317383574  7.9903871118465961
  4.0678903040461867 12.2289873617383549  9.1322356548805956
  4.5892616511731870 10.1418661317383574 10.5128910857095974
  5.0028873118971902  3.8805024617383563  7.9903871118465961
  4.0678903040461867  5.9676236917383605  9.1322356548805956
  5.5242586590241878  8.0547449117383536  9.3710425426755979
  4.5892616511731870  3.8805024617383563 10.5128910857095974
  5.5242586590241878  1.7933812417383561  9.3710425426755979
  5.9378843197481892  8.0547449117383536  6.8485385688115965
  5.9378843197481892  1.7933812417383561  6.8485385688115965
  6.0456299920791867 12.2289873617383549 10.7516979749055963
  6.0456299920791867  5.9676236917383605 10.7516979749055963
  0.3069893706121869  8.0547449117383536  7.5649592335965963
  0.3069893706121869  1.7933812417383561  7.5649592335965963
  0.8283607036671867 12.2289873617383549  8.9456146658275966
  0.8283607036671867  5.9676236917383605  8.9456146658275966
  6.2894671888591862 14.3161085817383587  4.2780398823775974
  4.1118930538551890 14.3161085817383587  2.9392780043105988
  4.0412783304221866 14.3161085817383587  5.4944934641505965
  1.9343189188501864 14.3161085817383587  1.6005161262435965
  1.8637041954181872 14.3161085817383587  4.1557315860825961
  4.1118930538551890 14.3161085817383587 12.9392780043105979
  1.7930894582291872 14.3161085817383587  6.7109470492035967
  1.9343189188501864 14.3161085817383587 11.6005161262435976
  2.0049336560391886 14.3161085817383587  9.0453006631235962
  3.5465189709911877 14.3161085817383587  7.7515802226505963
  5.5242586590241878 14.3161085817383587  9.3710425426755979
  5.9378843197481892 14.3161085817383587  6.8485385688115965
  0.3069893706121869 14.3161085817383587  7.5649592335965963
  7.7647215291761880 12.2289873617383549  4.3188093122885958
  7.0624017207341883 10.1418661317383574  3.0208168674135978
  7.7647215291761880  5.9676236917383605  4.3188093122885958
  7.0624017207341883  3.8805024617383563  3.0208168674135978
 13.3389585219791886 12.2289873617383549  4.1965010192755967
 14.1118930538551908  8.0547449117383536  2.9392780043105988
 13.3389585219791886  5.9676236917383605  4.1965010192755967
 14.1118930538551908  1.7933812417383561  2.9392780043105988
 12.5660239901041919 10.1418661317383574  5.4537240342395981
 14.0412783304221875  8.0547449117383536  5.4944934641505965
 12.5660239901041919  3.8805024617383563  5.4537240342395981
 14.0412783304221875  1.7933812417383561  5.4944934641505965
 12.6366387272931870 10.1418661317383574  2.8985085711185983
 13.4095732591681873 12.2289873617383549  1.6412855561545978
 11.1613843869751914 12.2289873617383549  2.8577391412085964
 12.7072534507251866 10.1418661317383574  0.3432931112795963
 12.6366387272931870  3.8805024617383563  2.8985085711185983
 13.4095732591681873  5.9676236917383605  1.6412855561545978
 11.9343189188501899  8.0547449117383536  1.6005161262435965
 11.1613843869751914  5.9676236917383605  2.8577391412085964
 12.7072534507251866  3.8805024617383563  0.3432931112795963
 11.9343189188501899  1.7933812417383561  1.6005161262435965
 11.0907696635431900 12.2289873617383549  5.4129546010475975
 10.3884498551001876 10.1418661317383574  4.1149621561725978
 11.8637041954181868  8.0547449117383536  4.1557315860825961
 11.0907696635431900  5.9676236917383605  5.4129546010475975
  9.6155153232251873  8.0547449117383536  5.3721851711365991
 10.3884498551001876  3.8805024617383563  4.1149621561725978
 11.8637041954181868  1.7933812417383561  4.1557315860825961
  9.6155153232251873  1.7933812417383561  5.3721851711365991
 10.4590645922891881 10.1418661317383574  1.5597466930515962
 11.2319991241641866 12.2289873617383549  0.3025236780875966
 10.4590645922891881  3.8805024617383563  1.5597466930515962
 11.2319991241641866  5.9676236917383605  0.3025236780875966
  8.9131955285391875 12.2289873617383549  4.0741927229805981
  9.6861300604141913  8.0547449117383536  2.8169697080155984
  8.9131955285391875  5.9676236917383605  4.0741927229805981
  9.6861300604141913  1.7933812417383561  2.8169697080155984
  6.8728813275991882 12.2289873617383549  5.7066900257775961
  6.8728813275991882  5.9676236917383605  5.7066900257775961
  8.3292496825781868  8.0547449117383536  5.9454969135715965
  8.3292496825781868  1.7933812417383561  5.9454969135715965
  6.5670013392071889 10.1418661317383574  2.1323534057345981
  7.5019983470581879  8.0547449117383536  0.9905048627005967
  6.5670013392071889  3.8805024617383563  2.1323534057345981
  7.5019983470581879  1.7933812417383561  0.9905048627005967
  8.9583666879641868 10.1418661317383574  1.2293117518965966
  8.0233696801131877 12.2289873617383549  2.3711602949305970
  8.9583666879641868  3.8805024617383563  1.2293117518965966
  8.0233696801131877  5.9676236917383605  2.3711602949305970
  9.8933636958151858  8.0547449117383536  0.0874632088615970
  9.8933636958151858  1.7933812417383561  0.0874632088615970
  7.0624017207341883 10.1418661317383574 13.0208168674135969
  7.0624017207341883  3.8805024617383563 13.0208168674135969
 14.1118930538551908  8.0547449117383536 12.9392780043105979
 14.1118930538551908  1.7933812417383561 12.9392780043105979
 13.2683437985471855 12.2289873617383549  6.7517164791145960
 13.2683437985471855  5.9676236917383605  6.7517164791145960
 11.7930894582291863  8.0547449117383536  6.7109470492035967
 11.7930894582291863  1.7933812417383561  6.7109470492035967
 12.6366387272931870 10.1418661317383574 12.8985085711185974
 13.4095732591681873 12.2289873617383549 11.6412855561545978
 11.1613843869751914 12.2289873617383549 12.8577391412085973
 12.7072534507251866 10.1418661317383574 10.3432931112795963
 12.6366387272931870  3.8805024617383563 12.8985085711185974
 13.4095732591681873  5.9676236917383605 11.6412855561545978
 11.9343189188501899  8.0547449117383536 11.6005161262435976
 11.1613843869751914  5.9676236917383605 12.8577391412085973
 12.7072534507251866  3.8805024617383563 10.3432931112795963
 11.9343189188501899  1.7933812417383561 11.6005161262435976
 10.3178351316681898 10.1418661317383574  6.6701776160115962
 10.3178351316681898  3.8805024617383563  6.6701776160115962
 10.4590645922891881 10.1418661317383574 11.5597466930515971
 11.2319991241641866 12.2289873617383549 10.3025236780875957
 12.0049336560391886  8.0547449117383536  9.0453006631235962
 10.4590645922891881  3.8805024617383563 11.5597466930515971
 11.2319991241641866  5.9676236917383605 10.3025236780875957
 12.0049336560391886  1.7933812417383561  9.0453006631235962
  9.6861300604141913  8.0547449117383536 12.8169697080155984
  9.6861300604141913  1.7933812417383561 12.8169697080155984
 12.6115219631401878 10.1418661317383574  8.8934287656845967
 13.5465189709911868  8.0547449117383536  7.7515802226505963
 12.6115219631401878  3.8805024617383563  8.8934287656845967
 13.5465189709911868  1.7933812417383561  7.7515802226505963
 14.0678903040461876 12.2289873617383549  9.1322356548805956
  6.4592556668761887 12.2289873617383549  8.2291939996405965
 14.0678903040461876  5.9676236917383605  9.1322356548805956
  6.4592556668761887  5.9676236917383605  8.2291939996405965
  7.3942526747271877 10.1418661317383574  7.0873454566065961
  7.3942526747271877  3.8805024617383563  7.0873454566065961
  6.9806269999311867 10.1418661317383574  9.6098494318715968
  8.4369953549091861 12.2289873617383549  9.8486563196655972
  6.5670013392071889 10.1418661317383574 12.1323534057345981
  6.9806269999311867  3.8805024617383563  9.6098494318715968
  7.5019983470581879  8.0547449117383536 10.9905048627005968
  8.4369953549091861  5.9676236917383605  9.8486563196655972
  6.5670013392071889  3.8805024617383563 12.1323534057345981
  7.5019983470581879  1.7933812417383561 10.9905048627005968
  8.8506210156331875 12.2289873617383549  7.3261523458025968
  9.3719923627601869 10.1418661317383574  8.7068077766315959
  7.9156240077821876  8.0547449117383536  8.4680008888365972
  8.8506210156331875  5.9676236917383605  7.3261523458025968
 10.3069893706121896  8.0547449117383536  7.5649592335965963
  9.3719923627601869  3.8805024617383563  8.7068077766315959
  7.9156240077821876  1.7933812417383561  8.4680008888365972
 10.3069893706121896  1.7933812417383561  7.5649592335965963
  8.9583666879641868 10.1418661317383574 11.2293117518965957
  8.0233696801131877 12.2289873617383549 12.3711602949305970
  8.9583666879641868  3.8805024617383563 11.2293117518965957
  8.0233696801131877  5.9676236917383605 12.3711602949305970
 10.8283607036671903 12.2289873617383549  8.9456146658275966
  9.8933636958151858  8.0547449117383536 10.0874632088615979
 10.8283607036671903  5.9676236917383605  8.9456146658275966
  9.8933636958151858  1.7933812417383561 10.0874632088615979
 14.1118930538551908 14.3161085817383587  2.9392780043105988
 14.0412783304221875 14.3161085817383587  5.4944934641505965
 11.9343189188501899 14.3161085817383587  1.6005161262435965
 11.8637041954181868 14.3161085817383587  4.1557315860825961
  9.6155153232251873 14.3161085817383587  5.3721851711365991
  9.6861300604141913 14.3161085817383587  2.8169697080155984
  8.3292496825781868 14.3161085817383587  5.9454969135715965
  7.5019983470581879 14.3161085817383587  0.9905048627005967
  9.8933636958151858 14.3161085817383587  0.0874632088615970
 14.1118930538551908 14.3161085817383587 12.9392780043105979
 11.7930894582291863 14.3161085817383587  6.7109470492035967
 11.9343189188501899 14.3161085817383587 11.6005161262435976
 12.0049336560391886 14.3161085817383587  9.0453006631235962
  9.6861300604141913 14.3161085817383587 12.8169697080155984
 13.5465189709911868 14.3161085817383587  7.7515802226505963
  7.5019983470581879 14.3161085817383587 10.9905048627005968
  7.9156240077821876 14.3161085817383587  8.4680008888365972
 10.3069893706121896 14.3161085817383587  7.5649592335965963
  9.8933636958151858 14.3161085817383587 10.0874632088615979
