Cu
 1.0000000000000000
    13.3100104340663670    0.0000000000000000    0.0000000000000000
     0.0000000000000000   13.3272549430122691    0.0000000000000000
     0.0000000000000000    0.0000000000000000   18.6904343244019024
 Cu 
 262
Cartesian
  5.6624071504554223  1.9403931321291088  3.4932984181733397
  6.4353416823304208  6.1146355821291083  2.2360754032083401
  5.6624071504554223  8.2017568021291094  3.4932984181733397
  6.4353416823304208 12.3759992521291089  2.2360754032083401
  4.9600873557684224  4.0275143621291090  2.1953059700163395
  5.7330218876434209  1.9403931321291088  0.9380829550523400
  3.4848330154504237  1.9403931321291088  2.1545365401063394
  4.9600873557684224 10.2888780321291087  2.1953059700163395
  5.7330218876434209  8.2017568021291094  0.9380829550523400
  4.2577675473264236  6.1146355821291083  0.8973135251413416
  3.4848330154504237  8.2017568021291094  2.1545365401063394
  4.2577675473264236 12.3759992521291089  0.8973135251413416
  2.7118984835754230  4.0275143621291090  3.4117595550703408
  4.1871528238934212  6.1146355821291083  3.4525289849813392
  2.7118984835754230 10.2888780321291087  3.4117595550703408
  4.1871528238934212 12.3759992521291089  3.4525289849813392
  2.7825132207644216  4.0275143621291090  0.8565440919493411
  1.3072588804464225  1.9403931321291088  0.8157746620393391
  2.7825132207644216 10.2888780321291087  0.8565440919493411
  1.3072588804464225  8.2017568021291094  0.8157746620393391
  1.2366441570144211  1.9403931321291088  3.3709901218783402
  0.5343243485714222  4.0275143621291090  2.0729976770033414
  2.0095786888894214  6.1146355821291083  2.1137671069133388
  1.2366441570144211  8.2017568021291094  3.3709901218783402
  0.5343243485714222 10.2888780321291087  2.0729976770033414
  2.0095786888894214 12.3759992521291089  2.1137671069133388
  5.6624071504554223  1.9403931321291088 13.4932984181733389
  6.4353416823304208  6.1146355821291083 12.2360754032083392
  5.6624071504554223  8.2017568021291094 13.4932984181733389
  6.4353416823304208 12.3759992521291089 12.2360754032083392
  4.9600873557684224  4.0275143621291090 12.1953059700163386
  5.7330218876434209  1.9403931321291088 10.9380829550523408
  3.4848330154504237  1.9403931321291088 12.1545365401063403
  5.0307020792014221  4.0275143621291090  9.6400905101773411
  4.9600873557684224 10.2888780321291087 12.1953059700163386
  5.7330218876434209  8.2017568021291094 10.9380829550523408
  4.2577675473264236  6.1146355821291083 10.8973135251413424
  3.4848330154504237  8.2017568021291094 12.1545365401063403
  5.0307020792014221 10.2888780321291087  9.6400905101773411
  4.2577675473264236 12.3759992521291089 10.8973135251413424
  3.4142182920184219  1.9403931321291088  4.7097519999453397
  2.7118984835754230  4.0275143621291090 13.4117595550703399
  4.1871528238934212  6.1146355821291083 13.4525289849813401
  3.4142182920184219  8.2017568021291094  4.7097519999453397
  1.9389639517004220  6.1146355821291083  4.6689825700343395
  2.7118984835754230 10.2888780321291087 13.4117595550703399
  4.1871528238934212 12.3759992521291089 13.4525289849813401
  1.9389639517004220 12.3759992521291089  4.6689825700343395
  2.7825132207644216  4.0275143621291090 10.8565440919493419
  3.5554477526394219  1.9403931321291088  9.5993210769853405
  1.3072588804464225  1.9403931321291088 10.8157746620393382
  2.8531279441964221  4.0275143621291090  8.3013286321103390
  2.7825132207644216 10.2888780321291087 10.8565440919493419
  3.5554477526394219  8.2017568021291094  9.5993210769853405
  2.0801934123214214  6.1146355821291083  9.5585516470743404
  1.3072588804464225  8.2017568021291094 10.8157746620393382
  2.8531279441964221 10.2888780321291087  8.3013286321103390
  2.0801934123214214 12.3759992521291089  9.5585516470743404
  0.4637096251394209  4.0275143621291090  4.6282131368423389
  1.2366441570144211  1.9403931321291088 13.3709901218783429
  0.5343243485714222  4.0275143621291090 12.0729976770033431
  2.0095786888894214  6.1146355821291083 12.1137671069133397
  0.4637096251394209 10.2888780321291087  4.6282131368423389
  1.2366441570144211  8.2017568021291094 13.3709901218783429
  0.5343243485714222 10.2888780321291087 12.0729976770033431
  2.0095786888894214 12.3759992521291089 12.1137671069133397
  0.6049390857604209  4.0275143621291090  9.5177822138823380
  1.3778736176354212  1.9403931321291088  8.2605591989183402
  2.1508081495104223  6.1146355821291083  7.0033361839543389
  0.6049390857604209 10.2888780321291087  9.5177822138823380
  1.3778736176354212  8.2017568021291094  8.2605591989183402
  2.1508081495104223 12.3759992521291089  7.0033361839543389
  4.6273904723134223  1.9403931321291088  4.5677672004463394
  2.7573964566114229  4.0275143621291090  6.8514642865153395
  3.6923934644624219  6.1146355821291083  5.7096157434813390
  4.6273904723134223  8.2017568021291094  4.5677672004463394
  2.7573964566114229 10.2888780321291087  6.8514642865153395
  3.6923934644624219 12.3759992521291089  5.7096157434813390
  5.1487618053684239  4.0275143621291090  5.9484226326773397
  4.2137647975174213  1.9403931321291088  7.0902711757113392
  4.7351361446444216  4.0275143621291090  8.4709266065403384
  5.1487618053684239 10.2888780321291087  5.9484226326773397
  4.2137647975174213  8.2017568021291094  7.0902711757113392
  5.6701331524954206  6.1146355821291083  7.3290780635063406
  4.7351361446444216 10.2888780321291087  8.4709266065403384
  5.6701331524954206 12.3759992521291089  7.3290780635063406
  6.0837588132194220  6.1146355821291083  4.8065740896423401
  6.0837588132194220 12.3759992521291089  4.8065740896423401
  6.1915044855504213  1.9403931321291088  8.7097334957363390
  6.1915044855504213  8.2017568021291094  8.7097334957363390
  0.4528638640834215  6.1146355821291083  5.5229947544273399
  0.4528638640834215 12.3759992521291089  5.5229947544273399
  0.9742351971384214  1.9403931321291088  6.9036501866583393
  0.0392381892864213  6.1146355821291083  8.0454987296923406
  0.9742351971384214  8.2017568021291094  6.9036501866583393
  0.0392381892864213 12.3759992521291089  8.0454987296923406
  3.4142182920184219  1.9403931321291088 14.7097519999453397
  3.4142182920184219  8.2017568021291094 14.7097519999453397
  1.9389639517004220  6.1146355821291083 14.6689825700343377
  1.9389639517004220 12.3759992521291089 14.6689825700343377
  2.8531279441964221  4.0275143621291090 18.3013286321103372
  2.8531279441964221 10.2888780321291087 18.3013286321103372
  0.4637096251394209  4.0275143621291090 14.6282131368423407
  0.4637096251394209 10.2888780321291087 14.6282131368423407
  1.3778736176354212  1.9403931321291088 18.2605591989183402
  2.1508081495104223  6.1146355821291083 17.0033361839543389
  1.3778736176354212  8.2017568021291094 18.2605591989183402
  2.1508081495104223 12.3759992521291089 17.0033361839543389
  4.6273904723134223  1.9403931321291088 14.5677672004463403
  2.7573964566114229  4.0275143621291090 16.8514642865153377
  3.6923934644624219  6.1146355821291083 15.7096157434813399
  4.6273904723134223  8.2017568021291094 14.5677672004463403
  2.7573964566114229 10.2888780321291087 16.8514642865153377
  3.6923934644624219 12.3759992521291089 15.7096157434813399
  5.1487618053684239  4.0275143621291090 15.9484226326773424
  4.2137647975174213  1.9403931321291088 17.0902711757113401
  4.7351361446444216  4.0275143621291090 18.4709266065403384
  5.1487618053684239 10.2888780321291087 15.9484226326773424
  4.2137647975174213  8.2017568021291094 17.0902711757113401
  5.6701331524954206  6.1146355821291083 17.3290780635063406
  4.7351361446444216 10.2888780321291087 18.4709266065403384
  5.6701331524954206 12.3759992521291089 17.3290780635063406
  6.0837588132194220  6.1146355821291083 14.8065740896423392
  6.0837588132194220 12.3759992521291089 14.8065740896423392
  0.4528638640834215  6.1146355821291083 15.5229947544273443
  0.4528638640834215 12.3759992521291089 15.5229947544273443
  0.9742351971384214  1.9403931321291088 16.9036501866583393
  0.0392381892864213  6.1146355821291083 18.0454987296923406
  0.9742351971384214  8.2017568021291094 16.9036501866583393
  0.0392381892864213 12.3759992521291089 18.0454987296923406
  7.9105960226474226  1.9403931321291088  2.2768448331193385
  7.2082762142054211  4.0275143621291090  0.9788523882443405
  7.9105960226474226  8.2017568021291094  2.2768448331193385
  7.2082762142054211 10.2888780321291087  0.9788523882443405
 12.7118984835754230  4.0275143621291090  3.4117595550703408
 12.7118984835754230 10.2888780321291087  3.4117595550703408
 12.7825132207644234  4.0275143621291090  0.8565440919493411
 11.3072588804464242  1.9403931321291088  0.8157746620393391
 12.7825132207644234 10.2888780321291087  0.8565440919493411
 11.3072588804464242  8.2017568021291094  0.8157746620393391
 11.2366441570144211  1.9403931321291088  3.3709901218783402
 10.5343243485714222  4.0275143621291090  2.0729976770033414
 12.0095786888894249  6.1146355821291083  2.1137671069133388
 11.2366441570144211  8.2017568021291094  3.3709901218783402
  9.7613898166964219  6.1146355821291083  3.3302206919673418
 10.5343243485714222 10.2888780321291087  2.0729976770033414
 12.0095786888894249 12.3759992521291089  2.1137671069133388
  9.7613898166964219 12.3759992521291089  3.3302206919673418
  9.0590700220104221  1.9403931321291088  2.0322282438113408
  9.8320045538854242  6.1146355821291083  0.7750052288463412
  9.0590700220104221  8.2017568021291094  2.0322282438113408
  9.8320045538854242 12.3759992521291089  0.7750052288463412
  7.0187558210704220  1.9403931321291088  3.6647255466083397
  7.0187558210704220  8.2017568021291094  3.6647255466083397
  8.4751241760494214  6.1146355821291083  3.9035324344023392
  8.4751241760494214 12.3759992521291089  3.9035324344023392
  6.7128758326784217  4.0275143621291090  0.0903889265653408
  6.7128758326784217 10.2888780321291087  0.0903889265653408
  8.1692441735844223  1.9403931321291088  0.3291958157613397
  8.1692441735844223  8.2017568021291094  0.3291958157613397
  7.9105960226474226  1.9403931321291088 12.2768448331193376
  7.2082762142054211  4.0275143621291090 10.9788523882443432
  7.9105960226474226  8.2017568021291094 12.2768448331193376
  7.2082762142054211 10.2888780321291087 10.9788523882443432
 12.7118984835754230  4.0275143621291090 13.4117595550703399
 11.9389639517004227  6.1146355821291083  4.6689825700343395
 12.7118984835754230 10.2888780321291087 13.4117595550703399
 11.9389639517004227 12.3759992521291089  4.6689825700343395
 12.7825132207644234  4.0275143621291090 10.8565440919493419
 11.3072588804464242  1.9403931321291088 10.8157746620393382
 12.8531279441964230  4.0275143621291090  8.3013286321103390
 12.7825132207644234 10.2888780321291087 10.8565440919493419
 12.0801934123214245  6.1146355821291083  9.5585516470743404
 11.3072588804464242  8.2017568021291094 10.8157746620393382
 12.8531279441964230 10.2888780321291087  8.3013286321103390
 12.0801934123214245 12.3759992521291089  9.5585516470743404
 10.4637096251394208  4.0275143621291090  4.6282131368423389
 11.2366441570144211  1.9403931321291088 13.3709901218783429
 10.5343243485714222  4.0275143621291090 12.0729976770033431
 12.0095786888894249  6.1146355821291083 12.1137671069133397
 10.4637096251394208 10.2888780321291087  4.6282131368423389
 11.2366441570144211  8.2017568021291094 13.3709901218783429
  9.7613898166964219  6.1146355821291083 13.3302206919673409
 10.5343243485714222 10.2888780321291087 12.0729976770033431
 12.0095786888894249 12.3759992521291089 12.1137671069133397
  9.7613898166964219 12.3759992521291089 13.3302206919673409
 10.6049390857604227  4.0275143621291090  9.5177822138823380
 11.3778736176354212  1.9403931321291088  8.2605591989183402
 12.1508081495104214  6.1146355821291083  7.0033361839543389
 10.6049390857604227 10.2888780321291087  9.5177822138823380
 11.3778736176354212  8.2017568021291094  8.2605591989183402
 12.1508081495104214 12.3759992521291089  7.0033361839543389
  9.0590700220104221  1.9403931321291088 12.0322282438113408
  9.8320045538854242  6.1146355821291083 10.7750052288463429
  9.0590700220104221  8.2017568021291094 12.0322282438113408
  9.8320045538854242 12.3759992521291089 10.7750052288463429
 12.7573964566114224  4.0275143621291090  6.8514642865153395
 12.7573964566114224 10.2888780321291087  6.8514642865153395
  6.6051301603474233  1.9403931321291088  6.1872295204713392
  6.6051301603474233  8.2017568021291094  6.1872295204713392
  7.0187558210704220  1.9403931321291088 13.6647255466083379
  7.5401271681984214  4.0275143621291090  5.0453809774373397
  7.0187558210704220  8.2017568021291094 13.6647255466083379
  8.4751241760494214  6.1146355821291083 13.9035324344023401
  7.5401271681984214 10.2888780321291087  5.0453809774373397
  8.4751241760494214 12.3759992521291089 13.9035324344023401
  7.1265014934024213  4.0275143621291090  7.5678849527023413
  8.5828698483804207  1.9403931321291088  7.8066918404963408
  6.7128758326784217  4.0275143621291090 10.0903889265653408
  7.1265014934024213 10.2888780321291087  7.5678849527023413
  7.6478728405294216  6.1146355821291083  8.9485403835313395
  8.5828698483804207  8.2017568021291094  7.8066918404963408
  6.7128758326784217 10.2888780321291087 10.0903889265653408
  7.6478728405294216 12.3759992521291089  8.9485403835313395
  8.9964955091044203  1.9403931321291088  5.2841878666333395
  9.5178668562314250  4.0275143621291090  6.6648432974623395
  8.0614985012534230  6.1146355821291083  6.4260364096673399
  8.9964955091044203  8.2017568021291094  5.2841878666333395
 10.4528638640834242  6.1146355821291083  5.5229947544273399
  9.5178668562314250 10.2888780321291087  6.6648432974623395
  8.0614985012534230 12.3759992521291089  6.4260364096673399
 10.4528638640834242 12.3759992521291089  5.5229947544273399
  9.1042411814354214  4.0275143621291090  9.1873472727273402
  8.1692441735844223  1.9403931321291088 10.3291958157613397
  9.1042411814354214 10.2888780321291087  9.1873472727273402
  8.1692441735844223  8.2017568021291094 10.3291958157613397
 10.9742351971384213  1.9403931321291088  6.9036501866583393
 10.0392381892864222  6.1146355821291083  8.0454987296923406
 10.9742351971384213  8.2017568021291094  6.9036501866583393
 10.0392381892864222 12.3759992521291089  8.0454987296923406
 11.9389639517004227  6.1146355821291083 14.6689825700343377
 11.9389639517004227 12.3759992521291089 14.6689825700343377
 12.8531279441964230  4.0275143621291090 18.3013286321103372
 12.8531279441964230 10.2888780321291087 18.3013286321103372
 10.4637096251394208  4.0275143621291090 14.6282131368423407
 10.4637096251394208 10.2888780321291087 14.6282131368423407
 11.3778736176354212  1.9403931321291088 18.2605591989183402
 12.1508081495104214  6.1146355821291083 17.0033361839543389
 11.3778736176354212  8.2017568021291094 18.2605591989183402
 12.1508081495104214 12.3759992521291089 17.0033361839543389
 12.7573964566114224  4.0275143621291090 16.8514642865153377
 12.7573964566114224 10.2888780321291087 16.8514642865153377
  6.6051301603474233  1.9403931321291088 16.1872295204713375
  6.6051301603474233  8.2017568021291094 16.1872295204713375
  7.5401271681984214  4.0275143621291090 15.0453809774373397
  7.5401271681984214 10.2888780321291087 15.0453809774373397
  7.1265014934024213  4.0275143621291090 17.5678849527023395
  8.5828698483804207  1.9403931321291088 17.8066918404963417
  7.1265014934024213 10.2888780321291087 17.5678849527023395
  8.5828698483804207  8.2017568021291094 17.8066918404963417
  8.9964955091044203  1.9403931321291088 15.2841878666333386
  9.5178668562314250  4.0275143621291090 16.6648432974623404
  8.0614985012534230  6.1146355821291083 16.4260364096673399
  8.9964955091044203  8.2017568021291094 15.2841878666333386
 10.4528638640834242  6.1146355821291083 15.5229947544273443
  9.5178668562314250 10.2888780321291087 16.6648432974623404
  8.0614985012534230 12.3759992521291089 16.4260364096673399
 10.4528638640834242 12.3759992521291089 15.5229947544273443
 10.9742351971384213  1.9403931321291088 16.9036501866583393
 10.0392381892864222  6.1146355821291083 18.0454987296923406
 10.9742351971384213  8.2017568021291094 16.9036501866583393
 10.0392381892864222 12.3759992521291089 18.0454987296923406
