Cu
 1.0000000000000000
    12.4156949317208340    0.0000000000000000    0.0000000000000000
     0.0000000000000000   19.3987349521444976    0.0000000000000000
     0.0000000000000000    0.0000000000000000   12.7929051326390031
 Cu 
 258
Cartesian
  0.0849963618630456  4.8361783131326774  7.4608313140789049
  0.8579308937380441  0.6619358631326762  6.2036082991139052
  0.1556110990510443  4.8361783131326774  4.9056158509579042
  0.0927223639030439  0.6619358631326762  1.2966109594119044
  0.6140936969580446  4.8361783131326774  2.6772663916419033
  0.0927223639030439  0.6619358631326762 11.2966109594119040
  0.5063480246270454  0.6619358631326762  8.7741069855479044
  0.6140936969580446  4.8361783131326774 12.6772663916419024
  0.8579308937380441  6.9232995331326803  6.2036082991139052
  0.0849963618630456  9.0104207531326814  7.4608313140789049
  0.8579308937380441 13.1846632031326791  6.2036082991139052
  0.0849963618630456 15.2717844231326811  7.4608313140789049
  0.1556110990510443  9.0104207531326814  4.9056158509579042
  0.1556110990510443 15.2717844231326811  4.9056158509579042
  0.0927223639030439  6.9232995331326803  1.2966109594119044
  0.0927223639030439 13.1846632031326791  1.2966109594119044
  0.6140936969580446  9.0104207531326814  2.6772663916419033
  0.6140936969580446 15.2717844231326811  2.6772663916419033
  0.0927223639030439  6.9232995331326803 11.2966109594119040
  0.0927223639030439 13.1846632031326791 11.2966109594119040
  0.5063480246270454  6.9232995331326803  8.7741069855479044
  0.5063480246270454 13.1846632031326791  8.7741069855479044
  0.6140936969580446  9.0104207531326814 12.6772663916419024
  0.6140936969580446 15.2717844231326811 12.6772663916419024
  2.3331852340550454  4.8361783131326774  6.2443777290249036
 10.0849963618630447  4.8361783131326774  7.4608313140789049
  1.6308654256130450  2.7490570831326764  4.9463852841499047
 10.8579308937380468  0.6619358631326762  6.2036082991139052
  9.3826765671760466  2.7490570831326764  6.1628388659219056
 10.1556110990510433  4.8361783131326774  4.9056158509579042
  7.9074222268580465  4.8361783131326774  6.1220694360119037
  9.4532912906090480  2.7490570831326764  3.6076234060829053
  8.6803567587340460  0.6619358631326762  4.8648464210469058
  7.1344876949830471  2.7490570831326764  7.3792924509759050
  8.6097420353010445  0.6619358631326762  7.4200618808869043
  7.2051024321720449  2.7490570831326764  4.8240769878549052
  7.9780369640470470  4.8361783131326774  3.5668539728909048
  5.7298480918540458  4.8361783131326774  4.7833075579449034
  7.2757171556040445  2.7490570831326764  2.2688615280159037
  6.5027826237290451  0.6619358631326762  3.5260845429799037
  5.6592333684220444  4.8361783131326774  7.3385230177839045
  4.9569135599790446  2.7490570831326764  6.0405305729089056
  6.4321679002970447  0.6619358631326762  6.0813000028189039
  4.1839790281040452  0.6619358631326762  7.2977535878729061
  5.0275282971680442  2.7490570831326764  3.4853151097879032
  5.8004628290430462  4.8361783131326774  2.2280920948239036
  6.5733973609180456  0.6619358631326762  0.9708690798599037
  3.4816592334180458  4.8361783131326774  5.9997611397169051
  4.2545937652930457  0.6619358631326762  4.7425381247519054
  7.1799856680190466  2.7490570831326764  0.8189971824209037
  8.6363540089250446  4.8361783131326774  1.0578040716169039
  1.0277193717550448  4.8361783131326774  0.1547624163769035
  9.1577253560520440  2.7490570831326764  2.4384595024459035
 10.0927223639030466  0.6619358631326762  1.2966109594119044
  1.4413450324780450  4.8361783131326774  7.6322584425139031
  2.8977133874570455  0.6619358631326762  7.8710653303079035
  1.5490907048100448  2.7490570831326764  1.5354178486079044
 10.6140936969580437  4.8361783131326774  2.6772663916419033
  3.0054590597880448  4.8361783131326774  1.7742247364019048
  1.1354650440860445  2.7490570831326764  4.0579218224709050
  2.0704620519370445  0.6619358631326762  2.9160732794369038
  3.9404560676390457  2.7490570831326764  0.6323761933679038
  2.4840877126610446  0.6619358631326762  0.3935693055729038
  3.5268303928430451  2.7490570831326764  3.1548801686329035
  2.5918333849920447  4.8361783131326774  4.2967287116669040
  5.3968244085460464  4.8361783131326774  0.8711830825639036
  4.4618274006940464  0.6619358631326762  2.0130316255979048
  7.8368075034260443  4.8361783131326774  8.6772848958509030
  6.3615531631080451  0.6619358631326762  8.6365154659399064
  7.2757171556040445  2.7490570831326764 12.2688615280159059
  4.8862988365470450  2.7490570831326764  8.5957460327479058
  5.8004628290430462  4.8361783131326774 12.2280920948239054
  6.5733973609180456  0.6619358631326762 10.9708690798599040
  9.0499796837210447  4.8361783131326774  8.5353000963519055
  7.1799856680190466  2.7490570831326764 10.8189971824209028
  8.1149826758700474  0.6619358631326762  9.6771486393869051
  9.5713510167760454  2.7490570831326764  9.9159555285829040
  8.6363540089250446  4.8361783131326774 11.0578040716169053
  1.0277193717550448  4.8361783131326774 10.1547624163769026
  9.1577253560520440  2.7490570831326764 12.4384595024459035
 10.0927223639030466  0.6619358631326762 11.2966109594119040
  1.9627163796060449  2.7490570831326764  9.0129138733429031
 10.5063480246270444  0.6619358631326762  8.7741069855479044
  1.5490907048100448  2.7490570831326764 11.5354178486079082
 10.6140936969580437  4.8361783131326774 12.6772663916419024
  3.0054590597880448  4.8361783131326774 11.7742247364019050
  3.4190847205120445  4.8361783131326774  9.2517207625389055
  3.9404560676390457  2.7490570831326764 10.6323761933679037
  2.4840877126610446  0.6619358631326762 10.3935693055729033
  4.8754530754910448  0.6619358631326762  9.4905276503329041
  5.3968244085460464  4.8361783131326774 10.8711830825639044
  4.4618274006940464  0.6619358631326762 12.0130316255979039
  2.3331852340550454  9.0104207531326814  6.2443777290249036
 10.8579308937380468  6.9232995331326803  6.2036082991139052
 10.0849963618630447  9.0104207531326814  7.4608313140789049
  1.6308654256130450 11.0975419831326807  4.9463852841499047
  2.3331852340550454 15.2717844231326811  6.2443777290249036
 10.8579308937380468 13.1846632031326791  6.2036082991139052
 10.0849963618630447 15.2717844231326811  7.4608313140789049
  1.6308654256130450 17.3589056531326804  4.9463852841499047
  9.3826765671760466 11.0975419831326807  6.1628388659219056
 10.1556110990510433  9.0104207531326814  4.9056158509579042
  8.6803567587340460  6.9232995331326803  4.8648464210469058
  7.9074222268580465  9.0104207531326814  6.1220694360119037
  9.4532912906090480 11.0975419831326807  3.6076234060829053
  9.3826765671760466 17.3589056531326804  6.1628388659219056
 10.1556110990510433 15.2717844231326811  4.9056158509579042
  8.6803567587340460 13.1846632031326791  4.8648464210469058
  7.9074222268580465 15.2717844231326811  6.1220694360119037
  9.4532912906090480 17.3589056531326804  3.6076234060829053
  8.6097420353010445  6.9232995331326803  7.4200618808869043
  7.1344876949830471 11.0975419831326807  7.3792924509759050
  8.6097420353010445 13.1846632031326791  7.4200618808869043
  7.1344876949830471 17.3589056531326804  7.3792924509759050
  7.2051024321720449 11.0975419831326807  4.8240769878549052
  7.9780369640470470  9.0104207531326814  3.5668539728909048
  6.5027826237290451  6.9232995331326803  3.5260845429799037
  5.7298480918540458  9.0104207531326814  4.7833075579449034
  7.2757171556040445 11.0975419831326807  2.2688615280159037
  7.2051024321720449 17.3589056531326804  4.8240769878549052
  7.9780369640470470 15.2717844231326811  3.5668539728909048
  6.5027826237290451 13.1846632031326791  3.5260845429799037
  5.7298480918540458 15.2717844231326811  4.7833075579449034
  7.2757171556040445 17.3589056531326804  2.2688615280159037
  6.4321679002970447  6.9232995331326803  6.0813000028189039
  5.6592333684220444  9.0104207531326814  7.3385230177839045
  4.1839790281040452  6.9232995331326803  7.2977535878729061
  4.9569135599790446 11.0975419831326807  6.0405305729089056
  6.4321679002970447 13.1846632031326791  6.0813000028189039
  5.6592333684220444 15.2717844231326811  7.3385230177839045
  4.1839790281040452 13.1846632031326791  7.2977535878729061
  4.9569135599790446 17.3589056531326804  6.0405305729089056
  6.5733973609180456  6.9232995331326803  0.9708690798599037
  5.0275282971680442 11.0975419831326807  3.4853151097879032
  5.8004628290430462  9.0104207531326814  2.2280920948239036
  6.5733973609180456 13.1846632031326791  0.9708690798599037
  5.0275282971680442 17.3589056531326804  3.4853151097879032
  5.8004628290430462 15.2717844231326811  2.2280920948239036
  4.2545937652930457  6.9232995331326803  4.7425381247519054
  3.4816592334180458  9.0104207531326814  5.9997611397169051
  4.2545937652930457 13.1846632031326791  4.7425381247519054
  3.4816592334180458 15.2717844231326811  5.9997611397169051
  7.1799856680190466 11.0975419831326807  0.8189971824209037
  7.1799856680190466 17.3589056531326804  0.8189971824209037
  8.6363540089250446  9.0104207531326814  1.0578040716169039
 10.0927223639030466  6.9232995331326803  1.2966109594119044
  1.0277193717550448  9.0104207531326814  0.1547624163769035
  9.1577253560520440 11.0975419831326807  2.4384595024459035
  8.6363540089250446 15.2717844231326811  1.0578040716169039
 10.0927223639030466 13.1846632031326791  1.2966109594119044
  1.0277193717550448 15.2717844231326811  0.1547624163769035
  9.1577253560520440 17.3589056531326804  2.4384595024459035
  1.4413450324780450  9.0104207531326814  7.6322584425139031
  2.8977133874570455  6.9232995331326803  7.8710653303079035
  1.4413450324780450 15.2717844231326811  7.6322584425139031
  2.8977133874570455 13.1846632031326791  7.8710653303079035
  1.5490907048100448 11.0975419831326807  1.5354178486079044
 10.6140936969580437  9.0104207531326814  2.6772663916419033
  2.0704620519370445  6.9232995331326803  2.9160732794369038
  3.0054590597880448  9.0104207531326814  1.7742247364019048
  1.1354650440860445 11.0975419831326807  4.0579218224709050
  1.5490907048100448 17.3589056531326804  1.5354178486079044
 10.6140936969580437 15.2717844231326811  2.6772663916419033
  2.0704620519370445 13.1846632031326791  2.9160732794369038
  3.0054590597880448 15.2717844231326811  1.7742247364019048
  1.1354650440860445 17.3589056531326804  4.0579218224709050
  2.4840877126610446  6.9232995331326803  0.3935693055729038
  3.9404560676390457 11.0975419831326807  0.6323761933679038
  2.4840877126610446 13.1846632031326791  0.3935693055729038
  3.9404560676390457 17.3589056531326804  0.6323761933679038
  3.5268303928430451 11.0975419831326807  3.1548801686329035
  2.5918333849920447  9.0104207531326814  4.2967287116669040
  3.5268303928430451 17.3589056531326804  3.1548801686329035
  2.5918333849920447 15.2717844231326811  4.2967287116669040
  4.4618274006940464  6.9232995331326803  2.0130316255979048
  5.3968244085460464  9.0104207531326814  0.8711830825639036
  4.4618274006940464 13.1846632031326791  2.0130316255979048
  5.3968244085460464 15.2717844231326811  0.8711830825639036
  7.8368075034260443  9.0104207531326814  8.6772848958509030
  6.3615531631080451  6.9232995331326803  8.6365154659399064
  7.8368075034260443 15.2717844231326811  8.6772848958509030
  6.3615531631080451 13.1846632031326791  8.6365154659399064
  7.2757171556040445 11.0975419831326807 12.2688615280159059
  7.2757171556040445 17.3589056531326804 12.2688615280159059
  4.8862988365470450 11.0975419831326807  8.5957460327479058
  4.8862988365470450 17.3589056531326804  8.5957460327479058
  6.5733973609180456  6.9232995331326803 10.9708690798599040
  5.8004628290430462  9.0104207531326814 12.2280920948239054
  6.5733973609180456 13.1846632031326791 10.9708690798599040
  5.8004628290430462 15.2717844231326811 12.2280920948239054
  8.1149826758700474  6.9232995331326803  9.6771486393869051
  9.0499796837210447  9.0104207531326814  8.5353000963519055
  7.1799856680190466 11.0975419831326807 10.8189971824209028
  8.1149826758700474 13.1846632031326791  9.6771486393869051
  9.0499796837210447 15.2717844231326811  8.5353000963519055
  7.1799856680190466 17.3589056531326804 10.8189971824209028
  9.5713510167760454 11.0975419831326807  9.9159555285829040
  8.6363540089250446  9.0104207531326814 11.0578040716169053
 10.0927223639030466  6.9232995331326803 11.2966109594119040
  1.0277193717550448  9.0104207531326814 10.1547624163769026
  9.1577253560520440 11.0975419831326807 12.4384595024459035
  9.5713510167760454 17.3589056531326804  9.9159555285829040
  8.6363540089250446 15.2717844231326811 11.0578040716169053
 10.0927223639030466 13.1846632031326791 11.2966109594119040
  1.0277193717550448 15.2717844231326811 10.1547624163769026
  9.1577253560520440 17.3589056531326804 12.4384595024459035
 10.5063480246270444  6.9232995331326803  8.7741069855479044
  1.9627163796060449 11.0975419831326807  9.0129138733429031
 10.5063480246270444 13.1846632031326791  8.7741069855479044
  1.9627163796060449 17.3589056531326804  9.0129138733429031
  1.5490907048100448 11.0975419831326807 11.5354178486079082
 10.6140936969580437  9.0104207531326814 12.6772663916419024
  3.0054590597880448  9.0104207531326814 11.7742247364019050
  1.5490907048100448 17.3589056531326804 11.5354178486079082
 10.6140936969580437 15.2717844231326811 12.6772663916419024
  3.0054590597880448 15.2717844231326811 11.7742247364019050
  2.4840877126610446  6.9232995331326803 10.3935693055729033
  3.4190847205120445  9.0104207531326814  9.2517207625389055
  4.8754530754910448  6.9232995331326803  9.4905276503329041
  3.9404560676390457 11.0975419831326807 10.6323761933679037
  2.4840877126610446 13.1846632031326791 10.3935693055729033
  3.4190847205120445 15.2717844231326811  9.2517207625389055
  4.8754530754910448 13.1846632031326791  9.4905276503329041
  3.9404560676390457 17.3589056531326804 10.6323761933679037
  4.4618274006940464  6.9232995331326803 12.0130316255979039
  5.3968244085460464  9.0104207531326814 10.8711830825639044
  4.4618274006940464 13.1846632031326791 12.0130316255979039
  5.3968244085460464 15.2717844231326811 10.8711830825639044
 12.3331852340550476  4.8361783131326774  6.2443777290249036
 11.6308654256130488  2.7490570831326764  4.9463852841499047
 11.0277193717550457  4.8361783131326774  0.1547624163769035
 11.4413450324780470  4.8361783131326774  7.6322584425139031
 11.5490907048100482  2.7490570831326764  1.5354178486079044
 11.1354650440860450  2.7490570831326764  4.0579218224709050
 12.0704620519370494  0.6619358631326762  2.9160732794369038
 11.0277193717550457  4.8361783131326774 10.1547624163769026
 11.9627163796060429  2.7490570831326764  9.0129138733429031
 11.5490907048100482  2.7490570831326764 11.5354178486079082
 12.3331852340550476  9.0104207531326814  6.2443777290249036
 11.6308654256130488 11.0975419831326807  4.9463852841499047
 12.3331852340550476 15.2717844231326811  6.2443777290249036
 11.6308654256130488 17.3589056531326804  4.9463852841499047
 11.0277193717550457  9.0104207531326814  0.1547624163769035
 11.0277193717550457 15.2717844231326811  0.1547624163769035
 11.4413450324780470  9.0104207531326814  7.6322584425139031
 11.4413450324780470 15.2717844231326811  7.6322584425139031
 11.5490907048100482 11.0975419831326807  1.5354178486079044
 12.0704620519370494  6.9232995331326803  2.9160732794369038
 11.1354650440860450 11.0975419831326807  4.0579218224709050
 11.5490907048100482 17.3589056531326804  1.5354178486079044
 12.0704620519370494 13.1846632031326791  2.9160732794369038
 11.1354650440860450 17.3589056531326804  4.0579218224709050
 11.0277193717550457  9.0104207531326814 10.1547624163769026
 11.0277193717550457 15.2717844231326811 10.1547624163769026
 11.9627163796060429 11.0975419831326807  9.0129138733429031
 11.9627163796060429 17.3589056531326804  9.0129138733429031
 11.5490907048100482 11.0975419831326807 11.5354178486079082
 11.5490907048100482 17.3589056531326804 11.5354178486079082
