Cu
 1.0000000000000000
     7.6685730419681093    0.0000000000000000    0.0000000000000000
     3.8342865209840546    6.6411790651208911    0.0000000000000000
     0.0000000000000000    0.0000000000000000   25.0450909090909093
 Cu 
 108
Direct
  0.1131295848825287  0.1116932217823904  0.0001195549030054
  0.1985444476270924  0.6673756138884479  0.6662748237192538
  0.8665710329254348  0.3329194039759035  0.6669342371798131
  0.5343613857302961  0.3359131261524420  0.6664148604532764
  0.2011596826886643  0.3313615952259340  0.6660839164268427
  0.8683927055698591 -0.0026477504137724  0.6665855772550491
  0.5354937370249417 -0.0007771083200037  0.6659347903997800
  0.1993789775231726 -0.0004864022754557  0.6661180045694340
  0.7542750288203450  0.8903635289465397  0.5832079061530219
  0.4237944889758007  0.8884033773974100  0.5827544895870119
  0.0877222857754912  0.8913940863534661  0.5828798881040175
  0.7543658764158836  0.5580411676881754  0.5826381263980398
  0.4216933349513575  0.5557355834287584  0.5828258584092437
  0.0901273262688357  0.5560452878920666  0.5831373121100436
  0.7550108882299064  0.2197394205456517  0.5839622603619505
  0.4215999212892650  0.2205437566527456  0.5835787069477562
  0.0888712973169131  0.2228764130566460  0.5825475876913963
  0.9803866026956291  0.7770569717795565  0.4995333125335633
  0.6473577275338602  0.7763484033223609  0.5007464731895382
  0.3140103055348759  0.7753078928665583  0.4994537437314453
  0.9787128649950553  0.4474237247014586  0.5005492214025751
  0.6411915033004747  0.4463484315993323  0.5007595265183721
  0.3103950857344639  0.4427707742048639  0.5001189953945469
  0.9769573161454053  0.1099029648716728  0.5001249035933136
  0.5317145299814440  0.6653282754333935  0.6662574631886568
  0.6454090610396873  0.1100096318358727  0.4992287255660753
  0.8667792098239914  0.6662490291578979  0.6660218741389096
  0.6430022123705458  0.1121075296425441  0.7506639106082895
  0.1988964498234416  0.6666896053457007  0.9160583917235924
  0.8662400780061627  0.3361520731350571  0.9158884553845587
  0.5298952997201372  0.3351596506681552  0.9160440047637936
  0.2012585149339805  0.3331012803071867  0.9173833214154697
  0.8650248173216152  0.0012737798026688  0.9165054508097741
  0.5312502988703555 -0.0000432122132511  0.9162961736671351
  0.2011830973196158 -0.0009098030507080  0.9162262547089914
  0.7577025040966994  0.8866648435504475  0.8333816955745171
  0.4182494355691737  0.8916292541763317  0.8341136614947555
  0.0863537304006681  0.8905497885714742  0.8333430005411413
  0.7516380461216087  0.5582431144229084  0.8329442617400455
  0.4226368487962313  0.5547482435004426  0.8332342241043670
  0.0905319767320173  0.5570293736700340  0.8336766257839635
  0.7556935096665237  0.2236780860594187  0.8340619474842026
  0.4219714704959523  0.2203859255193112  0.8339119394469152
  0.0916534185368136  0.2208664845643607  0.8330247961233952
  0.9749020284203699  0.7797463040755952  0.7506227561446687
  0.6427700674528911  0.7767330322069924  0.7504119556272246
  0.3118058077490170  0.7787897409241079  0.7493063074968592
  0.9758452512390622  0.4457834472012701  0.7508043930300525
  0.6450740440710747  0.4422713596252057  0.7501480577797058
  0.3109704547870526  0.4469154349163537  0.7499428346173215
  0.9811829514197599  0.1091541907143304  0.7507687910958528
  0.3102936460078970  0.1125686492122398  0.7492469213963584
  0.3099967585935052  0.1086256062137974  0.4993179904121173
  0.6673119407693295  0.6637714612536768  0.4167921526952020
  0.3313328451078735  0.6659728031399104  0.4164081377498960
  0.6662664692324897  0.3307387226170724  0.1669902853110214
  0.3320807680492626  0.3306903328553497  0.1668317441985381
  0.0010984268260259  0.3346437353692759  0.1665694669730936
  0.6679533897456007 -0.0017512593568868  0.1662180620520511
  0.3339221939019753 -0.0012486805762918  0.1667730658135846
  0.0011541713535654  0.0001043160430311  0.1663549248059444
  0.5529546600768822  0.8908272990648595  0.0839855216798277
  0.2207216628563659  0.8893565313114190  0.0825597178092252
  0.8917741418535149  0.8862299474085629  0.0832241169271730
  0.5539232979662192  0.5547186467854253  0.0827659035365273
  0.2240508912864530  0.5553176416942283  0.0826641724216231
  0.8876127800867216  0.5544312714007249  0.0839428828522859
  0.5529384584361346  0.2235576362290899  0.0835004503845646
  0.2217280010611644  0.2193787865514686  0.0834424656774736
  0.8878588484388052  0.2208772208720365  0.0826353484552159
  0.7788972377104412  0.7800101305622251  0.0001923443089160
  0.4435320612018541  0.7765294820304177  0.0007466595696863
  0.1126139440848256  0.7769811234703418  0.0004158223773475
  0.7768762889296592  0.4435216078569711  0.0001811813961488
  0.4431282707458228  0.4463233326113598 -0.0007564815574307
  0.1120317686167215  0.4437943627906343  0.0000834269179727
  0.7746905588007332  0.1128442763590209 -0.0005767031197559
  0.4462069137408756  0.1099836457547301 -0.0001882663523730
  0.0002754108372124  0.6696641936530827  0.1674419449233896
  0.3347185456028765  0.6655772328537621  0.1668135570962820
  0.6656046640124692  0.6661073203919309  0.1663402617580682
  0.1078526966012084  0.1130219789909993  0.2493496366139275
 -0.0013294226289073  0.6669180365627555  0.4167171120024720
  0.6671388878740064  0.3309555938132424  0.4162865188121354
  0.3322225480406708  0.3354813206943150  0.4167259787010015
  0.0018496413064733  0.3327987713941650  0.4161371362275595
  0.6673271476063840 -0.0016452729969868  0.4163994500916976
  0.3332853892398868  0.0027882546123123  0.4168338446852803
  0.0024647751472871 -0.0011928533184546  0.4159562399276012
  0.5549607788823722  0.8903918148970164  0.3335738426656613
  0.2250419113998416  0.8863447771211967  0.3331798472975433
  0.8873177808801754  0.8883938754715305  0.3327881543612410
  0.5550387340595854  0.5546263858484688  0.3340094015186464
  0.5322942696085107  0.6672549720223286  0.9169818138816630
  0.2231660520477010  0.5576886233694952  0.3330569690949678
  0.5583884963865373  0.2210374199261031  0.3334894985002381
  0.2219893043014988  0.2211254466604756  0.3326287974937410
  0.8895074445168332  0.2194841868201576  0.3333713641934047
  0.7782761618963258  0.7757933061575423  0.2507305251542716
  0.4447833793052797  0.7749940659588157  0.2498931291756613
  0.1125386497393239  0.7778209383405923  0.2494286629730399
  0.7773956740390142  0.4421618371531200  0.2495737891663687
  0.4447245615152394  0.4448835679561211  0.2500659737325281
  0.1098796360225353  0.4449646326954190  0.2498052756494789
  0.7774362993266258  0.1091366604675347  0.2499390988146313
  0.4461980087250162  0.1110074666644669  0.2499057725737541
  0.8864584171829453  0.5557255499654505  0.3333258374821017
  0.8678219918127771  0.6666384140687548  0.9172477534079094
