Cu
 1.0000000000000000
     7.6685730419681093    0.0000000000000000    0.0000000000000000
     3.8342865209840546    6.6411790651208911    0.0000000000000000
     0.0000000000000000    0.0000000000000000   25.0450909090909093
 Cu 
 108
Direct
  0.1117514785194813  0.1138859872167725  0.0002525247154343
 -0.0007381993813736  0.7991946635849346  0.6665981046857853
  0.6645790392135404  0.4659300623885281  0.6669455567843258
  0.3334972803307782  0.4695153377313996  0.6662109290761770
  0.0027087053203445  0.4640055217989156  0.6659533923210942
  0.6659161523309866  0.1306070106449060  0.6674160824855544
  0.3301787912735181  0.1359330073290809  0.6659725997565025
  0.0007255854038965  0.1341922484637893  0.6673268530236307
  0.5568904793053494  0.0209113660866405  0.5829189963641471
  0.2233126496983978  0.0236699932904827  0.5830357012049395
  0.8875843273523761  0.0207060823884442  0.5831844120099389
  0.5591745218754003  0.6865780004777550  0.5834638354237587
  0.2208976268689233  0.6913416084257340  0.5836411948799276
  0.8898344723546684  0.6882266709252174  0.5834941489916912
  0.5565263376441737  0.3530859653589583  0.5830490170839135
  0.2217646131178182  0.3581231053245961  0.5835134715876342
  0.8887541624552349  0.3584223210378991  0.5830859979903302
  0.7772183900209838  0.9096401393294475  0.5004451097561494
  0.4441483405734716  0.9115305881145271  0.5005398194270416
  0.1102463854274872  0.9118270032165259  0.5003723743196316
  0.7779406108165596  0.5790105777713839  0.5000746635267266
  0.4450690986066326  0.5795911622667799  0.4993066202010696
  0.1107801694111431  0.5778774845054280  0.4993280356954360
  0.7790577118762966  0.2434167356821647  0.4996559358626508
  0.3334553814908955  0.8018134267987951  0.6672278440261018
  0.4433441903332852  0.2441352043860163  0.4998997987274157
  0.6676014654420283  0.7980593853546176  0.6666523475988086
  0.4421632135703286  0.2471918505192084  0.7504281257675944
  0.0002859535714713  0.7981914445306378  0.9164370079670985
  0.6682020645341629  0.4659252737443728  0.9160475875812729
  0.3345262502260585  0.4649320515521341  0.9160723838901829
 -0.0019337114303791  0.4686559795263522  0.9164802287224115
  0.6655527506704687  0.1362159688741728  0.9167969062728497
  0.3328586891289712  0.1331178179322159  0.9168549250332694
  0.0029220086925561  0.1319339854888972  0.9166470908362011
  0.5553158222368483  0.0221990730294953  0.8331179714791817
  0.2247132882082531  0.0219564219467866  0.8329657115267994
  0.8853647339335299  0.0242760290130066  0.8334677567921577
  0.5529015965334377  0.6892911609588296  0.8338743512739069
  0.2228398363837758  0.6894416112124061  0.8336011275747957
  0.8899574963247135  0.6912657502619144  0.8334069314570666
  0.5570213256967510  0.3532903997219824  0.8338537120637857
  0.2239341804064049  0.3545561827248985  0.8335164559369590
  0.8879672738929923  0.3533651982049492  0.8337499446814111
  0.7794273527686841  0.9114861704494028  0.7498244394624277
  0.4459302361008817  0.9115052648868310  0.7506013093477152
  0.1141051127579013  0.9091686791939876  0.7495841971565873
  0.7791605822700759  0.5756567584753223  0.7492493597466142
  0.4445309500770018  0.5796881662749211  0.7501614379603029
  0.1097552156036897  0.5807205009292939  0.7495868117324974
  0.7771959617842202  0.2431916991591189  0.7497803429304105
  0.1101414104671297  0.2457229171133677  0.7506341480884740
  0.1114935476400371  0.2427287421583424  0.4993758785820154
  0.6677913300870565  0.6685749705014310  0.4162506775090866
  0.3361121994974140  0.6648239913709622  0.4166188924747736
  0.6686765904817623  0.3330466791871359  0.1665112610981390
  0.3325692271262698  0.3343375638539821  0.1667318773693861
  0.0023026827248899  0.3306124420135719  0.1669539028075583
  0.6658363722181807  0.0029421337101769  0.1671138867039656
  0.3344414998444669  0.0024588836961385  0.1666764534160218
 -0.0001970352671251  0.0010879068866842  0.1672724983723884
  0.5570018483368953  0.8886064549497270  0.0826448801701892
  0.2208943534594770  0.8873723668477149  0.0839425875127477
  0.8881778339627595  0.8869694539248723  0.0827554526552606
  0.5579414783368485  0.5540535683169042  0.0832684665088496
  0.2213212013047036  0.5564469609500203  0.0828928828472170
  0.8878035582699101  0.5541562770962271  0.0830085062639817
  0.5537752736153850  0.2238567400949366  0.0834839994776246
  0.2233430326484520  0.2218610260992318  0.0827493273535770
  0.8890340874361401  0.2226630556408156  0.0834051259508057
  0.7806335983312720  0.7762568840506900  0.0004205932486868
  0.4448312104204371  0.7805262250428084 -0.0005806734743162
  0.1104249229369219  0.7753147368131341 -0.0004926100105817
  0.7758571521191394  0.4441743331906370  0.0001826871735416
  0.4426736518978923  0.4438964482779824  0.0005252809639726
  0.1090483845734936  0.4470565280885404 -0.0007401159838978
  0.7778553330357407  0.1091333144922557  0.0006331608175497
  0.4420455828176401  0.1122706763669157 -0.0005556019268483
 -0.0012773388954559  0.6695794561417868  0.1660554069353576
  0.3342797732949702  0.6669025014953812  0.1662599424038835
  0.6671415079996094  0.6657251008420738  0.1662172398399365
  0.1089318051672339  0.1129318609569085  0.2495235182444702
  0.0019223935595472  0.6655779288332240  0.4159227819847892
  0.6670592870855241  0.3353270253038725  0.4174447231132429
  0.3344559772703574  0.3352913303531913  0.4161273375325819
 -0.0015142569268459  0.3357141790240099  0.4160494681474779
  0.6670813701541469 -0.0011369874337968  0.4160096731136059
  0.3317872664642924 -0.0014531156728081  0.4166068399606035
 -0.0009167593933528  0.0028169293803803  0.4162586097533270
  0.5560513043506623  0.8917120048701397  0.3326306263492740
  0.2232517443181085  0.8887069300612240  0.3325750374646759
  0.8862382593669648  0.8890680557465189  0.3341041963563942
  0.5573242134668953  0.5538408428671289  0.3337294945447649
  0.3356773854559268  0.7992070328679244  0.9174161868808384
  0.2249155729257513  0.5549442254986240  0.3326881997749724
  0.5550842407152924  0.2235902482990673  0.3329865016986356
  0.2217587932588168  0.2220622004067657  0.3337948219191458
  0.8907387458300122  0.2208617419533222  0.3332252618699335
  0.7786191509967070  0.7799160846274966  0.2504833059644045
  0.4423785217075465  0.7790712354816949  0.2507262962562687
  0.1096728454283540  0.7791983679921011  0.2493381972106559
  0.7785278013663707  0.4432151207690264  0.2495537601005493
  0.4423568977683563  0.4456229456955867  0.2492079908037372
  0.1111708590045095  0.4472853009598469  0.2493158029735580
  0.7784563365319124  0.1112043038193000  0.2506439604303968
  0.4416465758072253  0.1124878051407066  0.2501058898396378
  0.8855568875774851  0.5572085064074643  0.3340717663176140
  0.6676865536077247  0.7990011472703340  0.9171496811197611
