Cu
 1.0000000000000000
     7.6685730419681093    0.0000000000000000    0.0000000000000000
     3.8342865209840546    6.6411790651208911    0.0000000000000000
     0.0000000000000000    0.0000000000000000   25.0450909090909093
 Cu 
 108
Direct
  0.1102615718843145  0.1123448401207466 -0.0000163701487633
  0.1343085443879529  0.0002116628432966  0.6668027874880993
  0.7996860970412710  0.6652731624558283  0.6667791551907638
  0.4663824230887140  0.6670002985332401  0.6663444750108916
  0.1321512946349045  0.6641117426412777  0.6666896238598277
  0.7994299886347637  0.3308328268601524  0.6672883293966824
  0.4676220973054944  0.3305117686982464  0.6661560394034073
  0.1322779417213763  0.3341064413068189  0.6660414775254681
  0.6872724665601636  0.2206695419419797  0.5838306480036027
  0.3574793332149125  0.2235403947235249  0.5836236876663440
  0.0199916406933703  0.2230322614321497  0.5836811217749852
  0.6860556571744327  0.8904174276459845  0.5825807018484830
  0.3552963469564494  0.8876540954669913  0.5835252237550999
  0.0209756608427536  0.8914790446046105  0.5829297256208972
  0.6872390065232665  0.5550106010226317  0.5829405446300454
  0.3589637796080331  0.5534673076916367  0.5836382872249603
  0.0232137498236374  0.5533906343122529  0.5834277598067217
  0.9083289200038654  0.1136571206769249  0.5002650090339358
  0.5779195145605206  0.1111273419261398  0.4992237842545713
  0.2417873299745749  0.1113918791793082  0.5007122775769872
  0.9137332769482862  0.7769964426761702  0.5003810598890451
  0.5788078792247047  0.7797688283645897  0.5004649491372097
  0.2450201278793027  0.7777255047272787  0.5006589689644955
  0.9078914246054188  0.4470610188758239  0.5006507366291336
  0.4670922120724765 -0.0019705700266586  0.6669088034228620
  0.5748191039110110  0.4455363975352088  0.5008009655852784
  0.7978441648209783 -0.0004287821667561  0.6659793038990783
  0.5802841078565159  0.4414422258916148  0.7498763188891884
  0.1343164848769767 -0.0000442660386551  0.9173179830873560
  0.8029978325625292  0.6652743647749204  0.9164581664624712
  0.4638609613454751  0.6691668840858831  0.9174018045985411
  0.1317995123065941  0.6664673557050441  0.9172894608384113
  0.7977652801115895  0.3343357699553002  0.9159257007767195
  0.4692238819477956  0.3331012539055531  0.9169758805363628
  0.1314024385223642  0.3346481622582203  0.9169841632371497
  0.6884616621892116  0.2206624677449822  0.8336231455841527
  0.3546038654526108  0.2222752366822099  0.8337671061591503
  0.0215485542467342  0.2208770661017953  0.8338747308137273
  0.6908494809317800  0.8898515573506010  0.8338814237721681
  0.3545501260829790  0.8917361902368225  0.8340463508733440
  0.0198133796882696  0.8899070863003266  0.8331347713683422
  0.6880308708479778  0.5533323274095385  0.8326907624170604
  0.3578849215633018  0.5546557128033038  0.8325729398614941
  0.0219649443863183  0.5555008455956550  0.8325487516272452
  0.9108106507108630  0.1123545167909785  0.7503017191238205
  0.5773755886993012  0.1094554048868802  0.7508084974479912
  0.2456955375277684  0.1084419137339553  0.7501846071577352
  0.9102703639915990  0.7788059493385667  0.7497934256408155
  0.5764803232517114  0.7764393369941602  0.7506577825013764
  0.2441910675120718  0.7783566692716515  0.7494925990737797
  0.9124879991034901  0.4457773766043627  0.7504950478154792
  0.2426966123856604  0.4432645469296955  0.7494040639627406
  0.2461194783657738  0.4447317863674102  0.5001047319402561
  0.6640556606022781  0.6670191409557517  0.4174620607020594
  0.3349613022874702  0.6658344710032484  0.4159944428895483
  0.6677429489031147  0.3360947698222395  0.1674519102387621
  0.3332329067577355  0.3338906905817672  0.1670364749510238
  0.0007310061395493  0.3315064452995771  0.1662287768557636
  0.6670683148046994 -0.0007224210980640  0.1667729423298370
  0.3317853962212857 -0.0002958271860556  0.1674638149817617
  0.0005626291219574  0.0025241786851078  0.1659353696776918
  0.5554253348473932  0.8872105232802046  0.0825992356292720
  0.2195693388904255  0.8912028542692337  0.0834430885837132
  0.8896929648045382  0.8895793944222438  0.0827095645158210
  0.5556945986258717  0.5528841448888409  0.0835124099710819
  0.2197216324039530  0.5570029144878380  0.0830837602001993
  0.8928412286571499  0.5525488106312056  0.0835097253446593
  0.5579144132710528  0.2203613309467071  0.0836606061270215
  0.2234633553313564  0.2245371105692830  0.0828895002049088
  0.8917785613543123  0.2214370899088285  0.0841100339925477
  0.7759338507062005  0.7784083040271084 -0.0005310897017654
  0.4457426436318676  0.7772220094325122  0.0002642341690870
  0.1130273938240036  0.7782893902668759  0.0004476579691664
  0.7789909896954607  0.4423742627231941  0.0001766171226629
  0.4435120505850514  0.4414445455055279 -0.0007530622127232
  0.1109598119592028  0.4465633391533220  0.0002878312762484
  0.7766586936029461  0.1138831256948304  0.0002583140332456
  0.4443512301550435  0.1097202302758053  0.0004256950788660
 -0.0029906550845757  0.6692191980111935  0.1672618928497045
  0.3362645970408547  0.6653476569272889  0.1673427176389628
  0.6645899015904966  0.6659019976164474  0.1661967179510977
  0.1097792866340312  0.1087515340642955  0.2494308038328341
  0.0036790208364727  0.6639666205859625  0.4173683571535808
  0.6636829031236752  0.3354584525294301  0.4159054248233371
  0.3344703408885568  0.3334548885148306  0.4162543788041955
  0.0028440396963255  0.3322369733858221  0.4169712886010884
  0.6637164323301247  0.0023580728884339  0.4174179399481966
  0.3344925451810449 -0.0013235981837464  0.4170770648434594
 -0.0014571793011509  0.0021370576596219  0.4168093219445082
  0.5519828452396595  0.8917383261905460  0.3327123360804768
  0.2234464604866310  0.8910868481314695  0.3336934962558801
  0.8894422314853019  0.8883142149341101  0.3326947517193247
  0.5568210430819150  0.5526073447676073  0.3330045949981566
  0.4655278345441470 -0.0010733868511888  0.9168587645036753
  0.2187165482914706  0.5582095320053456  0.3330381994966939
  0.5524315412649718  0.2238010326921542  0.3336164367595642
  0.2209942710416916  0.2250855593442379  0.3334415980002906
  0.8900774308423525  0.2240650298778830  0.3326739264448739
  0.7771033148889681  0.7802068905903222  0.2503255669446129
  0.4462958218527827  0.7783766494779044  0.2505090566082194
  0.1096454971804495  0.7792366075010183  0.2504129227668765
  0.7803880457144703  0.4417226753572956  0.2493578902859283
  0.4423113374190729  0.4451392050610145  0.2506374169974890
  0.1132865510590038  0.4432890659430546  0.2502494385580812
  0.7764275613268207  0.1102942820525844  0.2504856642164611
  0.4439240395706187  0.1086913347233434  0.2505415447935251
  0.8879226892542118  0.5559661719165925  0.3336404506906045
  0.8006579784366292  0.0014340734780686  0.9159466664617292
