Cu
 1.0000000000000000
     7.6685730419681093    0.0000000000000000    0.0000000000000000
     3.8342865209840546    6.6411790651208911    0.0000000000000000
     0.0000000000000000    0.0000000000000000   73.0492428092174038
 Cu 
 315
Direct
  0.0000000000000000  0.0000000000000000  0.0000000000000000
  0.0000000000000000  0.6666666666666666  0.6571428571428573
  0.6666666666666666  0.3333333333333333  0.6571428571428573
  0.3333333333333333  0.3333333333333333  0.6571428571428573
  0.0000000000000000  0.3333333333333333  0.6571428571428573
  0.6666666666666666  0.0000000000000000  0.6571428571428573
  0.3333333333333333  0.0000000000000000  0.6571428571428573
  0.0000000000000000  0.0000000000000000  0.6571428571428573
  0.8888888888888888  0.8888888888888887  0.6285714285714287
  0.5555555555555556  0.8888888888888887  0.6285714285714287
  0.2222222222222223  0.8888888888888887  0.6285714285714287
  0.8888888888888887  0.5555555555555556  0.6285714285714287
  0.5555555555555555  0.5555555555555556  0.6285714285714287
  0.2222222222222222  0.5555555555555556  0.6285714285714287
  0.8888888888888886  0.2222222222222222  0.6285714285714287
  0.5555555555555556  0.2222222222222222  0.6285714285714287
  0.3333333333333333  0.6666666666666666  0.6571428571428573
  0.6666666666666666  0.6666666666666666  0.6571428571428573
  0.1111111111111111  0.1111111111111111  0.6857142857142857
  0.4444444444444443  0.1111111111111111  0.6857142857142857
  0.8888888888888888  0.8888888888888887  0.7142857142857143
  0.5555555555555556  0.8888888888888887  0.7142857142857143
  0.2222222222222223  0.8888888888888887  0.7142857142857143
  0.8888888888888887  0.5555555555555556  0.7142857142857143
  0.5555555555555555  0.5555555555555556  0.7142857142857143
  0.2222222222222222  0.5555555555555556  0.7142857142857143
  0.8888888888888886  0.2222222222222222  0.7142857142857143
  0.2222222222222222  0.2222222222222222  0.6285714285714287
  0.5555555555555556  0.2222222222222222  0.7142857142857143
  0.7777777777777778  0.7777777777777777  0.6857142857142857
  0.4444444444444444  0.7777777777777777  0.6857142857142857
  0.1111111111111111  0.7777777777777777  0.6857142857142857
  0.7777777777777778  0.4444444444444444  0.6857142857142857
  0.4444444444444444  0.4444444444444444  0.6857142857142857
  0.1111111111111111  0.4444444444444444  0.6857142857142857
  0.7777777777777778  0.1111111111111111  0.6857142857142857
  0.2222222222222222  0.2222222222222222  0.7142857142857143
  0.7777777777777778  0.7777777777777777  0.6000000000000001
  0.4444444444444444  0.7777777777777777  0.6000000000000001
  0.1111111111111111  0.7777777777777777  0.6000000000000001
  0.1111111111111111  0.4444444444444444  0.5428571428571429
  0.7777777777777778  0.1111111111111111  0.5428571428571429
  0.4444444444444443  0.1111111111111111  0.5428571428571429
  0.1111111111111111  0.1111111111111111  0.5428571428571429
  0.8888888888888888  0.8888888888888887  0.5142857142857143
  0.5555555555555556  0.8888888888888887  0.5142857142857143
  0.2222222222222223  0.8888888888888887  0.5142857142857143
  0.4444444444444444  0.4444444444444444  0.5428571428571429
  0.8888888888888887  0.5555555555555556  0.5142857142857143
  0.2222222222222222  0.5555555555555556  0.5142857142857143
  0.8888888888888886  0.2222222222222222  0.5142857142857143
  0.5555555555555556  0.2222222222222222  0.5142857142857143
  0.2222222222222222  0.2222222222222222  0.5142857142857143
  0.6666666666666666  0.6666666666666666  0.4857142857142858
  0.3333333333333333  0.6666666666666666  0.4857142857142858
  0.0000000000000000  0.6666666666666666  0.4857142857142858
  0.5555555555555555  0.5555555555555556  0.5142857142857143
  0.0000000000000000  0.0000000000000000  0.7428571428571429
  0.7777777777777778  0.4444444444444444  0.5428571428571429
  0.4444444444444444  0.7777777777777777  0.5428571428571429
  0.7777777777777778  0.4444444444444444  0.6000000000000001
  0.4444444444444444  0.4444444444444444  0.6000000000000001
  0.1111111111111111  0.4444444444444444  0.6000000000000001
  0.7777777777777778  0.1111111111111111  0.6000000000000001
  0.4444444444444443  0.1111111111111111  0.6000000000000001
  0.1111111111111111  0.1111111111111111  0.6000000000000001
  0.6666666666666666  0.6666666666666666  0.5714285714285715
  0.1111111111111111  0.7777777777777777  0.5428571428571429
  0.3333333333333333  0.6666666666666666  0.5714285714285715
  0.6666666666666666  0.3333333333333333  0.5714285714285715
  0.3333333333333333  0.3333333333333333  0.5714285714285715
  0.0000000000000000  0.3333333333333333  0.5714285714285715
  0.6666666666666666  0.0000000000000000  0.5714285714285715
  0.3333333333333333  0.0000000000000000  0.5714285714285715
  0.0000000000000000  0.0000000000000000  0.5714285714285715
  0.7777777777777778  0.7777777777777777  0.5428571428571429
  0.0000000000000000  0.6666666666666666  0.5714285714285715
  0.6666666666666666  0.3333333333333333  0.4857142857142858
  0.3333333333333333  0.0000000000000000  0.7428571428571429
  0.0000000000000000  0.3333333333333333  0.7428571428571429
  0.3333333333333333  0.3333333333333333  0.9142857142857144
  0.0000000000000000  0.3333333333333333  0.9142857142857144
  0.6666666666666666  0.0000000000000000  0.9142857142857144
  0.3333333333333333  0.0000000000000000  0.9142857142857144
  0.0000000000000000  0.0000000000000000  0.9142857142857144
  0.8888888888888888  0.8888888888888887  0.8857142857142859
  0.5555555555555556  0.8888888888888887  0.8857142857142859
  0.2222222222222223  0.8888888888888887  0.8857142857142859
  0.8888888888888887  0.5555555555555556  0.8857142857142859
  0.5555555555555555  0.5555555555555556  0.8857142857142859
  0.2222222222222222  0.5555555555555556  0.8857142857142859
  0.8888888888888886  0.2222222222222222  0.8857142857142859
  0.5555555555555556  0.2222222222222222  0.8857142857142859
  0.2222222222222222  0.2222222222222222  0.8857142857142859
  0.7777777777777778  0.7777777777777777  0.8571428571428572
  0.6666666666666666  0.3333333333333333  0.9142857142857144
  0.0000000000000000  0.6666666666666666  0.9142857142857144
  0.3333333333333333  0.6666666666666666  0.9142857142857144
  0.6666666666666666  0.6666666666666666  0.9142857142857144
  0.2222222222222223  0.8888888888888887  0.9714285714285715
  0.8888888888888887  0.5555555555555556  0.9714285714285715
  0.5555555555555555  0.5555555555555556  0.9714285714285715
  0.2222222222222222  0.5555555555555556  0.9714285714285715
  0.8888888888888886  0.2222222222222222  0.9714285714285715
  0.5555555555555556  0.2222222222222222  0.9714285714285715
  0.2222222222222222  0.2222222222222222  0.9714285714285715
  0.4444444444444444  0.7777777777777777  0.8571428571428572
  0.7777777777777778  0.7777777777777777  0.9428571428571428
  0.1111111111111111  0.7777777777777777  0.9428571428571428
  0.7777777777777778  0.4444444444444444  0.9428571428571428
  0.4444444444444444  0.4444444444444444  0.9428571428571428
  0.1111111111111111  0.4444444444444444  0.9428571428571428
  0.7777777777777778  0.1111111111111111  0.9428571428571428
  0.4444444444444443  0.1111111111111111  0.9428571428571428
  0.1111111111111111  0.1111111111111111  0.9428571428571428
  0.4444444444444444  0.7777777777777777  0.9428571428571428
  0.1111111111111111  0.7777777777777777  0.8571428571428572
  0.7777777777777778  0.4444444444444444  0.8571428571428572
  0.4444444444444444  0.4444444444444444  0.8571428571428572
  0.5555555555555556  0.2222222222222222  0.8000000000000000
  0.2222222222222222  0.2222222222222222  0.8000000000000000
  0.7777777777777778  0.7777777777777777  0.7714285714285715
  0.4444444444444444  0.7777777777777777  0.7714285714285715
  0.1111111111111111  0.7777777777777777  0.7714285714285715
  0.7777777777777778  0.4444444444444444  0.7714285714285715
  0.4444444444444444  0.4444444444444444  0.7714285714285715
  0.8888888888888886  0.2222222222222222  0.8000000000000000
  0.1111111111111111  0.4444444444444444  0.7714285714285715
  0.4444444444444443  0.1111111111111111  0.7714285714285715
  0.1111111111111111  0.1111111111111111  0.7714285714285715
  0.6666666666666666  0.6666666666666666  0.7428571428571429
  0.3333333333333333  0.6666666666666666  0.7428571428571429
  0.0000000000000000  0.6666666666666666  0.7428571428571429
  0.6666666666666666  0.3333333333333333  0.7428571428571429
  0.3333333333333333  0.3333333333333333  0.7428571428571429
  0.7777777777777778  0.1111111111111111  0.7714285714285715
  0.6666666666666666  0.0000000000000000  0.7428571428571429
  0.2222222222222222  0.5555555555555556  0.8000000000000000
  0.8888888888888887  0.5555555555555556  0.8000000000000000
  0.1111111111111111  0.4444444444444444  0.8571428571428572
  0.7777777777777778  0.1111111111111111  0.8571428571428572
  0.4444444444444443  0.1111111111111111  0.8571428571428572
  0.1111111111111111  0.1111111111111111  0.8571428571428572
  0.6666666666666666  0.6666666666666666  0.8285714285714286
  0.3333333333333333  0.6666666666666666  0.8285714285714286
  0.0000000000000000  0.6666666666666666  0.8285714285714286
  0.5555555555555555  0.5555555555555556  0.8000000000000000
  0.6666666666666666  0.3333333333333333  0.8285714285714286
  0.0000000000000000  0.3333333333333333  0.8285714285714286
  0.6666666666666666  0.0000000000000000  0.8285714285714286
  0.3333333333333333  0.0000000000000000  0.8285714285714286
  0.0000000000000000  0.0000000000000000  0.8285714285714286
  0.8888888888888888  0.8888888888888887  0.8000000000000000
  0.5555555555555556  0.8888888888888887  0.8000000000000000
  0.2222222222222223  0.8888888888888887  0.8000000000000000
  0.3333333333333333  0.3333333333333333  0.8285714285714286
  0.5555555555555556  0.8888888888888887  0.9714285714285715
  0.3333333333333333  0.3333333333333333  0.4857142857142858
  0.6666666666666666  0.0000000000000000  0.4857142857142858
  0.3333333333333333  0.0000000000000000  0.1714285714285714
  0.0000000000000000  0.0000000000000000  0.1714285714285714
  0.8888888888888888  0.8888888888888887  0.1428571428571429
  0.5555555555555556  0.8888888888888887  0.1428571428571429
  0.2222222222222223  0.8888888888888887  0.1428571428571429
  0.8888888888888887  0.5555555555555556  0.1428571428571429
  0.5555555555555555  0.5555555555555556  0.1428571428571429
  0.2222222222222222  0.5555555555555556  0.1428571428571429
  0.8888888888888886  0.2222222222222222  0.1428571428571429
  0.5555555555555556  0.2222222222222222  0.1428571428571429
  0.2222222222222222  0.2222222222222222  0.1428571428571429
  0.7777777777777778  0.7777777777777777  0.1142857142857143
  0.4444444444444444  0.7777777777777777  0.1142857142857143
  0.1111111111111111  0.7777777777777777  0.1142857142857143
  0.7777777777777778  0.4444444444444444  0.1142857142857143
  0.6666666666666666  0.0000000000000000  0.1714285714285714
  0.0000000000000000  0.3333333333333333  0.1714285714285714
  0.3333333333333333  0.3333333333333333  0.1714285714285714
  0.6666666666666666  0.3333333333333333  0.1714285714285714
  0.2222222222222222  0.5555555555555556  0.2285714285714286
  0.8888888888888886  0.2222222222222222  0.2285714285714286
  0.5555555555555556  0.2222222222222222  0.2285714285714286
  0.2222222222222222  0.2222222222222222  0.2285714285714286
  0.7777777777777778  0.7777777777777777  0.2000000000000000
  0.4444444444444444  0.7777777777777777  0.2000000000000000
  0.1111111111111111  0.7777777777777777  0.2000000000000000
  0.4444444444444444  0.4444444444444444  0.1142857142857143
  0.7777777777777778  0.4444444444444444  0.2000000000000000
  0.1111111111111111  0.4444444444444444  0.2000000000000000
  0.7777777777777778  0.1111111111111111  0.2000000000000000
  0.4444444444444443  0.1111111111111111  0.2000000000000000
  0.1111111111111111  0.1111111111111111  0.2000000000000000
  0.6666666666666666  0.6666666666666666  0.1714285714285714
  0.3333333333333333  0.6666666666666666  0.1714285714285714
  0.0000000000000000  0.6666666666666666  0.1714285714285714
  0.4444444444444444  0.4444444444444444  0.2000000000000000
  0.1111111111111111  0.4444444444444444  0.1142857142857143
  0.7777777777777778  0.1111111111111111  0.1142857142857143
  0.4444444444444443  0.1111111111111111  0.1142857142857143
  0.4444444444444444  0.7777777777777777  0.0285714285714286
  0.1111111111111111  0.7777777777777777  0.0285714285714286
  0.7777777777777778  0.4444444444444444  0.0285714285714286
  0.4444444444444444  0.4444444444444444  0.0285714285714286
  0.1111111111111111  0.4444444444444444  0.0285714285714286
  0.7777777777777778  0.1111111111111111  0.0285714285714286
  0.4444444444444443  0.1111111111111111  0.0285714285714286
  0.7777777777777778  0.7777777777777777  0.0285714285714286
  0.1111111111111111  0.1111111111111111  0.0285714285714286
  0.3333333333333333  0.6666666666666666  0.0000000000000000
  0.0000000000000000  0.6666666666666666  0.0000000000000000
  0.6666666666666666  0.3333333333333333  0.0000000000000000
  0.3333333333333333  0.3333333333333333  0.0000000000000000
  0.0000000000000000  0.3333333333333333  0.0000000000000000
  0.6666666666666666  0.0000000000000000  0.0000000000000000
  0.3333333333333333  0.0000000000000000  0.0000000000000000
  0.6666666666666666  0.6666666666666666  0.0000000000000000
  0.5555555555555555  0.5555555555555556  0.2285714285714286
  0.2222222222222222  0.2222222222222222  0.0571428571428571
  0.8888888888888886  0.2222222222222222  0.0571428571428571
  0.1111111111111111  0.1111111111111111  0.1142857142857143
  0.6666666666666666  0.6666666666666666  0.0857142857142857
  0.3333333333333333  0.6666666666666666  0.0857142857142857
  0.0000000000000000  0.6666666666666666  0.0857142857142857
  0.6666666666666666  0.3333333333333333  0.0857142857142857
  0.3333333333333333  0.3333333333333333  0.0857142857142857
  0.0000000000000000  0.3333333333333333  0.0857142857142857
  0.5555555555555556  0.2222222222222222  0.0571428571428571
  0.6666666666666666  0.0000000000000000  0.0857142857142857
  0.0000000000000000  0.0000000000000000  0.0857142857142857
  0.8888888888888888  0.8888888888888887  0.0571428571428571
  0.5555555555555556  0.8888888888888887  0.0571428571428571
  0.2222222222222223  0.8888888888888887  0.0571428571428571
  0.8888888888888887  0.5555555555555556  0.0571428571428571
  0.5555555555555555  0.5555555555555556  0.0571428571428571
  0.2222222222222222  0.5555555555555556  0.0571428571428571
  0.3333333333333333  0.0000000000000000  0.0857142857142857
  0.0000000000000000  0.3333333333333333  0.4857142857142858
  0.8888888888888887  0.5555555555555556  0.2285714285714286
  0.5555555555555556  0.8888888888888887  0.2285714285714286
  0.6666666666666666  0.6666666666666666  0.4000000000000000
  0.3333333333333333  0.6666666666666666  0.4000000000000000
  0.0000000000000000  0.6666666666666666  0.4000000000000000
  0.6666666666666666  0.3333333333333333  0.4000000000000000
  0.3333333333333333  0.3333333333333333  0.4000000000000000
  0.0000000000000000  0.3333333333333333  0.4000000000000000
  0.6666666666666666  0.0000000000000000  0.4000000000000000
  0.3333333333333333  0.0000000000000000  0.4000000000000000
  0.0000000000000000  0.0000000000000000  0.4000000000000000
  0.7777777777777778  0.7777777777777777  0.3714285714285714
  0.4444444444444444  0.7777777777777777  0.3714285714285714
  0.1111111111111111  0.7777777777777777  0.3714285714285714
  0.7777777777777778  0.4444444444444444  0.3714285714285714
  0.4444444444444444  0.4444444444444444  0.3714285714285714
  0.1111111111111111  0.4444444444444444  0.3714285714285714
  0.2222222222222222  0.2222222222222222  0.4285714285714286
  0.5555555555555556  0.2222222222222222  0.4285714285714286
  0.8888888888888886  0.2222222222222222  0.4285714285714286
  0.2222222222222222  0.5555555555555556  0.4285714285714286
  0.3333333333333333  0.0000000000000000  0.4857142857142858
  0.0000000000000000  0.0000000000000000  0.4857142857142858
  0.7777777777777778  0.7777777777777777  0.4571428571428572
  0.4444444444444444  0.7777777777777777  0.4571428571428572
  0.1111111111111111  0.7777777777777777  0.4571428571428572
  0.7777777777777778  0.4444444444444444  0.4571428571428572
  0.4444444444444444  0.4444444444444444  0.4571428571428572
  0.7777777777777778  0.1111111111111111  0.3714285714285714
  0.1111111111111111  0.4444444444444444  0.4571428571428572
  0.4444444444444443  0.1111111111111111  0.4571428571428572
  0.1111111111111111  0.1111111111111111  0.4571428571428572
  0.8888888888888888  0.8888888888888887  0.4285714285714286
  0.5555555555555556  0.8888888888888887  0.4285714285714286
  0.2222222222222223  0.8888888888888887  0.4285714285714286
  0.8888888888888887  0.5555555555555556  0.4285714285714286
  0.5555555555555555  0.5555555555555556  0.4285714285714286
  0.7777777777777778  0.1111111111111111  0.4571428571428572
  0.4444444444444443  0.1111111111111111  0.3714285714285714
  0.1111111111111111  0.1111111111111111  0.3714285714285714
  0.6666666666666666  0.6666666666666666  0.3428571428571429
  0.7777777777777778  0.4444444444444444  0.2857142857142858
  0.4444444444444444  0.4444444444444444  0.2857142857142858
  0.1111111111111111  0.4444444444444444  0.2857142857142858
  0.7777777777777778  0.1111111111111111  0.2857142857142858
  0.4444444444444443  0.1111111111111111  0.2857142857142858
  0.1111111111111111  0.1111111111111111  0.2857142857142858
  0.6666666666666666  0.6666666666666666  0.2571428571428572
  0.1111111111111111  0.7777777777777777  0.2857142857142858
  0.3333333333333333  0.6666666666666666  0.2571428571428572
  0.6666666666666666  0.3333333333333333  0.2571428571428572
  0.3333333333333333  0.3333333333333333  0.2571428571428572
  0.0000000000000000  0.3333333333333333  0.2571428571428572
  0.6666666666666666  0.0000000000000000  0.2571428571428572
  0.3333333333333333  0.0000000000000000  0.2571428571428572
  0.0000000000000000  0.0000000000000000  0.2571428571428572
  0.8888888888888888  0.8888888888888887  0.2285714285714286
  0.0000000000000000  0.6666666666666666  0.2571428571428572
  0.2222222222222223  0.8888888888888887  0.2285714285714286
  0.4444444444444444  0.7777777777777777  0.2857142857142858
  0.2222222222222222  0.2222222222222222  0.3142857142857143
  0.3333333333333333  0.6666666666666666  0.3428571428571429
  0.0000000000000000  0.6666666666666666  0.3428571428571429
  0.6666666666666666  0.3333333333333333  0.3428571428571429
  0.3333333333333333  0.3333333333333333  0.3428571428571429
  0.0000000000000000  0.3333333333333333  0.3428571428571429
  0.6666666666666666  0.0000000000000000  0.3428571428571429
  0.3333333333333333  0.0000000000000000  0.3428571428571429
  0.7777777777777778  0.7777777777777777  0.2857142857142858
  0.0000000000000000  0.0000000000000000  0.3428571428571429
  0.5555555555555556  0.8888888888888887  0.3142857142857143
  0.2222222222222223  0.8888888888888887  0.3142857142857143
  0.8888888888888887  0.5555555555555556  0.3142857142857143
  0.5555555555555555  0.5555555555555556  0.3142857142857143
  0.2222222222222222  0.5555555555555556  0.3142857142857143
  0.8888888888888886  0.2222222222222222  0.3142857142857143
  0.5555555555555556  0.2222222222222222  0.3142857142857143
  0.8888888888888888  0.8888888888888887  0.3142857142857143
  0.8888888888888888  0.8888888888888887  0.9714285714285715
