Generated generic
1.0
    7.66857304    0.00000000    0.00000000
    3.83428652    6.64117907    0.00000000
    0.00000000    0.00000000   25.04545468
 Cu
 108
Selective dynamics
Direct
    0.11274866    0.10863996    0.00029324 F F F
    0.44332468    0.11005340   -0.00022238 F F F
    0.77634481    0.11199366    0.00044299 F F F
    0.11451436    0.44252467   -0.00011489 F F F
    0.44531797    0.44674860   -0.00042389 F F F
    0.77828666    0.44603293   -0.00048389 F F F
    0.11229132    0.77831079   -0.00043966 F F F
    0.44331782    0.77529035   -0.00035995 F F F
    0.77886847    0.77976021    0.00044399 F F F
    0.88996539    0.22401572    0.08334405 F F F
    0.22380505    0.22399316    0.08360283 F F F
    0.55430903    0.22233275    0.08372976 F F F
    0.88676674    0.55488813    0.08382831 F F F
    0.22112083    0.55366107    0.08365502 F F F
    0.55421624    0.55525111    0.08399755 F F F
    0.89052330    0.88646743    0.08388628 F F F
    0.22161174    0.88772262    0.08254608 F F F
    0.55271087    0.89044585    0.08293219 F F F
    0.99949408    0.99936926    0.16599798 F F F
    0.33355883    0.00073991    0.16606897 F F F
    0.66537532    0.00263646    0.16684721 F F F
    0.00111078    0.33271213    0.16651407 F F F
    0.33365680    0.33094933    0.16665989 F F F
    0.66548313    0.33133781    0.16679047 F F F
    0.00058740    0.66885195    0.16682205 F F F
    0.33143704    0.66950932    0.16679222 F F F
    0.66749169    0.66932840    0.16709308 F F F
    0.11259750    0.10856742    0.24959763 F F F
    0.44428146    0.11225197    0.25025155 F F F
    0.77835781    0.10849282    0.25044691 F F F
    0.10945342    0.44259073    0.24939211 F F F
    0.44458009    0.44552810    0.25037547 F F F
    0.78081028    0.44240062    0.25047783 F F F
    0.11143940    0.77834635    0.24947363 F F F
    0.44443835    0.77627938    0.24987187 F F F
    0.77923316    0.77861944    0.24931761 F F F
    0.88578377    0.22367196    0.33347856 F F F
    0.22156986    0.22106549    0.33357704 F F F
    0.55579558    0.21999932    0.33330155 F F F
    0.88790526    0.55782139    0.33400206 F F F
    0.22005722    0.55704051    0.33259657 F F F
    0.55564810    0.55599266    0.33274835 F F F
    0.88667422    0.89170568    0.33380303 F F F
    0.21972502    0.89036745    0.33287145 F F F
    0.55706868    0.88685401    0.33337920 F F F
    0.00057851    0.99966912    0.41656524 F F F
    0.33014614    0.00155068    0.41653644 F F F
    0.66507795    0.99946519    0.41686207 F F F
    0.00077058    0.33297274    0.41691121 F F F
    0.33416702    0.33175814    0.41691566 F F F
    0.66783766    0.33143966    0.41638340 F F F
    0.99746641    0.66957570    0.41702966 F F F
    0.33429426    0.66460071    0.41702846 F F F
    0.66959553    0.66485924    0.41628206 F F F
    0.44235517    0.11189916    0.49966793 F F T
    0.77500183    0.11288482    0.50036675 F F T
    0.11247307    0.10985286    0.50031937 F F T
    0.44212890    0.44455152    0.50032224 F F T
    0.77675339    0.44221726    0.49970849 F F T
    0.10923597    0.44400942    0.49954564 F F T
    0.44604538    0.77943042    0.50007857 F F T
    0.77714615    0.77806001    0.50057946 F F T
    0.11116703    0.77746584    0.50071502 F F T
    0.22087459    0.22473769    0.58337761 F F T
    0.55466878    0.22376266    0.58368241 F F T
    0.89152001    0.22079943    0.58401806 F F T
    0.22355140    0.55629440    0.58353588 F F T
    0.55456699    0.55588375    0.58407752 F F T
    0.88801397    0.55630326    0.58352312 F F T
    0.22289973    0.88722350    0.58334884 F F T
    0.55696038    0.88614070    0.58382978 F F T
    0.88820051    0.88819520    0.58376906 F F T
    0.33584661    0.99890551    0.66726596 F F T
    0.66690874    0.99983134    0.66711495 F F T
    0.00193737    0.99887090    0.66702578 F F T
    0.33208834    0.33461019    0.66634543 F F T
    0.66583486    0.33352662    0.66611022 F F T
    0.00010426    0.33217830    0.66726908 F F T
    0.33194431    0.66733553    0.66603364 F F T
    0.66932514    0.66498966    0.66673417 F F T
    0.00148005    0.66367526    0.66591228 F F T
    0.44228341    0.11041380    0.75009983 F F T
    0.77663226    0.11160532    0.74997172 F F T
    0.11200750    0.11396931    0.75004520 F F T
    0.44623992    0.44401191    0.74981512 F F T
    0.77656430    0.44714840    0.75054940 F F T
    0.11201499    0.44247916    0.75031846 F F T
    0.44586183    0.77995015    0.75042847 F F T
    0.77893653    0.77957039    0.74930928 F F T
    0.10931976    0.77677486    0.75013114 F F T
    0.21962804    0.22250704    0.83327397 F F T
    0.55248505    0.22411182    0.83327691 F F T
    0.88626266    0.22420828    0.83255124 F F T
    0.22455430    0.55264829    0.83357903 F F T
    0.55870833    0.55355952    0.83360023 F F T
    0.88730546    0.55405057    0.83394453 F F T
    0.22408323    0.88764433    0.83409870 F F T
    0.55427687    0.89184910    0.83264698 F F T
    0.88591742    0.89117651    0.83360336 F F T
    0.32991283    0.00278364    0.91667483 F F T
    0.66454917    0.00208292    0.91666592 F F T
    0.99757870    0.00223139    0.91730998 F F T
    0.33604828    0.33247787    0.91587463 F F T
    0.66518654    0.33596610    0.91590914 F F T
    0.99995132    0.33108273    0.91665602 F F T
    0.33003163    0.66866666    0.91682599 F F T
    0.66533842    0.66868282    0.91731986 F F T
    0.99847343    0.66723995    0.91605402 F F T
