Generated generic
1.0
    7.66857304    0.00000000    0.00000000
    3.83428652    6.64117907    0.00000000
    0.00000000    0.00000000   25.04545468
 Cu
 108
Selective dynamics
Direct
    0.11016492    0.11099931   -0.00027016 F F F
    0.44301968    0.11085876    0.00020747 F F F
    0.77746341    0.11206322   -0.00073489 F F F
    0.10873958    0.44666863   -0.00005892 F F F
    0.44561520    0.44714343   -0.00010948 F F F
    0.77810063    0.44207061    0.00023378 F F F
    0.11258321    0.77696925    0.00078834 F F F
    0.44176938    0.77961280    0.00076894 F F F
    0.77886337    0.77729129    0.00054335 F F F
    0.88733197    0.22284656    0.08300411 F F F
    0.22009133    0.22311964    0.08407751 F F F
    0.55427333    0.22099705    0.08377710 F F F
    0.88616479    0.55789632    0.08317196 F F F
    0.22585526    0.55257742    0.08289611 F F F
    0.55610551    0.55842745    0.08304089 F F F
    0.88953665    0.89171363    0.08266367 F F F
    0.22110687    0.88829744    0.08340085 F F F
    0.55232898    0.89155412    0.08263102 F F F
    0.00336648    0.99820571    0.16705133 F F F
    0.33151845    0.99949842    0.16661186 F F F
    0.66670973    0.00186906    0.16591236 F F F
    0.99891814    0.33542326    0.16728995 F F F
    0.33630013    0.33237922    0.16643601 F F F
    0.66428871    0.33366662    0.16706143 F F F
    0.00105650    0.66869526    0.16599625 F F F
    0.33145196    0.66827791    0.16661037 F F F
    0.66428128    0.66745841    0.16695533 F F F
    0.11118165    0.10954016    0.24975740 F F F
    0.44540727    0.11274980    0.24944596 F F F
    0.77580079    0.11231686    0.25023021 F F F
    0.10952724    0.44530368    0.25027374 F F F
    0.44527683    0.44384889    0.25052889 F F F
    0.77819459    0.44346271    0.25043760 F F F
    0.11486735    0.77534463    0.24998570 F F F
    0.44667386    0.77489054    0.24927108 F F F
    0.77856471    0.77596467    0.25051995 F F F
    0.88768449    0.22092260    0.33386503 F F F
    0.22511401    0.22149208    0.33286474 F F F
    0.55485398    0.22455877    0.33304224 F F F
    0.88717761    0.55528168    0.33327651 F F F
    0.22356250    0.55349118    0.33359141 F F F
    0.55331917    0.55704798    0.33262781 F F F
    0.89090504    0.88790429    0.33377647 F F F
    0.22294897    0.89024465    0.33341403 F F F
    0.55294640    0.88954939    0.33339923 F F F
    0.99972424    0.99920460    0.41716215 F F F
    0.33189691    0.00060481    0.41601659 F F F
    0.66541616    0.00021200    0.41670469 F F F
    0.99960406    0.33373459    0.41662494 F F F
    0.33269994    0.33329190    0.41703087 F F F
    0.66933897    0.33243569    0.41677730 F F F
    0.00133102    0.66513754    0.41626207 F F F
    0.33731379    0.66365828    0.41633747 F F F
    0.66673600    0.66427960    0.41606400 F F F
    0.24560295    0.31037075    0.49991823 F F T
    0.57538984    0.31185260    0.50068278 F F T
    0.91095125    0.30832414    0.49969125 F F T
    0.24375338    0.64353503    0.50002327 F F T
    0.57885145    0.64620708    0.49942313 F F T
    0.91244593    0.64497227    0.49974919 F F T
    0.24470319    0.98072273    0.50022385 F F T
    0.57764067    0.97776204    0.50019561 F F T
    0.90931912    0.97723013    0.49979473 F F T
    0.01932374    0.42384605    0.58375618 F F T
    0.35932222    0.41955965    0.58341984 F F T
    0.68717859    0.42191511    0.58326818 F F T
    0.02548221    0.75397031    0.58389214 F F T
    0.35497767    0.75667175    0.58382749 F F T
    0.68816102    0.75571707    0.58307972 F F T
    0.01999900    0.09042035    0.58270932 F F T
    0.35361616    0.08834306    0.58334579 F F T
    0.68812638    0.08844748    0.58299671 F F T
    0.13381179    0.19974484    0.66620811 F F T
    0.46273455    0.20297321    0.66739885 F F T
    0.80125214    0.19916481    0.66648894 F F T
    0.13167342    0.53209820    0.66677649 F F T
    0.46402294    0.53515838    0.66593326 F F T
    0.80065104    0.53600263    0.66715594 F F T
    0.13258036    0.86427716    0.66679623 F F T
    0.46825251    0.86505405    0.66614550 F F T
    0.80324243    0.86522410    0.66620947 F F T
    0.24382202    0.31376926    0.74971985 F F T
    0.57879655    0.31176565    0.75049824 F F T
    0.91424968    0.30946781    0.74936231 F F T
    0.24802684    0.64226166    0.75066648 F F T
    0.57968036    0.64373565    0.75033731 F F T
    0.91240384    0.64356051    0.75065655 F F T
    0.24375911    0.97932292    0.74980203 F F T
    0.57716329    0.97651944    0.75077374 F F T
    0.91097216    0.97750868    0.75041516 F F T
    0.02037488    0.42375177    0.83267007 F F T
    0.35643811    0.42192618    0.83368904 F F T
    0.68689547    0.42454379    0.83280459 F F T
    0.02172133    0.75672789    0.83363467 F F T
    0.35566659    0.75713476    0.83325365 F F T
    0.68742081    0.75751666    0.83297160 F F T
    0.02476010    0.08777721    0.83394099 F F T
    0.35413209    0.08769283    0.83358996 F F T
    0.68797629    0.08965086    0.83329657 F F T
    0.13119658    0.20235239    0.91605486 F F T
    0.46649445    0.20034845    0.91667763 F F T
    0.80128734    0.20004792    0.91610380 F F T
    0.13561360    0.53217305    0.91668687 F F T
    0.46818881    0.53450567    0.91705740 F F T
    0.80028814    0.53605665    0.91684539 F F T
    0.13378388    0.86905742    0.91683142 F F T
    0.46684754    0.86573585    0.91639163 F F T
    0.79834516    0.86625467    0.91713896 F F T
