Generated generic
1.0
    7.66857304    0.00000000    0.00000000
    3.83428652    6.64117907    0.00000000
    0.00000000    0.00000000   25.04545468
 Cu
 108
Selective dynamics
Direct
    0.11318431    0.11023981    0.00040972 F F F
    0.44494041    0.11352203    0.00013320 F F F
    0.77788494    0.11017083    0.00074262 F F F
    0.11025788    0.44679526   -0.00079523 F F F
    0.44809217    0.44162696    0.00015342 F F F
    0.78007111    0.44216399   -0.00023746 F F F
    0.11130915    0.77574166   -0.00016986 F F F
    0.44382513    0.77864437    0.00056454 F F F
    0.77921370    0.77852299   -0.00019487 F F F
    0.88790097    0.22310135    0.08373212 F F F
    0.22313669    0.22423942    0.08360168 F F F
    0.55373227    0.22185297    0.08302255 F F F
    0.89159006    0.55404000    0.08342849 F F F
    0.21933336    0.55682964    0.08340683 F F F
    0.55569249    0.55304217    0.08315254 F F F
    0.88831370    0.88611527    0.08322822 F F F
    0.21960524    0.88999776    0.08340234 F F F
    0.55556190    0.88955802    0.08412727 F F F
    0.99974234    0.99924155    0.16628003 F F F
    0.33373834    0.00020974    0.16697465 F F F
    0.66432235    0.00271251    0.16691736 F F F
    0.00081929    0.33473664    0.16685069 F F F
    0.33320965    0.33139621    0.16666782 F F F
    0.66774456    0.33505765    0.16650279 F F F
    0.00282917    0.66459838    0.16617466 F F F
    0.33399383    0.66383135    0.16681425 F F F
    0.66813825    0.66585225    0.16741702 F F F
    0.11162159    0.11269354    0.24977936 F F F
    0.44730995    0.11051108    0.25034324 F F F
    0.77614950    0.11174727    0.24975908 F F F
    0.10887532    0.44483918    0.24927715 F F F
    0.44287746    0.44701487    0.24980970 F F F
    0.77889000    0.44529761    0.25038617 F F F
    0.11100823    0.77950661    0.25026089 F F F
    0.44533740    0.78053834    0.25015635 F F F
    0.77936556    0.77788789    0.25004422 F F F
    0.89227152    0.21989512    0.33296109 F F F
    0.22219660    0.22035587    0.33408907 F F F
    0.55769461    0.21951001    0.33356194 F F F
    0.89217671    0.55313577    0.33313010 F F F
    0.22390200    0.55523971    0.33322829 F F F
    0.55611549    0.55818394    0.33305544 F F F
    0.88843086    0.88779009    0.33295530 F F F
    0.22105618    0.89041270    0.33399835 F F F
    0.55727680    0.88969516    0.33314614 F F F
    0.00114117    0.00115121    0.41681461 F F F
    0.33358371    0.00257245    0.41670927 F F F
    0.66687136    0.00014085    0.41689191 F F F
    0.00392184    0.33049308    0.41652693 F F F
    0.33592774    0.33068122    0.41662660 F F F
    0.66720834    0.33482845    0.41726479 F F F
    0.00330238    0.66455827    0.41662736 F F F
    0.33384201    0.66816453    0.41725855 F F F
    0.66419166    0.66833816    0.41696671 F F F
    0.37652853    0.10945477    0.50041725 F F T
    0.70913903    0.11258458    0.50051368 F F T
    0.04678326    0.10882663    0.50001093 F F T
    0.37735692    0.44607661    0.50020334 F F T
    0.71303295    0.44370156    0.50067583 F F T
    0.04247761    0.44375743    0.50058832 F F T
    0.37588673    0.77650389    0.50077502 F F T
    0.70831125    0.78008635    0.50046050 F F T
    0.04625436    0.77630107    0.49997514 F F T
    0.15683920    0.22238308    0.58309360 F F T
    0.48705789    0.22133215    0.58295643 F F T
    0.82414543    0.21938980    0.58323063 F F T
    0.15866271    0.55398057    0.58306474 F F T
    0.49015750    0.55549422    0.58314808 F F T
    0.81977945    0.55765126    0.58380438 F F T
    0.15736943    0.88698678    0.58276945 F F T
    0.49056552    0.88819601    0.58336772 F F T
    0.82359973    0.88613902    0.58319245 F F T
    0.26534067    0.00226006    0.66613765 F F T
    0.60340236    0.99837756    0.66643637 F F T
    0.93289601    0.00067807    0.66600256 F F T
    0.26562367    0.33519769    0.66674478 F F T
    0.59988588    0.33522586    0.66711523 F F T
    0.93296295    0.33090422    0.66650991 F F T
    0.26876196    0.66383725    0.66712648 F F T
    0.59756809    0.66847392    0.66711338 F F T
    0.93287926    0.66945303    0.66643495 F F T
    0.38040451    0.10905825    0.74998052 F F T
    0.71187363    0.11037669    0.75026528 F F T
    0.04601200    0.11067484    0.75044455 F F T
    0.37783684    0.44656433    0.75056435 F F T
    0.71024919    0.44687417    0.75033376 F F T
    0.04464447    0.44688412    0.74936050 F F T
    0.37704765    0.77639712    0.75024412 F F T
    0.71304734    0.77783567    0.75079523 F F T
    0.04144320    0.77957103    0.75063016 F F T
    0.15663997    0.22513644    0.83314757 F F T
    0.48641342    0.22406811    0.83361326 F F T
    0.82062797    0.22267684    0.83290370 F F T
    0.15546323    0.55312788    0.83402992 F F T
    0.49106921    0.55319435    0.83261991 F F T
    0.81921436    0.55773196    0.83327102 F F T
    0.15879866    0.88668052    0.83349464 F F T
    0.49136725    0.88641613    0.83392337 F F T
    0.82035920    0.89104274    0.83297259 F F T
    0.26881772    0.99789590    0.91632503 F F T
    0.59882245    0.00045725    0.91651459 F F T
    0.93124548    0.00192334    0.91718227 F F T
    0.26897893    0.33223868    0.91632656 F F T
    0.59992459    0.33419493    0.91706262 F F T
    0.93125270    0.33462330    0.91636004 F F T
    0.27010242    0.66419417    0.91651060 F F T
    0.59743670    0.66660731    0.91708054 F F T
    0.93481121    0.66882343    0.91698878 F F T
