Generated generic
1.0
    7.66857304    0.00000000    0.00000000
    3.83428652    6.64117907    0.00000000
    0.00000000    0.00000000   25.04545468
 Cu
 108
Selective dynamics
Direct
    0.11103195    0.11205326   -0.00075537 F F F
    0.44403545    0.11199751   -0.00036885 F F F
    0.78045548    0.11056973    0.00005632 F F F
    0.11001500    0.44206766    0.00006898 F F F
    0.44237744    0.44590391   -0.00079495 F F F
    0.77748593    0.44364324   -0.00069681 F F F
    0.10827971    0.77945110   -0.00001163 F F F
    0.44212095    0.77999437    0.00031202 F F F
    0.77828142    0.77751122   -0.00031778 F F F
    0.88990442    0.22012136    0.08344677 F F F
    0.22327442    0.22120936    0.08317151 F F F
    0.55378065    0.22318255    0.08279289 F F F
    0.88835476    0.55306508    0.08378217 F F F
    0.22262025    0.55831701    0.08401059 F F F
    0.55445454    0.55516505    0.08337007 F F F
    0.88820602    0.89043985    0.08371402 F F F
    0.21861762    0.89126575    0.08325600 F F F
    0.55792557    0.88837869    0.08294900 F F F
    0.00151799    0.99909078    0.16666132 F F F
    0.33464934    0.00069361    0.16621227 F F F
    0.66443772    0.00028674    0.16642779 F F F
    0.99968663    0.33409473    0.16639833 F F F
    0.33004707    0.33511236    0.16605505 F F F
    0.66528535    0.33458070    0.16596218 F F F
    0.99849496    0.66912310    0.16709671 F F F
    0.33453187    0.66386692    0.16723995 F F F
    0.66716978    0.66794818    0.16705572 F F F
    0.10957216    0.11151991    0.25022970 F F F
    0.44636609    0.10896161    0.25021542 F F F
    0.77653181    0.10848759    0.25071300 F F F
    0.10811316    0.44719810    0.24984295 F F F
    0.44460743    0.44543802    0.25011402 F F F
    0.78071980    0.44318525    0.25029429 F F F
    0.11334117    0.77637317    0.25034571 F F F
    0.44403243    0.77726148    0.25049864 F F F
    0.77891324    0.77529325    0.25012415 F F F
    0.88999529    0.22271322    0.33386590 F F F
    0.22397678    0.22140221    0.33394644 F F F
    0.55522098    0.22017976    0.33318848 F F F
    0.88938832    0.55693670    0.33332517 F F F
    0.22329238    0.55605325    0.33297231 F F F
    0.55727447    0.55538574    0.33366865 F F F
    0.88766749    0.88661715    0.33254365 F F F
    0.21916551    0.89000329    0.33317618 F F F
    0.55369647    0.88791370    0.33317834 F F F
    0.99991129    0.00194725    0.41600571 F F F
    0.33289137    0.00183821    0.41588207 F F F
    0.66680930    0.00187748    0.41590661 F F F
    0.00074290    0.33367102    0.41744024 F F F
    0.33408619    0.33310669    0.41634873 F F F
    0.66465954    0.33440784    0.41626449 F F F
    0.99996193    0.66868548    0.41721858 F F F
    0.33093426    0.66666716    0.41680193 F F F
    0.67052421    0.66383820    0.41679488 F F F
    0.10981305    0.11130187    0.49975835 F F T
    0.44554095    0.11143720    0.49954410 F F T
    0.77791735    0.10865819    0.49971353 F F T
    0.11254513    0.44354933    0.49990737 F F T
    0.44769091    0.44178546    0.49945734 F F T
    0.77829521    0.44267168    0.50061430 F F T
    0.11008233    0.77617264    0.50050798 F F T
    0.44271423    0.77627620    0.49973091 F F T
    0.77891899    0.77945893    0.50015320 F F T
    0.89037347    0.22114752    0.58261361 F F T
    0.22178558    0.22298600    0.58274293 F F T
    0.55635245    0.22050600    0.58362173 F F T
    0.89044026    0.55541787    0.58404532 F F T
    0.22298454    0.55673232    0.58333121 F F T
    0.55496438    0.55458918    0.58348043 F F T
    0.89007166    0.88923217    0.58286515 F F T
    0.22073713    0.88785374    0.58383606 F F T
    0.55601869    0.89081939    0.58310166 F F T
    0.99771906    0.00142079    0.66603527 F F T
    0.33644354    0.99893237    0.66612405 F F T
    0.66516935    0.99962064    0.66673618 F F T
    0.99716800    0.33586848    0.66697843 F F T
    0.32986864    0.33540162    0.66681489 F F T
    0.66408061    0.33612847    0.66654614 F F T
    0.99758389    0.66795306    0.66601243 F F T
    0.33293564    0.66946440    0.66662997 F F T
    0.66526617    0.66577222    0.66690305 F F T
    0.11303747    0.11127380    0.74920412 F F T
    0.44474682    0.11232111    0.74972775 F F T
    0.77816707    0.11400428    0.74997043 F F T
    0.11164502    0.44509067    0.75004754 F F T
    0.44212756    0.44503206    0.75071514 F F T
    0.77783972    0.44456146    0.75034580 F F T
    0.11290024    0.77749675    0.75066831 F F T
    0.44065544    0.78056300    0.75013306 F F T
    0.77764289    0.77786977    0.74983607 F F T
    0.88979814    0.22482667    0.83398963 F F T
    0.22042263    0.22294829    0.83350160 F F T
    0.55425220    0.22511762    0.83349101 F F T
    0.88654342    0.55830943    0.83312393 F F T
    0.21855018    0.55822863    0.83290866 F F T
    0.55479186    0.55659421    0.83348903 F F T
    0.88659722    0.88856992    0.83320006 F F T
    0.22029151    0.88847424    0.83302738 F F T
    0.55645244    0.88736864    0.83310126 F F T
    0.99856322    0.99937941    0.91675052 F F T
    0.33216777    0.00052883    0.91635759 F F T
    0.66895250    0.00009955    0.91715121 F F T
    0.00237296    0.33332555    0.91712427 F F T
    0.33439526    0.33333865    0.91679173 F F T
    0.66648398    0.33128516    0.91736876 F F T
    0.99852404    0.66669129    0.91590573 F F T
    0.33204915    0.66430988    0.91713560 F F T
    0.66767324    0.66889633    0.91704794 F F T
