Cu
 1.0000000000000000
     7.6685730419681093    0.0000000000000000    0.0000000000000000
     0.0000000000000000    8.8549054201611881    0.0000000000000000
     0.0000000000000000    0.0000000000000000   25.0454546774459672
 Cu 
 144
Direct
  0.1684139624343081  0.0837694939579202 -0.0003372057102224
  0.8142963275625429  0.6650451983427421  0.5832523848994028
  0.3171078279052989  0.9171758716596806  0.5830509416946521
  0.6483348659967360  0.9147146092290165  0.5839244222293983
  0.9839440480166353  0.9160283437895046  0.5838046163922146
  0.1515530823948260 -0.0000612770206901  0.6671136818028981
  0.4850723530427434 -0.0003858584869478  0.6659012961113944
  0.4819356282371890  0.6687118284997772  0.5839577513634480
  0.8177548651476397 -0.0010359971993857  0.6662004390047692
  0.6515630862192200  0.2497447179537336  0.6663513443018608
  0.9845139947598586  0.2521853446875535  0.6664352775870430
  0.1507132315557906  0.4992044433571154  0.6666845177836993
  0.4830473287139551  0.5011562957340305  0.6662668235769031
  0.8168556451600703  0.4977853504803663  0.6671521481714735
  0.3159301450374570  0.7497182576764825  0.6662984050072509
  0.3150807530380448  0.2503546685008261  0.6658853822828509
  0.6482862208439152  0.7487610724334804  0.6665746624119251
  0.1516759281209114  0.6669411178461341  0.5832761530422895
  0.6497826643876012  0.4171723632093788  0.5840848405545980
  0.9838002733359944  0.0834392009658013  0.4997554021346796
  0.1482236049404828  0.3339890542891750  0.4998406262447370
  0.4847638448491738  0.3317951679132259  0.4998520225067868
  0.8173126581809328  0.3330564711353144  0.4992473709830100
  0.3168736282426669  0.5814775759592525  0.4992287487721493
  0.6485332668062480  0.5818994562926249  0.5003692116546992
  0.9829517482109035  0.4149671715881736  0.5837066649964107
  0.9843737724515588  0.5846467321503734  0.5004708535315759
  0.4840795789527884  0.8339987831539684  0.4994713951362509
  0.8186218707697165  0.8343741103177806  0.5001773855619652
  0.1488954721424923  0.1655719889357242  0.5836332999537781
  0.4849652609695091  0.1680092310238757  0.5825629865814673
  0.8187225859344319  0.1667471351350421  0.5828816699559392
  0.3178517975009492  0.4178921688559919  0.5840164028982113
  0.1523587475958056  0.8331068021733460  0.5005892442069475
  0.6486640521156249  0.0846408030704204  0.5004400908711959
  0.9853445242989011  0.7507263713537773  0.6664795775904864
  0.6517000683127000  0.0816578242414445  0.7493767184809977
  0.8171151532070466  0.6688677043811215  0.8327213170898570
  0.3174571357726856  0.9177053792830699  0.8335449565570761
  0.6517163232236332  0.9168556105210096  0.8331270082662819
  0.9819533296242270  0.9175198576898627  0.8331259341976907
  0.1517419078566075  0.0003653078081561  0.9162324797770280
  0.4833262795139267 -0.0020019702024527  0.9159926636896577
  0.4831906050544949  0.6658231574705978  0.8326069628852333
  0.8165441294935607  0.0004008395309698  0.9174308380026786
  0.6493167826624584  0.2483796015382928  0.9160581315222105
  0.9819309431325812  0.2484509289580265  0.9168321756146682
  0.1497398936726378  0.5018798703003324  0.9172788775865154
  0.4846507380829958  0.5011082913128750  0.9165946694284063
  0.8169785723082442  0.5004639364359165  0.9173582439179176
  0.3154058010952658  0.7504469982099272  0.9173987772181490
  0.3141713230438499  0.2491597320853478  0.9162421945559639
  0.3148335516142085  0.0842231257449111  0.7504357508964536
  0.1519065797350903  0.6655639638809052  0.8337652889157662
  0.6511733083045551  0.4185206063890846  0.8340615507041461
  0.9838292276513994  0.0850692521842319  0.7503409473130432
  0.1524828793067099  0.3354167165783103  0.7504491938210042
  0.4814254378316506  0.3328658248805802  0.7503049455632640
  0.8179919230587311  0.3342354909490697  0.7505963551893303
  0.3185811076123931  0.5844364227531735  0.7498356362814284
  0.6482762502254826  0.5830028821583159  0.7495173616864228
  0.9855445394328127  0.4159572950581353  0.8334244761073251
  0.9832827991719119  0.5822365569568801  0.7494395227810405
  0.4851556022204206  0.8337329475341114  0.7500379556573098
  0.8180712661202209  0.8317810109228496  0.7497541658977930
  0.1517713342651635  0.1680510674360558  0.8326726326595644
  0.4854884530247553  0.1655984557738052  0.8334422615887281
  0.8151907153673353  0.1647511584078626  0.8339264969191885
  0.3177988068703280  0.4146851089482654  0.8337581683465753
  0.1521777724946226  0.8334335514288298  0.7504519787429257
  0.3152317460518188  0.0854260153061051  0.4993339133880652
  0.8343117378955075  0.7509074452694361  0.4166828254145669
  0.5008431094070546  0.7480183669897322  0.4161534187088409
  0.3310905205337204  0.6658755342834716  0.0827054437060311
  0.6679604077179342  0.6666737768831552  0.0832795241343259
  0.1644430111032246  0.9164051003913481  0.0828917539310293
  0.4989723028140420  0.9161894080773341  0.0836633423531824
  0.8348270304647586  0.9160199566322242  0.0836050470692722
  0.0000533247575841  0.0007731093788530  0.1663956906659043
  0.0004224420083610  0.6652434961641481  0.0836681148969325
  0.3354115273272530  0.0007353754902700  0.1661744373860710
  0.1663418686301793  0.2489985785067355  0.1668519682867646
  0.5011991870614221  0.2500326831112778  0.1661629550574133
  0.8339295023845552  0.2511760806273002  0.1673294846726411
  0.0025790917238639  0.4994049817849786  0.1671547314498861
  0.3343219715076802  0.5021363817653880  0.1666806698042581
  0.6685478067750343  0.5000182783617919  0.1663284859403023
  0.6670587006200711  0.0011266201909521  0.1671137343393884
  0.1690680657848478  0.7490246043879938  0.1663642696543368
  0.8315018266641162  0.4169379225443288  0.0834342179387704
  0.1660653678771160  0.4148429200630394  0.0840612987539248
  0.4976159923010213  0.0854729581972095  0.0001540745900717
  0.8348473733657104  0.0851869471748146  0.0003005007495610
 -0.0016170337032232  0.3355083039638768 -0.0003437908438950
  0.3340076343749565  0.3336993970005786  0.0001595695097877
  0.6668505241075163  0.3355728924508807  0.0000031080844361
  0.1680803459778984  0.5833069605101594  0.0007948340320934
  0.5004671906151309  0.4170378186487835  0.0834884836762336
  0.5024965370675882  0.5828525514390809 -0.0002844024826080
 -0.0004771795109264  0.8328353726568801 -0.0005882929404168
  0.3339879400616868  0.8314469275062963 -0.0003600286186914
  0.6674809877992594  0.8311409938483306  0.0005342800540716
 -0.0022304067242309  0.1667756269419325  0.0834076789838794
  0.3319106277745608  0.1687264434556575  0.0830793373069515
  0.6666912211212256  0.1683262376913966  0.0835840022899513
  0.8352225017569089  0.5846854647505134  0.0003057331323075
  0.4977037788972705  0.7477434260360609  0.1664136214415439
  0.8321372533535275  0.7510233150002406  0.1658915155367577
  0.1687091459001448  0.0847631302420549  0.2506542490162743
  0.6645391863731561  0.6682239686339206  0.3338118769235511
  0.1691650551495094  0.9156541337059487  0.3325769502152816
  0.5000890939945815  0.9186243407001023  0.3340468765850627
  0.8325714574271703  0.9161775761935858  0.3340707669423623
  0.0016644505930431  0.0019816565212460  0.4171594819926485
  0.3333861982021765 -0.0016344861357939  0.4167032367627885
  0.3337144062117449  0.6647863813219191  0.3339166422799341
  0.6645286300401749  0.0012797080650273  0.4169998129668979
  0.4996698542053359  0.2497544503131653  0.4168467289119392
  0.8339104206124868  0.2487252157442513  0.4170437018829476
 -0.0016512132448926  0.5013351431405894  0.4163261398809653
  0.3333194841458187  0.5008671630487886  0.4165835098762038
  0.6666135876763358  0.4981362348353644  0.4171047432824733
  0.1663794179818904  0.7502355828065047  0.4161902811399981
  0.1670917325269969  0.2493542286616738  0.4170277967684815
 -0.0009032833497913  0.6652601478153571  0.3337259276917642
  0.8353749930192719  0.4185624842112734  0.3336698701421137
  0.5003036069878976  0.4188361808587925  0.3338953631173669
  0.5013951690391635  0.0840448156805087  0.2504213049761348
  0.8353141051741275  0.0849316993467783  0.2496334344425409
  0.0023593537688226  0.3355587489647867  0.2503093050672194
  0.3339233197956494  0.3338457463254313  0.2502968396831011
  0.6687862269191329  0.3324719453564467  0.2498413071203793
  0.1657060595593660  0.5843358423290383  0.2492558503839666
  0.4994970867922907  0.5829021120904866  0.2498297905460684
  0.8336908304924169  0.5821833718637774  0.2506258210069114
 -0.0006356028786094  0.8354008783232147  0.2506873963051743
  0.3325388538160144  0.8327406075767810  0.2501911032153470
  0.6661289237160142  0.8315616142220487  0.2496518542734209
 -0.0016381674269196  0.1663104326377993  0.3339566812464069
  0.3331666333225928  0.1646160479405095  0.3337609837159675
  0.6685495802671870  0.1683985953517637  0.3332031518521266
  0.1655989952957617  0.4187989130318294  0.3331417178331902
  0.6509395087639053  0.7504827137352690  0.9163174168067708
  0.9829402592717064  0.7500368435076536  0.9160547132308853
