Cu
 1.0000000000000000
     7.6685730419681093    0.0000000000000000    0.0000000000000000
     0.0000000000000000    8.8549054201611881    0.0000000000000000
     0.0000000000000000    0.0000000000000000   25.0454546774459672
 Cu 
 144
Direct
  0.1659359071681303  0.0838169876403058  0.0002256778671222
  0.6689288123134191  0.8562568182802714  0.5831124175170170
  0.1688081548676743  0.1027281300670414  0.5839071352515924
  0.5013662835537179  0.1043689188853144  0.5839665163346381
  0.8347205078178574  0.1055198208679879  0.5826021796387799
 -0.0024318537430222  0.1887095452098514  0.6663082848805563
  0.3336897106892968  0.1858261430009784  0.6668251326984637
  0.3326245409306781  0.8528973953481801  0.5836136102793517
  0.6689720634276100  0.1853383928184305  0.6665362606167454
  0.4998494200029861  0.4354914488631620  0.6668909921404111
  0.8346611277854589  0.4356746381792289  0.6669349672194114
  0.0018077105235965  0.6889740340634012  0.6666428437849103
  0.3358430724762962  0.6883263906778907  0.6667645266582128
  0.6647880657424698  0.6894265906727893  0.6671201611442085
  0.1684530122436704  0.9386528679341541  0.6668699834066799
  0.1679240950798310  0.4357224710308941  0.6662089020268847
  0.5007186643601333  0.9382398862420164  0.6666709759523507
  0.0000602023246582  0.8533341987534206  0.5831183217074057
  0.5025522058442434  0.6033804438193018  0.5833141971083725
  0.8332495033982549  0.2707133631102429  0.4993349492579199
  0.0008592637672538  0.5195960887422045  0.4994909052175200
  0.3307992223555579  0.5186829881036028  0.4994088285913036
  0.6660884508402992  0.5227672501450426  0.4997844956525029
  0.1644283379591703  0.7722361517696265  0.5006966220678440
  0.4999478551101452  0.7721249377409177  0.5001353467700925
  0.8348206277376451  0.6060367118098948  0.5837206478898874
  0.8353635324532769  0.7706467901578863  0.4999315657606061
  0.3348051815977117  0.0194877369239511  0.4992920239476171
  0.6659035925093036  0.0200101845899141  0.4993178716751493
 -0.0018422078696894  0.3536245632538817  0.5838733329942271
  0.3343184464293364  0.3556167804429524  0.5828839171025347
  0.6668655048050713  0.3520810773526580  0.5825504365017071
  0.1661534914022158  0.6049788900736447  0.5831390521768529
 -0.0019534198822429  0.0219129957354700  0.4996401594229263
  0.5022739377261758  0.2729014398927774  0.5005644766932094
  0.8320766621244879  0.9372208535236529  0.6664398581840554
  0.4995858591531736  0.2700727969067224  0.7502063132275812
  0.6677475728285305  0.8544466767822629  0.8334781938574173
  0.1669774779305962  0.1060323058091082  0.8339735624273971
  0.5016122425015614  0.1057541373415626  0.8338216537191531
  0.8352937998001326  0.1033081459532324  0.8328627528852196
  0.0002235670413122  0.1884866455300764  0.9171044199835333
  0.3358866991201356  0.1883648186423516  0.9168988393670701
  0.3334706692237376  0.8549384451712810  0.8340983465953818
  0.6663075402425997  0.1882761811949501  0.9173857628602757
  0.4979106446350079  0.4353453899656516  0.9167361143651187
  0.8307372381528060  0.4394636472793401  0.9168655150889463
  0.0009357450385847  0.6886918639084385  0.9158752068138372
  0.3350084228747713  0.6875912982047850  0.9170098384862594
  0.6677524591208762  0.6877521169864067  0.9167862716381133
  0.1679287006242750  0.9391982187554818  0.9160503049819032
  0.1663341578861689  0.4361372858577109  0.9172647563528162
  0.1661764237420300  0.2710370863855729  0.7495732785101870
  0.0006736488335688  0.8550430945644665  0.8339485801615601
  0.5004014399617076  0.6041970553895392  0.8335031056322831
  0.8330032108625605  0.2724378219517380  0.7505169373135764
 -0.0020443830784846  0.5199043980825445  0.7497803749714840
  0.3354083100417752  0.5192584376703117  0.7502223447793687
  0.6684353385993284  0.5221049749190054  0.7503536078107361
  0.1682330006742540  0.7698204608580533  0.7507426166307369
  0.4982104301667155  0.7707671521619418  0.7505697301302939
  0.8307587717203634  0.6028215345025552  0.8337214638139042
  0.8311202583390312  0.7690119179250653  0.7495723185981531
  0.3331717122429858  0.0209796522732465  0.7498683443146105
  0.6672489214955259  0.0206290275288366  0.7507588281746188
  0.0019315963665270  0.3523100302179153  0.8333339050483194
  0.3349607179633541  0.3555304614299136  0.8326275830034245
  0.6661249681220515  0.3523030445744030  0.8332217376828990
  0.1669896220397562  0.6048833135173343  0.8335228641253765
  0.0011105189767898  0.0193101031171992  0.7503934167436271
  0.1686038224737142  0.2724494097195954  0.4997578140546545
  0.8320701752849392  0.7514787953879158  0.4171410124269779
  0.5005150279627785  0.7509505131162978  0.4166038507315285
  0.3313571524842635  0.6687008062678003  0.0836130618126483
  0.6690517763212893  0.6669356106361117  0.0830472913361562
  0.1661174723443603  0.9184698228859652  0.0827484892700240
  0.5025037955193923  0.9175155337528044  0.0826346751138749
  0.8327350705491878  0.9171180392602132  0.0825838600808279
 -0.0004454232154167  0.0010488467832782  0.1669053057009428
 -0.0018162616185644  0.6667145619841628  0.0833371104907293
  0.3359072450829983 -0.0012201390568551  0.1671040945477393
  0.1663312941348738  0.2505904305478900  0.1670006347198632
  0.4997572635479122  0.2508374242578589  0.1664558093299123
  0.8330421264742882  0.2513929418515912  0.1666115285220562
 -0.0002661476603387  0.4997289940018590  0.1666406845381954
  0.3328113134863058  0.5018573888712524  0.1672871364477561
  0.6653888791042341  0.4990974660482534  0.1671614557770390
  0.6659110103163604  0.0001190547250632  0.1667047443510860
  0.1656913452791483  0.7490139102699430  0.1665581286099034
  0.8311270397742311  0.4188890513587782  0.0836204836139138
  0.1686980832900559  0.4164117751436264  0.0834196974939221
  0.4978767121690394  0.0812124274952952 -0.0005644011623591
  0.8325583784211272  0.0842090786539764 -0.0002994317988317
 -0.0009155343886376  0.3322341029949433 -0.0005939002313227
  0.3356415206400042  0.3343233759390294  0.0003185429932281
  0.6676380408508616  0.3337759640391131 -0.0005684245764934
  0.1683315588597779  0.5848845072062971  0.0001974553354883
  0.5021376982631710  0.4180781721457427  0.0836814504645327
  0.4984808327106342  0.5840253725377662  0.0006294293789533
 -0.0009918744042026  0.8346687018582736  0.0002083556019026
  0.3353437967370642  0.8355442454172166  0.0007622003544585
  0.6655388741578742  0.8322348832063934  0.0004602125408492
  0.0015842581195426  0.1678538102357351  0.0836029213512080
  0.3309254979411241  0.1673795187092362  0.0829004548814438
  0.6650095114323525  0.1650703827694555  0.0836562292472846
  0.8357808730419196  0.5822540644227107  0.0002307814600841
  0.4996892405611984  0.7482663698390050  0.1669110953777059
  0.8310974058006222  0.7478468075070009  0.1662377849826920
  0.1672836837662303  0.0832836472996957  0.2505705260491120
  0.6684248304389759  0.6651427588936877  0.3327089181623509
  0.1655352824582573  0.9161718663556658  0.3341125895490675
  0.4993592106957418  0.9170592941375164  0.3328206861987637
  0.8348428789139249  0.9156818138859367  0.3329025410008179
  0.0000222518595469 -0.0006154653269745  0.4171574035307967
  0.3319085031910518 -0.0000069642036681  0.4163855861512860
  0.3316403327521804  0.6654697805897494  0.3327885093990927
  0.6690179253648556 -0.0020470577974739  0.4159829705380849
  0.5012399092624498  0.2518887091550594  0.4160903285060759
  0.8315845468356142  0.2513982128834530  0.4169951957258259
 -0.0013857702153179  0.4994809193303377  0.4163853816771294
  0.3337878449285833  0.4980558870979342  0.4172545050094670
  0.6667873818955766  0.5016454412734974  0.4160108246669045
  0.1652231323750439  0.7485519361906118  0.4161673210709774
  0.1670896832527095  0.2481436342202088  0.4164298213358864
 -0.0019561372654630  0.6675238178753888  0.3335569807747359
  0.8310642857193669  0.4162235042921774  0.3326472382314302
  0.5000044121079397  0.4187864605922695  0.3341045073496751
  0.5009735688122131  0.0851175168227590  0.2499534628995602
  0.8347739343805688  0.0826497301670729  0.2497058735873146
  0.0001373994245607  0.3328193907412719  0.2495222541291800
  0.3336712357447135  0.3327267510843976  0.2500288630218966
  0.6673138613443592  0.3351626627813174  0.2492162278771502
  0.1669819454750457  0.5814582228461264  0.2504229701066204
  0.4984120030323210  0.5815579783543742  0.2505528806104548
  0.8349175594048759  0.5838236440568472  0.2506130945600313
  0.0004917197686851  0.8347855408971021  0.2498671747728723
  0.3324569934319110  0.8311973438469571  0.2505568143955840
  0.6668682526492741  0.8311740653705063  0.2494950136774805
  0.0013031831611652  0.1662816729963918  0.3330804387814825
  0.3354832205638091  0.1654413397686571  0.3332944618219130
  0.6691570420349040  0.1683946149681332  0.3337665892282660
  0.1691211523315073  0.4150366280820414  0.3325424495672715
  0.4998573994739621  0.9364321194834438  0.9172095814137087
  0.8311615911336858  0.9374689799121030  0.9161695107588042
