Cu
 1.0000000000000000
     7.6685730419681093    0.0000000000000000    0.0000000000000000
     0.0000000000000000    8.8549054201611881    0.0000000000000000
     0.0000000000000000    0.0000000000000000   25.0454546774459672
 Cu 
 144
Direct
  0.1678878793005936  0.0817159481299515  0.0003521100967624
  0.8014914902286817  0.7157254797956782  0.5837357002490595
  0.3019991207439434  0.9653076418946885  0.5828936507838485
  0.6348068327265391  0.9688978227011424  0.5832820005372328
  0.9690330930229515  0.9644705607695417  0.5834931337529997
  0.1331230538516095  0.0512634509657290  0.6665471639807189
  0.4658419968223301  0.0499767963815518  0.6673085187322421
  0.4644618951134625  0.7184848613523497  0.5835066535965134
  0.7984526300724227  0.0494056744779616  0.6662540610863774
  0.6327530057146188  0.2993670439696438  0.6664388423635257
  0.9690103603951052  0.2999658690764457  0.6671642096204300
  0.1333647181385553  0.5518252469780067  0.6660631841369927
  0.4648616212565067  0.5489027618473556  0.6662034289757064
  0.7980381358127825  0.5502964471067935  0.6671411822093704
  0.3013253952603008  0.7994082418439423  0.6667562793050402
  0.2975826744645322  0.3012565464658347  0.6666150656922438
  0.6336345777244784  0.7985426568095798  0.6658707560245304
  0.1321725817953811  0.7156185316318228  0.5841071193399163
  0.6322548945418653  0.4672675207829278  0.5834764557266139
  0.9688490877925274  0.1337247724818700  0.4997514937816881
  0.1307802788262694  0.3839092438582181  0.4995881658694551
  0.4680587411505748  0.3839520577085397  0.4997092211052959
  0.7975330339944208  0.3811239466571061  0.4996315692045930
  0.3007189467691298  0.6322388267166965  0.5007561174614812
  0.6312278972744672  0.6347254878088723  0.5005646794407849
  0.9660439638209166  0.4660712159891006  0.5840972408726063
  0.9674258733297144  0.6334154304148935  0.5004562487044522
  0.4683564727525616  0.8838361564229127  0.5004471796778359
  0.7992648383931051  0.8836125113119395  0.4999199102795702
  0.1330294990290666  0.2163764091151376  0.5839897732215330
  0.4653357706445287  0.2184236485878950  0.5839510108408695
  0.8015623808229935  0.2159225150056318  0.5834084578974141
  0.2999271393358747  0.4665649332892290  0.5835780781012682
  0.1340375479598264  0.8852922260808164  0.4994023160759278
  0.6316373817726231  0.1345838031545152  0.5001436698266866
  0.9669541953288986  0.7997551309735811  0.6671381302537033
  0.6324042972675592  0.1317722638595974  0.7506662306918813
  0.7979393067425966  0.7183105856216796  0.8335488393487721
  0.3006043638463771  0.9666915556063960  0.8337211537064362
  0.6314123874132231  0.9684156414388111  0.8332340377592359
  0.9665135007009070  0.9665403691450419  0.8338607445388915
  0.1309978951137932  0.0500842542172554  0.9164035082725371
  0.4649256203400574  0.0516235485559239  0.9172509309842467
  0.4645684393398113  0.7180262739952868  0.8341291007485075
  0.7983594883537721  0.0517103182229286  0.9168637591796956
  0.6308585452664414  0.3017179214580621  0.9167709417899210
  0.9689961483600511  0.3009145381738880  0.9159408395779071
  0.1311471789148723  0.5516478272334630  0.9166358665142608
  0.4685830727261366  0.5511393434327468  0.9163401042259403
  0.8011002449382094  0.5487920808455036  0.9171152668276485
  0.3017010094033266  0.8013431693715840  0.9159719951263091
  0.2982939936048770  0.2994717525911990  0.9163687369761419
  0.3011830179944875  0.1337878593565546  0.7507580936454324
  0.1358020414017283  0.7156704935874153  0.8328135220633428
  0.6321888799487011  0.4671200388967150  0.8339329877380008
  0.9641399562319845  0.1312926153128826  0.7495837454984828
  0.1336331402195858  0.3818915954690816  0.7498001926275164
  0.4643777238148307  0.3813262103983280  0.7502311483277966
  0.7978164488164440  0.3837048204560727  0.7493479029737874
  0.2995932428971551  0.6352026995763381  0.7501487434359893
  0.6315217581854605  0.6318077380555704  0.7499878182459315
  0.9692329064743896  0.4651745733205864  0.8336875199833134
  0.9686748770332541  0.6335205967966250  0.7501713767246125
  0.4679411118497616  0.8841589049632226  0.7505640029750750
  0.8019097530928218  0.8842791094028012  0.7506474445533297
  0.1338412061570547  0.2160619449440913  0.8336452233327246
  0.4641520322738837  0.2162534062845152  0.8330475672120402
  0.7976731221959089  0.2167131972422780  0.8341243264688866
  0.2987142207884110  0.4669044404846289  0.8331650363471457
  0.1343797701211839  0.8838353913096548  0.7492339794502367
  0.3017845281797644  0.1332108241070992  0.4994327440385420
  0.8343676875286472  0.7484665487320560  0.4166180154165013
  0.4980986271150804  0.7514351060150460  0.4162071626328768
  0.3312813664365740  0.6644562524329662  0.0828491707021145
  0.6684827629470622  0.6686149180521235  0.0831761173595461
  0.1675751699915362  0.9186875909499574  0.0839472642548760
  0.5020472636457826  0.9183863854276124  0.0834133697479940
  0.8357306706960544  0.9144326966924603  0.0830916285354441
  0.0004930209723148  0.0005613410458378  0.1661502877034775
 -0.0017109363107448  0.6687194697282638  0.0837400564250193
  0.3327406357139435  0.0014950195910616  0.1673406273989703
  0.1649540091725168  0.2517674819318166  0.1668627086007697
  0.4987616286195589  0.2507145843071096  0.1672802307749012
  0.8337680183337557  0.2512553315783648  0.1670761809897123
  0.0025649435907146  0.4995041036975687  0.1669612761732726
  0.3338880634441767  0.4981823372119252  0.1667847982359917
  0.6690648772122453  0.4995837772897760  0.1668890104291553
  0.6676269791787128 -0.0014807489279989  0.1673046062173923
  0.1656169085753210  0.7519683288830841  0.1662696723142703
  0.8314696062820985  0.4183550021454057  0.0836922457304877
  0.1652642504595080  0.4164992004909406  0.0837418608570550
  0.5010327872906478  0.0842384746605057  0.0006334528850226
  0.8311558897621378  0.0847616513874541  0.0006215776537575
 -0.0000767354531270  0.3325673493695022  0.0004850072919591
  0.3324231949515382  0.3315826674283892 -0.0002948561115777
  0.6692597622287862  0.3335502842040242  0.0001589911232931
  0.1653973232806930  0.5823615876446663 -0.0001209201342658
  0.4975873155661425  0.4149583582520006  0.0835698599637115
  0.5000485313247307  0.5825157524058177  0.0002303461670180
 -0.0009785107110724  0.8330336687472778 -0.0003286999021223
  0.3352548569241014  0.8346478318049843 -0.0001230467640089
  0.6651686080097406  0.8337671656543028 -0.0001807251413596
 -0.0007534737196322  0.1657234145997392  0.0828373167000388
  0.3340670939159842  0.1662838175792402  0.0836005384378801
  0.6667695616511278  0.1650822855431989  0.0826965771632337
  0.8312610256406410  0.5828245892847931 -0.0003282929090583
  0.5002878357304910  0.7478851324368438  0.1668319768038148
  0.8354554171618919  0.7481674084557600  0.1661172316418483
  0.1683649323606244  0.0834655565519627  0.2507324398199505
  0.6686037407747381  0.6647149801296899  0.3334292803976276
  0.1670801990981789  0.9168882048151307  0.3327289701313591
  0.4994731793799169  0.9157440946603207  0.3339825864270080
  0.8333540838262732  0.9181258183397015  0.3334349274898214
 -0.0022805038013109 -0.0012143541988805  0.4162783887916635
  0.3319866115131080 -0.0014680991673183  0.4168124730053399
  0.3353403387234712  0.6666143279404979  0.3331713652301318
  0.6658285193445328  0.0000434945084104  0.4164419332572334
  0.5022375526004089  0.2484514539282255  0.4172377420875575
  0.8340271747888107  0.2517163977980661  0.4164371331603721
  0.0025708471365995  0.4985497115060751  0.4170441803461792
  0.3314112934330458  0.4990809256755274  0.4163940249884083
  0.6680596775362024  0.4990855715847687  0.4172678459059981
  0.1648202847260669  0.7482973008728760  0.4164263606696383
  0.1668370184302077  0.2478587370081575  0.4168545988139655
 -0.0010539698104866  0.6663857321757143  0.3325406438781106
  0.8323054920992580  0.4172428881786304  0.3328980812471560
  0.5022494116152780  0.4148609915216622  0.3329384872506589
  0.5003994819295217  0.0846306234221940  0.2505744242501061
  0.8340217102104938  0.0851594140950997  0.2504858069544325
 -0.0002907009717541  0.3332849263668287  0.2498350703698095
  0.3319109695670146  0.3326051993464683  0.2497520590179934
  0.6646615529998855  0.3312814197573698  0.2505312844613372
  0.1672853270556283  0.5828460649522240  0.2502655787680939
  0.5000923244889304  0.5852035821295444  0.2494715933067176
  0.8339758645178387  0.5836908575484966  0.2505282535872640
 -0.0016443745124831  0.8350467953714833  0.2494815558439849
  0.3358514269079505  0.8327696074864580  0.2493316236568509
  0.6679089564196518  0.8345986381677770  0.2499040617376268
 -0.0000872602229268  0.1675025489056446  0.3333494535662482
  0.3340278865014463  0.1666829807860906  0.3337098129744265
  0.6692675732749968  0.1654572488265005  0.3333365154858329
  0.1664905528321907  0.4167151766170847  0.3340571273777984
  0.6315795648200160  0.7999775560407916  0.9165411151713690
  0.9686381353361925  0.7983203278639976  0.9172146145771092
