Cu
 1.0000000000000000
     7.6685730419681093    0.0000000000000000    0.0000000000000000
     5.1123820279787395    8.8549054201611881    0.0000000000000000
     0.0000000000000000    0.0000000000000000   54.2651518011329301
 Cu 
 312
Direct
  0.0000000000000000  0.0000000000000000  0.0000000000000000
  0.5555555555555556  0.6666666666666666  0.6538461538461539
  0.2222222222222222  0.6666666666666666  0.6538461538461539
  0.8888888888888887  0.4166666666666667  0.6538461538461539
  0.5555555555555555  0.4166666666666667  0.6538461538461539
  0.2222222222222222  0.4166666666666667  0.6538461538461539
  0.8888888888888886  0.1666666666666667  0.6538461538461539
  0.5555555555555555  0.1666666666666667  0.6538461538461539
  0.2222222222222222  0.1666666666666667  0.6538461538461539
  0.7777777777777778  0.8333333333333333  0.6153846153846154
  0.4444444444444444  0.8333333333333333  0.6153846153846154
  0.1111111111111111  0.8333333333333333  0.6153846153846154
  0.7777777777777778  0.5833333333333333  0.6153846153846154
  0.4444444444444444  0.5833333333333333  0.6153846153846154
  0.1111111111111111  0.5833333333333333  0.6153846153846154
  0.7777777777777778  0.3333333333333333  0.6153846153846154
  0.8888888888888888  0.6666666666666666  0.6538461538461539
  0.2222222222222223  0.9166666666666666  0.6538461538461539
  0.5555555555555556  0.9166666666666666  0.6538461538461539
  0.8888888888888888  0.9166666666666666  0.6538461538461539
  0.1111111111111111  0.3333333333333333  0.7307692307692306
  0.7777777777777778  0.0833333333333333  0.7307692307692306
  0.4444444444444443  0.0833333333333333  0.7307692307692306
  0.1111111111111111  0.0833333333333333  0.7307692307692306
  0.6666666666666666  0.7500000000000000  0.6923076923076922
  0.3333333333333333  0.7500000000000000  0.6923076923076922
  0.0000000000000000  0.7500000000000000  0.6923076923076922
  0.4444444444444444  0.3333333333333333  0.6153846153846154
  0.6666666666666666  0.4999999999999999  0.6923076923076922
  0.0000000000000000  0.4999999999999999  0.6923076923076922
  0.6666666666666666  0.2500000000000000  0.6923076923076922
  0.3333333333333333  0.2500000000000000  0.6923076923076922
  0.0000000000000000  0.2500000000000000  0.6923076923076922
  0.6666666666666666  0.0000000000000000  0.6923076923076922
  0.3333333333333333  0.0000000000000000  0.6923076923076922
  0.0000000000000000  0.0000000000000000  0.6923076923076922
  0.3333333333333334  0.4999999999999999  0.6923076923076922
  0.4444444444444444  0.3333333333333333  0.7307692307692306
  0.1111111111111111  0.3333333333333333  0.6153846153846154
  0.4444444444444443  0.0833333333333333  0.6153846153846154
  0.4444444444444444  0.3333333333333333  0.5384615384615383
  0.1111111111111111  0.3333333333333333  0.5384615384615383
  0.7777777777777778  0.0833333333333333  0.5384615384615383
  0.4444444444444443  0.0833333333333333  0.5384615384615383
  0.1111111111111111  0.0833333333333333  0.5384615384615383
  0.8888888888888888  0.9166666666666666  0.4999999999999999
  0.5555555555555556  0.9166666666666666  0.4999999999999999
  0.2222222222222223  0.9166666666666666  0.4999999999999999
  0.8888888888888888  0.6666666666666666  0.4999999999999999
  0.5555555555555556  0.6666666666666666  0.4999999999999999
  0.2222222222222222  0.6666666666666666  0.4999999999999999
  0.8888888888888887  0.4166666666666667  0.4999999999999999
  0.5555555555555555  0.4166666666666667  0.4999999999999999
  0.2222222222222222  0.4166666666666667  0.4999999999999999
  0.8888888888888886  0.1666666666666667  0.4999999999999999
  0.7777777777777778  0.3333333333333333  0.5384615384615383
  0.1111111111111111  0.5833333333333333  0.5384615384615383
  0.4444444444444444  0.5833333333333333  0.5384615384615383
  0.7777777777777778  0.5833333333333333  0.5384615384615383
  0.1111111111111111  0.0833333333333333  0.6153846153846154
  0.6666666666666666  0.7500000000000000  0.5769230769230769
  0.3333333333333333  0.7500000000000000  0.5769230769230769
  0.0000000000000000  0.7500000000000000  0.5769230769230769
  0.6666666666666666  0.4999999999999999  0.5769230769230769
  0.3333333333333334  0.4999999999999999  0.5769230769230769
  0.0000000000000000  0.4999999999999999  0.5769230769230769
  0.7777777777777778  0.0833333333333333  0.6153846153846154
  0.6666666666666666  0.2500000000000000  0.5769230769230769
  0.0000000000000000  0.2500000000000000  0.5769230769230769
  0.6666666666666666  0.0000000000000000  0.5769230769230769
  0.3333333333333333  0.0000000000000000  0.5769230769230769
  0.0000000000000000  0.0000000000000000  0.5769230769230769
  0.7777777777777778  0.8333333333333333  0.5384615384615383
  0.4444444444444444  0.8333333333333333  0.5384615384615383
  0.1111111111111111  0.8333333333333333  0.5384615384615383
  0.3333333333333333  0.2500000000000000  0.5769230769230769
  0.5555555555555555  0.1666666666666667  0.4999999999999999
  0.7777777777777778  0.3333333333333333  0.7307692307692306
  0.4444444444444444  0.5833333333333333  0.7307692307692306
  0.3333333333333333  0.0000000000000000  0.9230769230769230
  0.0000000000000000  0.0000000000000000  0.9230769230769230
  0.8888888888888888  0.9166666666666666  0.8846153846153847
  0.5555555555555556  0.9166666666666666  0.8846153846153847
  0.2222222222222223  0.9166666666666666  0.8846153846153847
  0.8888888888888888  0.6666666666666666  0.8846153846153847
  0.5555555555555556  0.6666666666666666  0.8846153846153847
  0.2222222222222222  0.6666666666666666  0.8846153846153847
  0.8888888888888887  0.4166666666666667  0.8846153846153847
  0.5555555555555555  0.4166666666666667  0.8846153846153847
  0.2222222222222222  0.4166666666666667  0.8846153846153847
  0.8888888888888886  0.1666666666666667  0.8846153846153847
  0.5555555555555555  0.1666666666666667  0.8846153846153847
  0.2222222222222222  0.1666666666666667  0.8846153846153847
  0.7777777777777778  0.8333333333333333  0.8461538461538460
  0.6666666666666666  0.0000000000000000  0.9230769230769230
  0.0000000000000000  0.2500000000000000  0.9230769230769230
  0.3333333333333333  0.2500000000000000  0.9230769230769230
  0.6666666666666666  0.2500000000000000  0.9230769230769230
  0.1111111111111111  0.8333333333333333  0.9615384615384613
  0.7777777777777778  0.5833333333333333  0.9615384615384613
  0.4444444444444444  0.5833333333333333  0.9615384615384613
  0.1111111111111111  0.5833333333333333  0.9615384615384613
  0.7777777777777778  0.3333333333333333  0.9615384615384613
  0.4444444444444444  0.3333333333333333  0.9615384615384613
  0.1111111111111111  0.3333333333333333  0.9615384615384613
  0.4444444444444444  0.8333333333333333  0.8461538461538460
  0.7777777777777778  0.0833333333333333  0.9615384615384613
  0.1111111111111111  0.0833333333333333  0.9615384615384613
  0.6666666666666666  0.7500000000000000  0.9230769230769230
  0.3333333333333333  0.7500000000000000  0.9230769230769230
  0.0000000000000000  0.7500000000000000  0.9230769230769230
  0.6666666666666666  0.4999999999999999  0.9230769230769230
  0.3333333333333334  0.4999999999999999  0.9230769230769230
  0.0000000000000000  0.4999999999999999  0.9230769230769230
  0.4444444444444443  0.0833333333333333  0.9615384615384613
  0.1111111111111111  0.5833333333333333  0.7307692307692306
  0.1111111111111111  0.8333333333333333  0.8461538461538460
  0.4444444444444444  0.5833333333333333  0.8461538461538460
  0.5555555555555556  0.9166666666666666  0.7692307692307693
  0.2222222222222223  0.9166666666666666  0.7692307692307693
  0.8888888888888888  0.6666666666666666  0.7692307692307693
  0.5555555555555556  0.6666666666666666  0.7692307692307693
  0.2222222222222222  0.6666666666666666  0.7692307692307693
  0.8888888888888887  0.4166666666666667  0.7692307692307693
  0.5555555555555555  0.4166666666666667  0.7692307692307693
  0.2222222222222222  0.4166666666666667  0.7692307692307693
  0.8888888888888886  0.1666666666666667  0.7692307692307693
  0.5555555555555555  0.1666666666666667  0.7692307692307693
  0.2222222222222222  0.1666666666666667  0.7692307692307693
  0.7777777777777778  0.8333333333333333  0.7307692307692306
  0.4444444444444444  0.8333333333333333  0.7307692307692306
  0.1111111111111111  0.8333333333333333  0.7307692307692306
  0.7777777777777778  0.5833333333333333  0.7307692307692306
  0.8888888888888888  0.9166666666666666  0.7692307692307693
  0.0000000000000000  0.0000000000000000  0.8076923076923077
  0.3333333333333333  0.0000000000000000  0.8076923076923077
  0.6666666666666666  0.0000000000000000  0.8076923076923077
  0.1111111111111111  0.5833333333333333  0.8461538461538460
  0.7777777777777778  0.3333333333333333  0.8461538461538460
  0.4444444444444444  0.3333333333333333  0.8461538461538460
  0.1111111111111111  0.3333333333333333  0.8461538461538460
  0.7777777777777778  0.0833333333333333  0.8461538461538460
  0.4444444444444443  0.0833333333333333  0.8461538461538460
  0.1111111111111111  0.0833333333333333  0.8461538461538460
  0.7777777777777778  0.5833333333333333  0.8461538461538460
  0.6666666666666666  0.7500000000000000  0.8076923076923077
  0.0000000000000000  0.7500000000000000  0.8076923076923077
  0.6666666666666666  0.4999999999999999  0.8076923076923077
  0.3333333333333334  0.4999999999999999  0.8076923076923077
  0.0000000000000000  0.4999999999999999  0.8076923076923077
  0.6666666666666666  0.2500000000000000  0.8076923076923077
  0.3333333333333333  0.2500000000000000  0.8076923076923077
  0.0000000000000000  0.2500000000000000  0.8076923076923077
  0.3333333333333333  0.7500000000000000  0.8076923076923077
  0.2222222222222222  0.1666666666666667  0.4999999999999999
  0.6666666666666666  0.7500000000000000  0.4615384615384615
  0.3333333333333333  0.7500000000000000  0.4615384615384615
  0.1111111111111111  0.5833333333333333  0.1538461538461539
  0.7777777777777778  0.3333333333333333  0.1538461538461539
  0.4444444444444444  0.3333333333333333  0.1538461538461539
  0.1111111111111111  0.3333333333333333  0.1538461538461539
  0.7777777777777778  0.0833333333333333  0.1538461538461539
  0.4444444444444443  0.0833333333333333  0.1538461538461539
  0.1111111111111111  0.0833333333333333  0.1538461538461539
  0.6666666666666666  0.7500000000000000  0.1153846153846154
  0.3333333333333333  0.7500000000000000  0.1153846153846154
  0.0000000000000000  0.7500000000000000  0.1153846153846154
  0.6666666666666666  0.4999999999999999  0.1153846153846154
  0.3333333333333334  0.4999999999999999  0.1153846153846154
  0.0000000000000000  0.4999999999999999  0.1153846153846154
  0.6666666666666666  0.2500000000000000  0.1153846153846154
  0.3333333333333333  0.2500000000000000  0.1153846153846154
  0.4444444444444444  0.5833333333333333  0.1538461538461539
  0.7777777777777778  0.5833333333333333  0.1538461538461539
  0.1111111111111111  0.8333333333333333  0.1538461538461539
  0.4444444444444444  0.8333333333333333  0.1538461538461539
  0.6666666666666666  0.0000000000000000  0.2307692307692308
  0.3333333333333333  0.0000000000000000  0.2307692307692308
  0.0000000000000000  0.0000000000000000  0.2307692307692308
  0.8888888888888888  0.9166666666666666  0.1923076923076923
  0.5555555555555556  0.9166666666666666  0.1923076923076923
  0.2222222222222223  0.9166666666666666  0.1923076923076923
  0.8888888888888888  0.6666666666666666  0.1923076923076923
  0.0000000000000000  0.2500000000000000  0.1153846153846154
  0.5555555555555556  0.6666666666666666  0.1923076923076923
  0.8888888888888887  0.4166666666666667  0.1923076923076923
  0.5555555555555555  0.4166666666666667  0.1923076923076923
  0.2222222222222222  0.4166666666666667  0.1923076923076923
  0.8888888888888886  0.1666666666666667  0.1923076923076923
  0.5555555555555555  0.1666666666666667  0.1923076923076923
  0.2222222222222222  0.1666666666666667  0.1923076923076923
  0.7777777777777778  0.8333333333333333  0.1538461538461539
  0.2222222222222222  0.6666666666666666  0.1923076923076923
  0.0000000000000000  0.2500000000000000  0.2307692307692308
  0.6666666666666666  0.0000000000000000  0.1153846153846154
  0.0000000000000000  0.0000000000000000  0.1153846153846154
  0.1111111111111111  0.3333333333333333  0.0384615384615385
  0.7777777777777778  0.0833333333333333  0.0384615384615385
  0.4444444444444443  0.0833333333333333  0.0384615384615385
  0.1111111111111111  0.0833333333333333  0.0384615384615385
  0.6666666666666666  0.7500000000000000  0.0000000000000000
  0.3333333333333333  0.7500000000000000  0.0000000000000000
  0.0000000000000000  0.7500000000000000  0.0000000000000000
  0.6666666666666666  0.4999999999999999  0.0000000000000000
  0.3333333333333334  0.4999999999999999  0.0000000000000000
  0.0000000000000000  0.4999999999999999  0.0000000000000000
  0.6666666666666666  0.2500000000000000  0.0000000000000000
  0.3333333333333333  0.2500000000000000  0.0000000000000000
  0.0000000000000000  0.2500000000000000  0.0000000000000000
  0.6666666666666666  0.0000000000000000  0.0000000000000000
  0.3333333333333333  0.0000000000000000  0.0000000000000000
  0.4444444444444444  0.3333333333333333  0.0384615384615385
  0.7777777777777778  0.3333333333333333  0.0384615384615385
  0.1111111111111111  0.5833333333333333  0.0384615384615385
  0.4444444444444444  0.5833333333333333  0.0384615384615385
  0.8888888888888888  0.9166666666666666  0.0769230769230769
  0.5555555555555556  0.9166666666666666  0.0769230769230769
  0.2222222222222223  0.9166666666666666  0.0769230769230769
  0.8888888888888888  0.6666666666666666  0.0769230769230769
  0.5555555555555556  0.6666666666666666  0.0769230769230769
  0.2222222222222222  0.6666666666666666  0.0769230769230769
  0.8888888888888887  0.4166666666666667  0.0769230769230769
  0.3333333333333333  0.0000000000000000  0.1153846153846154
  0.5555555555555555  0.4166666666666667  0.0769230769230769
  0.8888888888888886  0.1666666666666667  0.0769230769230769
  0.5555555555555555  0.1666666666666667  0.0769230769230769
  0.2222222222222222  0.1666666666666667  0.0769230769230769
  0.7777777777777778  0.8333333333333333  0.0384615384615385
  0.4444444444444444  0.8333333333333333  0.0384615384615385
  0.1111111111111111  0.8333333333333333  0.0384615384615385
  0.7777777777777778  0.5833333333333333  0.0384615384615385
  0.2222222222222222  0.4166666666666667  0.0769230769230769
  0.3333333333333333  0.2500000000000000  0.2307692307692308
  0.6666666666666666  0.2500000000000000  0.2307692307692308
  0.0000000000000000  0.4999999999999999  0.2307692307692308
  0.4444444444444443  0.0833333333333333  0.4230769230769230
  0.1111111111111111  0.0833333333333333  0.4230769230769230
  0.8888888888888888  0.9166666666666666  0.3846153846153846
  0.5555555555555556  0.9166666666666666  0.3846153846153846
  0.2222222222222223  0.9166666666666666  0.3846153846153846
  0.8888888888888888  0.6666666666666666  0.3846153846153846
  0.5555555555555556  0.6666666666666666  0.3846153846153846
  0.2222222222222222  0.6666666666666666  0.3846153846153846
  0.8888888888888887  0.4166666666666667  0.3846153846153846
  0.5555555555555555  0.4166666666666667  0.3846153846153846
  0.2222222222222222  0.4166666666666667  0.3846153846153846
  0.8888888888888886  0.1666666666666667  0.3846153846153846
  0.5555555555555555  0.1666666666666667  0.3846153846153846
  0.2222222222222222  0.1666666666666667  0.3846153846153846
  0.6666666666666666  0.7500000000000000  0.3461538461538461
  0.7777777777777778  0.0833333333333333  0.4230769230769230
  0.1111111111111111  0.3333333333333333  0.4230769230769230
  0.4444444444444444  0.3333333333333333  0.4230769230769230
  0.7777777777777778  0.3333333333333333  0.4230769230769230
  0.0000000000000000  0.7500000000000000  0.4615384615384615
  0.6666666666666666  0.4999999999999999  0.4615384615384615
  0.3333333333333334  0.4999999999999999  0.4615384615384615
  0.0000000000000000  0.4999999999999999  0.4615384615384615
  0.6666666666666666  0.2500000000000000  0.4615384615384615
  0.3333333333333333  0.2500000000000000  0.4615384615384615
  0.0000000000000000  0.2500000000000000  0.4615384615384615
  0.3333333333333333  0.7500000000000000  0.3461538461538461
  0.6666666666666666  0.0000000000000000  0.4615384615384615
  0.0000000000000000  0.0000000000000000  0.4615384615384615
  0.7777777777777778  0.8333333333333333  0.4230769230769230
  0.4444444444444444  0.8333333333333333  0.4230769230769230
  0.1111111111111111  0.8333333333333333  0.4230769230769230
  0.7777777777777778  0.5833333333333333  0.4230769230769230
  0.4444444444444444  0.5833333333333333  0.4230769230769230
  0.1111111111111111  0.5833333333333333  0.4230769230769230
  0.3333333333333333  0.0000000000000000  0.4615384615384615
  0.0000000000000000  0.7500000000000000  0.3461538461538461
  0.6666666666666666  0.4999999999999999  0.3461538461538461
  0.3333333333333334  0.4999999999999999  0.3461538461538461
  0.4444444444444444  0.8333333333333333  0.2692307692307692
  0.1111111111111111  0.8333333333333333  0.2692307692307692
  0.7777777777777778  0.5833333333333333  0.2692307692307692
  0.4444444444444444  0.5833333333333333  0.2692307692307692
  0.1111111111111111  0.5833333333333333  0.2692307692307692
  0.7777777777777778  0.3333333333333333  0.2692307692307692
  0.4444444444444444  0.3333333333333333  0.2692307692307692
  0.7777777777777778  0.8333333333333333  0.2692307692307692
  0.1111111111111111  0.3333333333333333  0.2692307692307692
  0.4444444444444443  0.0833333333333333  0.2692307692307692
  0.1111111111111111  0.0833333333333333  0.2692307692307692
  0.6666666666666666  0.7500000000000000  0.2307692307692308
  0.3333333333333333  0.7500000000000000  0.2307692307692308
  0.0000000000000000  0.7500000000000000  0.2307692307692308
  0.6666666666666666  0.4999999999999999  0.2307692307692308
  0.3333333333333334  0.4999999999999999  0.2307692307692308
  0.7777777777777778  0.0833333333333333  0.2692307692307692
  0.4444444444444444  0.8333333333333333  0.9615384615384613
  0.2222222222222222  0.1666666666666667  0.3076923076923077
  0.8888888888888886  0.1666666666666667  0.3076923076923077
  0.0000000000000000  0.4999999999999999  0.3461538461538461
  0.6666666666666666  0.2500000000000000  0.3461538461538461
  0.3333333333333333  0.2500000000000000  0.3461538461538461
  0.0000000000000000  0.2500000000000000  0.3461538461538461
  0.6666666666666666  0.0000000000000000  0.3461538461538461
  0.3333333333333333  0.0000000000000000  0.3461538461538461
  0.0000000000000000  0.0000000000000000  0.3461538461538461
  0.5555555555555555  0.1666666666666667  0.3076923076923077
  0.8888888888888888  0.9166666666666666  0.3076923076923077
  0.2222222222222223  0.9166666666666666  0.3076923076923077
  0.8888888888888888  0.6666666666666666  0.3076923076923077
  0.5555555555555556  0.6666666666666666  0.3076923076923077
  0.2222222222222222  0.6666666666666666  0.3076923076923077
  0.8888888888888887  0.4166666666666667  0.3076923076923077
  0.5555555555555555  0.4166666666666667  0.3076923076923077
  0.2222222222222222  0.4166666666666667  0.3076923076923077
  0.5555555555555556  0.9166666666666666  0.3076923076923077
  0.7777777777777778  0.8333333333333333  0.9615384615384613
