Cu
 1.0000000000000000
     7.6685730419681093    0.0000000000000000    0.0000000000000000
     3.8342865209840546    6.6411790651208911    0.0000000000000000
     0.0000000000000000    0.0000000000000000   25.0454546774459672
 Cu 
 108
Direct
  0.1111059594986008  0.1081320871854131  0.0005043272129288
  0.2344481279950852  0.6672632799428017  0.6667829050014256
  0.9000830559336743  0.3329056448320892  0.6673762834208459
  0.5674368571027267  0.3320691327469792  0.6665203134349463
  0.2340080737307992  0.3313027302859351  0.6670051520407591
  0.8981927945441013 -0.0001062095766281  0.6666060560226538
  0.5667593328414690 -0.0025658116143531  0.6666431174435087
  0.2320087284851614 -0.0022500243024077  0.6670290400598956
  0.7871566851944216  0.8879229593916111  0.5837607957271836
  0.4576126154570949  0.8887464038328116  0.5830116974349792
  0.1188032143302162  0.8911323437152379  0.5828555397533786
  0.7920220160879449  0.5528094452177529  0.5841318362141832
  0.4579986746740139  0.5534259673340524  0.5832671643213615
  0.1231019319011769  0.5571447597177791  0.5827785756278151
  0.7909370468342125  0.2195081096816399  0.5833998148461393
  0.4573097226987791  0.2217186958826209  0.5825536550943599
  0.1232183999599844  0.2236954267230070  0.5828550505346366
  0.0133845115544665  0.7773745294812924  0.4997022891190618
  0.6784927446559226  0.7788670008429379  0.4996597446801236
  0.3455238534617957  0.7786968752832230  0.4993190601072287
  0.0079232176078624  0.4463214280976406  0.4999561519324656
  0.6772920033013320  0.4438020301370083  0.4999792780428148
  0.3437535387114117  0.4456385628679029  0.5001430019771023
  0.0099741399886004  0.1097341817107004  0.5006532753992098
  0.5647511144438015  0.6690626730166955  0.6664588199694909
  0.6779833687147983  0.1090934575723680  0.5000210130381638
  0.8999341266994262  0.6684451472142856  0.6669537888120343
  0.6775908810726192  0.1109312278924892  0.7498190706238427
  0.2319095709444649  0.6664905993233120  0.9163140966114393
  0.8989997766295832  0.3360745268002683  0.9166925747861873
  0.5685183043201456  0.3324654767092059  0.9162263609438530
  0.2369376661509408  0.3304277723200015  0.9171132332937798
  0.9003662824274471 -0.0027809803707784  0.9162594244483209
  0.5683112204509502  0.0017850095522410  0.9172811708345920
  0.2353981831053883 -0.0008661122561163  0.9167611903968572
  0.7872556527340505  0.8907700592023441  0.8330440904082252
  0.4549683269576544  0.8908755809062611  0.8340369920014384
  0.1204099283647703  0.8886783374363018  0.8328848133226652
  0.7877088517481406  0.5558657014713129  0.8330718979899359
  0.4525742534166697  0.5571597959662512  0.8336303912783833
  0.1234539446190615  0.5553622311199159  0.8338372555672616
  0.7897915519407951  0.2225248487369312  0.8334412080732124
  0.4568679563931112  0.2204216131583416  0.8339666159282527
  0.1220741780211382  0.2200061032447876  0.8330022043821265
  0.0105271088805864  0.7783441166560012  0.7504807311306858
  0.6761326496100382  0.7783138831614324  0.7494019746996862
  0.3458856204049973  0.7793625769418542  0.7493611945244232
  0.0134332833593708  0.4425561484777186  0.7497038946564856
  0.6800246480446859  0.4432852380619848  0.7507601207348906
  0.3416283268742654  0.4457526034321437  0.7506078236242411
  0.0112996577328544  0.1102610953701053  0.7504152648233408
  0.3445282561324889  0.1131934863978099  0.7496759983461982
  0.3451088505510729  0.1081382345516325  0.5004909993568126
  0.6639518494921658  0.6680366326548822  0.4158723430909275
  0.3321852009411769  0.6676127687280806  0.4165448200596069
  0.6658579399369403  0.3340358283953957  0.1672867004613665
  0.3347553318979597  0.3353387781225429  0.1658982583180908
 -0.0016421424090569  0.3360069079862020  0.1666609601557448
  0.6658464061825452 -0.0011505728961236  0.1670266684830490
  0.3342420537995561 -0.0010422486498953  0.1661480449402080
  0.0021099759191094  0.0003677093184474  0.1660637052897881
  0.5550095396133483  0.8902715902112467  0.0828064864740994
  0.2233118957872451  0.8872898927614525  0.0825859273134419
  0.8885285317229820  0.8867915710955445  0.0840823494728149
  0.5584611149047335  0.5535014870702044  0.0829722244263097
  0.2250541145744577  0.5534908566375684  0.0834551854874398
  0.8869796403276410  0.5575074949672234  0.0832926042563910
  0.5552644249489526  0.2196099126867873  0.0831080582531812
  0.2213641333059331  0.2224607180991214  0.0836367057012485
  0.8905761694549144  0.2198657608212385  0.0825604030458351
  0.7804025619080331  0.7762261022118325  0.0004342835115994
  0.4455026875676899  0.7764936546737470 -0.0002413527490044
  0.1111209514405482  0.7801975641987750  0.0007725189007852
  0.7771260330386970  0.4426148314655416  0.0004992098674110
  0.4480293441524983  0.4416303685613272 -0.0002089460406891
  0.1132022926162629  0.4444577810364925  0.0004021435527440
  0.7779242990661452  0.1095957507876427 -0.0006774601063166
  0.4456892385406218  0.1126033342822392  0.0007381359490926
 -0.0010093798440855  0.6691734286578440  0.1673297458023908
  0.3352492055839736  0.6673550721476675  0.1671020070453693
  0.6665561879969479  0.6671058590224651  0.1658974996684684
  0.1105993608065032  0.1137331381188885  0.2502140632656344
  0.0007550667061061  0.6679295251372748  0.4171777874736682
  0.6702131542862312  0.3304168543589134  0.4162515191557490
  0.3324759055094535  0.3310355695676086  0.4161969833135686
  0.0023574049650260  0.3321682539438266  0.4159003609755972
  0.6644168161135456  0.0003869162067981  0.4159526616429221
  0.3318420344362666 -0.0020221034268829  0.4168105876157575
  0.0005925045059925  0.0005318030949401  0.4171489271608680
  0.5551807048755274  0.8892089422830657  0.3325397371125333
  0.2225148409286407  0.8870494818588965  0.3339764160634838
  0.8878469005123889  0.8875462265039977  0.3334530906191360
  0.5522478487877310  0.5581321303681858  0.3336675602210891
  0.5668563727563026  0.6688273629541216  0.9171302198998844
  0.2226664370837656  0.5530830117694430  0.3338614808989476
  0.5533893838622831  0.2219412767835997  0.3330362059867885
  0.2210960313032604  0.2226781441701653  0.3331889031786304
  0.8885448280439916  0.2227788398216039  0.3329707087916750
  0.7795145235669751  0.7775582647222888  0.2499191685989832
  0.4458888693851202  0.7761400338199645  0.2492545306974490
  0.1143630004442751  0.7760301782893975  0.2504348498338350
  0.7790171401917513  0.4427955317148963  0.2499375982929845
  0.4445061739828842  0.4470748937836755  0.2502447090827060
  0.1104164742319733  0.4453419482091614  0.2494731394321721
  0.7776704168504627  0.1081757560442723  0.2498820861207589
  0.4434330094090445  0.1084876686750355  0.2497570724590037
  0.8861629627537481  0.5567151185056530  0.3339912774976531
  0.9005279274076307  0.6686237829347274  0.9168303653953764
