Cu
 1.0000000000000000
     7.6685730419681093    0.0000000000000000    0.0000000000000000
     3.8342865209840546    6.6411790651208911    0.0000000000000000
     0.0000000000000000    0.0000000000000000   25.0454546774459672
 Cu 
 108
Direct
  0.1117466352588223  0.1081762912370764 -0.0000470233276370
  0.2672950503265892  0.6651830372767961  0.6661802353460563
  0.9306752143973176  0.3363273006597888  0.6660167217885747
  0.6031185513757670  0.3320617145028579  0.6661912685830020
  0.2640079903999442  0.3337542296103916  0.6669262399430456
  0.9322887640644758  0.0016654325431812  0.6667099374901631
  0.6025085530012988 -0.0014339858947720  0.6666847503476087
  0.2663888918073064  0.0007325401570728  0.6664101192935478
  0.8236520600185330  0.8867009960758817  0.5827707823506465
  0.4878999181572847  0.8903682455729134  0.5833763988437659
  0.1565783719530672  0.8905576219030639  0.5828944906166708
  0.8240265501298343  0.5534763391190924  0.5831301078953336
  0.4864958562225967  0.5561934240836701  0.5832612543830532
  0.1525602337087986  0.5579801106535593  0.5831031293390673
  0.8214912565437177  0.2241198416930653  0.5838190556544202
  0.4879392259180177  0.2215190716856847  0.5830080374134754
  0.1551735598344709  0.2243644913020017  0.5837822636386926
  0.0450100148774894  0.7751179018759178  0.5007592167793655
  0.7110392991624117  0.7791844514421069  0.4992105238097650
  0.3781119181780306  0.7773551588765065  0.4994710997935159
  0.0457402525815171  0.4443559003843454  0.4992048428148689
  0.7077462311773622  0.4471273335886394  0.5003621849902128
  0.3812966033163607  0.4424504306042444  0.5005253452783303
  0.0420990791627690  0.1131857040308803  0.4996590345817777
  0.5978342872561193  0.6690777898358006  0.6660453503086440
  0.7112905735006081  0.1118011126879996  0.5003060034218313
  0.9337644043991740  0.6642644337033655  0.6662296656492278
  0.7109814445112582  0.1084075962501442  0.7495756891021871
  0.2667598447855347  0.6656079630529503  0.9168282476732061
  0.9340749909057539  0.3320217112894938  0.9173910522568109
  0.5972115044734898  0.3342466075077315  0.9163299919085648
  0.2648120403831234  0.3359203322236417  0.9173732126611565
  0.9329169580861988 -0.0007709048538689  0.9160341159752453
  0.5998213619264006  0.0019534239451865  0.9162916617098329
  0.2674707994786066  0.0029799494223473  0.9172577360643367
  0.8215446052937718  0.8863575655316934  0.8337256383942482
  0.4884886745823678  0.8918345720595704  0.8337600511525705
  0.1548552832717889  0.8901049727471909  0.8331281490473335
  0.8207165178779811  0.5564342215625111  0.8330088639962440
  0.4899253778350772  0.5569987863411067  0.8333784526401140
  0.1574775107489053  0.5533834329869479  0.8335395446846242
  0.8227144657935742  0.2229790540042175  0.8339452238094841
  0.4863958684526523  0.2223720199654474  0.8333489417355003
  0.1541634156454466  0.2213088118420208  0.8327603236596877
  0.0446894384732908  0.7804635974574016  0.7506865918469091
  0.7087151011124765  0.7800167943450534  0.7503044795429091
  0.3776384908834214  0.7778282915342924  0.7492366312765782
  0.0423076713417580  0.4451840462225085  0.7502550023809255
  0.7113364867707905  0.4455410828959701  0.7502743513924904
  0.3783560400016188  0.4440301838264166  0.7496623623681612
  0.0452668968627537  0.1095802234329028  0.7499739763190403
  0.3775414245931886  0.1086634230053264  0.7500027732238506
  0.3762264135622650  0.1127292213137446  0.4994167950238111
  0.6662484407369972  0.6637928619732228  0.4159165762329558
  0.3313586486604484  0.6671415929173531  0.4169623101016706
  0.6644825588756024  0.3346418218169451  0.1665811456991192
  0.3334232147801584  0.3314375630734037  0.1663567149367230
 -0.0028720388501296  0.3354043924576152  0.1660710415541919
  0.6657553106103191 -0.0027259532980782  0.1666585612260562
  0.3355597974451498  0.0005581940310681  0.1673883016090044
  0.0020006074357414 -0.0000314451121859  0.1674353668191172
  0.5552460883797357  0.8883500338931732  0.0839949817612425
  0.2225428807953783  0.8898399444441861  0.0831400737458406
  0.8873159187097567  0.8905767913282090  0.0837616920578774
  0.5536417909727784  0.5553625457788990  0.0826568423009834
  0.2207036350985851  0.5557362142368586  0.0841173818373924
  0.8888072500538459  0.5559781479596034  0.0830533175547092
  0.5563159955528353  0.2230410619621374  0.0834144919149820
  0.2218959529657659  0.2200215623507356  0.0829929977345308
  0.8912392366218356  0.2208668698123311  0.0827813334402051
  0.7769947346357015  0.7789416228780968 -0.0007520189634667
  0.4422370592302599  0.7785822290485109 -0.0004741891415616
  0.1124256715679584  0.7775985312240186 -0.0007477987207374
  0.7799864181726300  0.4444071273028870  0.0007909158573438
  0.4455762030164763  0.4471699646939182 -0.0003718837352958
  0.1128562113479637  0.4459916200942596  0.0000414112249484
  0.7776288505309329  0.1117399701555980 -0.0000432146224675
  0.4469180064988345  0.1085475201139039  0.0006734413048583
 -0.0021350211721944  0.6657257119516140  0.1666008213057839
  0.3346392356284367  0.6654236253299955  0.1669064382210691
  0.6689504277623786  0.6643504039924539  0.1658886034470879
  0.1131579405744975  0.1114736253902882  0.2493464394807672
  0.0005437478553274  0.6672020324873840  0.4163494930486406
  0.6684477762666492  0.3337648354822192  0.4161580122189502
  0.3319269082129629  0.3349627804231824  0.4159418480951536
 -0.0011903094075120  0.3334793500352641  0.4166786295524665
  0.6629826765509550  0.0029682661829571  0.4174617315008743
  0.3320442753896285 -0.0007576245536444  0.4160772806140116
 -0.0012965529152871 -0.0014375141934111  0.4159418833352549
  0.5517266659676744  0.8917468661817622  0.3332049097483451
  0.2198394163802401  0.8918905281585446  0.3326386796466825
  0.8875396002849735  0.8883327586966229  0.3327591569372084
  0.5560390720794580  0.5542371139168779  0.3325914316123790
  0.5996649592361482  0.6649604683037336  0.9161777435317131
  0.2223803572998020  0.5574095415039709  0.3329074599215972
  0.5549982976468373  0.2195924788367928  0.3336451334660352
  0.2222356412521419  0.2193770545499434  0.3327991170691720
  0.8859568593315225  0.2251327227231213  0.3328534965524111
  0.7786961811195855  0.7772602039666378  0.2496477358386538
  0.4434096517762179  0.7755002846817156  0.2494731312657783
  0.1096611135001111  0.7756220443981853  0.2497623833211896
  0.7798327909255589  0.4446721187433470  0.2503124325898507
  0.4451801085108413  0.4456114572220849  0.2495797334866913
  0.1100632948387095  0.4427889808768217  0.2503375728171672
  0.7791566578474193  0.1089491051402538  0.2505344580197197
  0.4433975623512768  0.1133902553889896  0.2504798909580243
  0.8875942084101662  0.5529975024196434  0.3327711315512042
  0.9322773184071484  0.6658479326271671  0.9159975262453197
