Cu
 1.0000000000000000
     7.6685730419681093    0.0000000000000000    0.0000000000000000
     3.8342865209840546    6.6411790651208911    0.0000000000000000
     0.0000000000000000    0.0000000000000000   25.0454546774459672
 Cu 
 108
Direct
  0.1125676331290280  0.1116926586105603 -0.0003372057102224
  0.1514441331587209  0.6641923235012255  0.6658954154388159
  0.8174972329796120  0.3329641837359749  0.6659140376496767
  0.4857892884625787  0.3312824461065235  0.6665186891734535
  0.1477864576365884  0.3342076279411222  0.6665072929114038
  0.8170630282476825  0.0001411568432907  0.6664220688013462
  0.4811257389575669  0.0017432929827828  0.6671067575378626
  0.1471699580699709  0.0027902426303624  0.6660005800547318
  0.7059289966047726  0.8900988159148034  0.5833494920812335
  0.3743864203027888  0.8862467115418649  0.5828200853755076
  0.0384445849997763  0.8892029992975615  0.5828569478066647
  0.7067449866749816  0.5530705353360416  0.5837714099491400
  0.3716302643355150  0.5567117729539405  0.5832501765428705
  0.0363475802169367  0.5573357464096748  0.5829928065476320
  0.7069824990052084  0.2205225098812239  0.5837103685496143
  0.3720557762187813  0.2218948226397760  0.5835133955786059
  0.0397444689747699  0.2213611937711205  0.5836944634351482
  0.9247866024412676  0.7794840551978141  0.5003331463002312
  0.5955869667371501  0.7755984629300524  0.5000365700961219
  0.2614544573566568  0.7804199864727722  0.5004928153259818
  0.9273419621870017  0.4437923238136698  0.5007374336090290
  0.5932284224167355  0.4470546764890251  0.5007135432517293
  0.2642845215677658  0.4430944004968205  0.4992436168819482
  0.9246120961727644  0.1131875137341164  0.5004785435902178
  0.4828225181667204  0.6647548306123886  0.6670358783213658
  0.5960790408860208  0.1086040639847812  0.5005833089466007
  0.8168315065735321  0.6684178650893866  0.6671375201982426
  0.5947470568501427  0.1119983775386244  0.7494713951362509
  0.1494513065864688  0.6662910102353099  0.9162984050072510
  0.8183320781731592  0.3303804673071552  0.9171521481714736
  0.4822764648912680  0.3348750609787076  0.9162668235769033
  0.1512436026510470  0.3322725911428207  0.9166845177836993
  0.8163904316348231  0.0029137929167380  0.9164352775870431
  0.4850666075833976 -0.0003403760616885  0.9163513443018609
  0.1481776407041608  0.0004728913344348  0.9158853822828510
  0.7073344188361190  0.8875075592897077  0.8328671056714360
  0.3742184809229309  0.8883744109062914  0.8325679627780611
  0.0404828226308419  0.8888071861946352  0.8337803484695648
  0.7065918188236323  0.5547044583860060  0.8338046163922148
  0.3718584598440584  0.5529528123053553  0.8339244222293984
  0.0389905801321786  0.5562344955462407  0.8330509416946522
  0.7042661953340482  0.2200602644569895  0.8332523848994028
  0.3694610759040041  0.2249491046663697  0.8339577513634480
  0.0403818495568220  0.2225881571281788  0.8332761530422896
  0.9285291893743431  0.7755117843397870  0.7503733316630775
  0.5938899778035709  0.7784520398347273  0.7507515072212647
  0.2614792404858434  0.7794117806968781  0.7506830695648782
  0.9297800513999591  0.4445517357356116  0.7495483366226059
  0.5951813291758140  0.4462345302540563  0.7492296532481341
  0.2607363684075651  0.4429848741365211  0.7502999666204448
  0.9290391305578627  0.1124988137570408  0.7501773855619653
  0.2636208794802417  0.1108090695644612  0.7505892442069476
  0.2611455069955261  0.1092357526426985  0.5003925943584309
  0.6674444479895341  0.6691944233928090  0.4170032034754470
  0.3321905975264805  0.6695593522561677  0.4172286964507003
  0.6685915038210537  0.3324710532874102  0.1669383804026055
  0.3326238085402639  0.3326969885475566  0.1669966756865157
 -0.0020492780465631  0.3329845782995754  0.1662250872643627
  0.6679556675736085  0.0000094802886514  0.1666128574676593
  0.3316179421225171 -0.0010548431775933  0.1660387770393644
  0.0013712223433734 -0.0018975606700247  0.1670014482302659
  0.5535432116345640  0.8892505633924381  0.0834342179387704
  0.2224419781826088  0.8893837581983777  0.0834884836762336
  0.8895034211684231  0.8864572267507189  0.0840612987539248
  0.5544737293269613  0.5577683169218620  0.0835840022899513
  0.2194263321374559  0.5583019246075431  0.0830793373069515
  0.8865858419811475  0.5557008359225766  0.0834076789838794
  0.5578314363448168  0.2192991029088851  0.0838676133874050
  0.2241344328352671  0.2197070144528394  0.0829733047146419
  0.8887436831622647  0.2215582746536178  0.0827450403929166
  0.7787655252565664  0.7795806196673510  0.0003057331323075
  0.4472615027748679  0.7771367352521076 -0.0002844024826080
  0.1125423723044589  0.7777426140135457  0.0007948340320934
  0.7764685958069293  0.4474305232678409  0.0000031080844361
  0.4448747030412373  0.4449325293341047  0.0001595695097877
  0.1080440969875257  0.4473444052851689 -0.0003437908438950
  0.7780560752491674  0.1135825962330861  0.0003005007495610
  0.4406340201695484  0.1139639442629460  0.0001540745900717
 -0.0004620814949845  0.6676974791718039  0.1663956906659043
  0.3349212770004064  0.6676471673203599  0.1661744373860710
  0.6663076204927697  0.6681688269212694  0.1671137343393884
  0.1114539274034668  0.1097758824534250  0.2501853016200979
 -0.0024891689476800  0.6695096618202169  0.4164750511665236
  0.6673949611437890  0.3356425715801293  0.4165364851854599
  0.3345337124733642  0.3305991750317904  0.4170943170493008
 -0.0014006780743414  0.3328583546281768  0.4172900145797402
  0.6673100697902040 -0.0023622921483796  0.4163185209400876
  0.3329340043203827 -0.0007903010087366  0.4168577698820137
 -0.0020139662051970  0.0027567266531752  0.4173540629718410
  0.5566796936943434  0.8873556069294807  0.3339591543402448
  0.2220067898430777  0.8883139272317596  0.3331631238794018
  0.8872599424511184  0.8902255675498285  0.3325891837173000
  0.5582493744592797  0.5544070382530399  0.3331746404537126
  0.4824455058882617  0.6650147632446405  0.9165746624119252
  0.2224706000231396  0.5562387728783529  0.3336301730164344
  0.5564707500540532  0.2243533769068155  0.3329667677758742
  0.2231430696966022  0.2231708653517893  0.3337546383094681
  0.8899781701832192  0.2241286181005176  0.3339875823496077
  0.7758994877978115  0.7791421977780983  0.2492248488700911
  0.4436526059843412  0.7747690124925256  0.2497469547748772
  0.1141627739706298  0.7764772502951027  0.2496976029876701
  0.7796467323116175  0.4444688155935003  0.2496618192736356
  0.4440088281085327  0.4472929534649617  0.2500140031375914
  0.1140868816449893  0.4436510868244158  0.2504880647832194
  0.7775898930774664  0.1126792186141781  0.2506628180059744
  0.4456218427650148  0.1111546885928148  0.2494962883907466
  0.8897646322367423  0.5585227763974934  0.3336426384005528
  0.8181936100630496  0.6676351618050363  0.9164795775904865
