Cu
 1.0000000000000000
     7.6685730419681093    0.0000000000000000    0.0000000000000000
     3.8342865209840546    6.6411790651208911    0.0000000000000000
     0.0000000000000000    0.0000000000000000   25.0454546774459672
 Cu 
 108
Direct
  0.1092047472212244  0.1117847809474300  0.0007622568371732
  0.2008334306981021  0.6675555064233548  0.6661786178774219
  0.8693924093576342  0.3324921122385215  0.6667766315070327
  0.5353657526748564  0.3320901181171839  0.6664161580981106
  0.1974840549523584  0.3343653593097017  0.6661387884921082
  0.8645822607326036 -0.0002447717326824  0.6662804531022269
  0.5339472435000904  0.0004200266237642  0.6663789565952019
  0.1983903848584423  0.0001865291441213  0.6661359358935536
  0.7543760042433685  0.8869682171048573  0.5825613743302976
  0.4191939567402578  0.8914170068229218  0.5840868006255365
  0.0887870089625441  0.8876533148182025  0.5833210643042038
  0.7537726490573659  0.5585435979409840  0.5825849217937051
  0.4229004168857785  0.5538566239684930  0.5837130633572121
  0.0895744389420591  0.5534978778465801  0.5825674622420904
  0.7549587773559324  0.2203128259654704  0.5833800608015568
  0.4220142897286145  0.2201665963555976  0.5830753879434877
  0.0896619146193097  0.2218325441104512  0.5833577415924049
  0.9799608646734627  0.7767462806343001  0.4999186510686801
  0.6445727425788458  0.7758202232191094  0.4999603260859391
  0.3120998480060978  0.7764303722836220  0.4993777044559106
  0.9768869754825421  0.4450320708328804  0.4992358239394052
  0.6446205768801686  0.4424442318194283  0.4994197413640283
  0.3114564042289867  0.4435662031015135  0.5004585185320317
  0.9746967517036860  0.1136493666715517  0.5003412071265286
  0.5323039749511631  0.6637202605831267  0.6659249264716558
  0.6454482643182197  0.1139018022933731  0.4998954256822801
  0.8679023904225314  0.6645733685009729  0.6659576349702805
  0.6458636378359575  0.1090552510606160  0.7495525727926785
  0.1998698781902860  0.6639436654102473  0.9166148292474817
  0.8667736872593770  0.3326381537317601  0.9161357520120019
  0.5330736369597335  0.3352143151452361  0.9165858416320131
  0.2019584784435085  0.3325019221622623  0.9166512895354363
  0.8675759101439002  0.0004991133045302  0.9163570843760230
  0.5347061282838413  0.0011997765496101  0.9161386478797001
  0.1986946413537621  0.0004220534164836  0.9166455782155974
  0.7541032198203967  0.8883554993690537  0.8330588426524832
  0.4195811539809036  0.8918085388220137  0.8326329323643992
  0.0875481773433109  0.8899922958127496  0.8328793121042787
  0.7569706219701235  0.5533013659027974  0.8332088972590455
  0.4198172314605960  0.5552227343632647  0.8334815704464532
  0.0881185507075958  0.5530391019395746  0.8338529184883258
  0.7563182199588177  0.2192920016143085  0.8332991561651339
  0.4228477439605087  0.2234082469300259  0.8327494854956590
  0.0914019787546009  0.2216571429676812  0.8334782550332790
  0.9795817472251294  0.7784834788717929  0.7506355563155214
  0.6441469186905135  0.7752682203603868  0.7501555195211776
  0.3089988409386663  0.7805440658757130  0.7506984067879907
  0.9776876164695864  0.4427768843200594  0.7493568380321297
  0.6413965407201750  0.4472720098603465  0.7497510682793600
  0.3147137265500655  0.4420991177426125  0.7497350601472583
  0.9770489859462368  0.1086474471433615  0.7492959729880253
  0.3107790357988097  0.1132171179234648  0.7507888671150906
  0.3120324160686030  0.1092713938209420  0.5002583436247835
  0.6684669033286436  0.6638478610425547  0.4168873616485341
  0.3307077391862362  0.6681981035697088  0.4169567428139551
  0.6662038112329136  0.3342420168479389  0.1669028393809783
  0.3326163012956870  0.3339092084363789  0.1661948607874041
 -0.0019442739262249  0.3326356680863660  0.1659542535749989
  0.6684731328298216  0.0008992860075903  0.1658882359688516
  0.3302015924097148  0.0018633399843310  0.1659253844960036
 -0.0004465940317091 -0.0023911034169852  0.1662633895494852
  0.5563859158181494  0.8867518035695606  0.0836843713066986
  0.2219036470198302  0.8904974144803184  0.0839983273938773
  0.8872993631227518  0.8910976333717868  0.0825811252116362
  0.5527240025368144  0.5569704930566004  0.0827405583846548
  0.2207889005435364  0.5555571576149019  0.0829034545912829
  0.8891429315596280  0.5573275959049491  0.0833467285532723
  0.5570118187515478  0.2236211753851539  0.0834057351336961
  0.2214402467639434  0.2248231847526211  0.0838453502944775
  0.8892493268498601  0.2232720413120106  0.0835713896006953
  0.7764765335555101  0.7795550826050899  0.0002441340128017
  0.4475253142734243  0.7762003533765800 -0.0005728614193069
  0.1072919571580963  0.7804551592942514 -0.0006451994441777
  0.7754434124794910  0.4473600591067611 -0.0005999515282630
  0.4434295042137466  0.4415584250907505 -0.0006442207165132
  0.1119512713377433  0.4436587021318413 -0.0007205457199080
  0.7778196182918483  0.1102713511720362  0.0005421102857051
  0.4443267581811874  0.1101117654587475 -0.0005482278631687
  0.0013819944049825  0.6684494908491451  0.1666887960797741
  0.3343569110981730  0.6658349374338847  0.1660887384301064
  0.6676087442690067  0.6656176521759386  0.1658757416657670
  0.1127370722273691  0.1085906460442293  0.2500033810695774
 -0.0027481445093491  0.6670180641727174  0.4158720494705152
  0.6642084579932923  0.3351820709533453  0.4172946243931760
  0.3343167244941612  0.3310790900491763  0.4173499764743172
  0.0014537151547845  0.3319602724458360  0.4163824859595765
  0.6684064744550151  0.0009432249107494  0.4172444822433801
  0.3346676021049798 -0.0001847848800221  0.4173268455371267
  0.0023593389845092 -0.0008904999209471  0.4160105111398047
  0.5549594652359490  0.8873244820162701  0.3338809099118507
  0.2225307064149568  0.8881917550623314  0.3330575803486194
  0.8863128413105379  0.8898856782954061  0.3339235730102005
  0.5543706870990325  0.5584283842641345  0.3331134907209131
  0.5350182944927764  0.6652330798220513  0.9172794986806240
  0.2215586257630137  0.5578528924330951  0.3326792767791581
  0.5550042885361356  0.2220498912990818  0.3340417212827789
  0.2212804269579877  0.2249081635097732  0.3339578306049191
  0.8904566086585750  0.2216284286222689  0.3326503521338299
  0.7777514375213859  0.7755122805543145  0.2498272420512553
  0.4466611318662502  0.7777655596708911  0.2499227796379641
  0.1092868296708361  0.7801002137867097  0.2502380487019004
  0.7799988193284410  0.4431567127023481  0.2506762681022089
  0.4466019390938142  0.4432811734789035  0.2501953343753895
  0.1117298346276328  0.4466664252970710  0.2492671652551362
  0.7773078878569086  0.1124442836881258  0.2493815594602000
  0.4446022224712814  0.1085289360349474  0.2494738559782220
  0.8910087088992309  0.5546433705819197  0.3326669652197993
  0.8680690163220700  0.6672916129617633  0.9160793513381129
