Generated generic
1.0
   17.89333710    0.00000000    0.00000000
    8.94666855   15.49608449    0.00000000
    0.00000000    0.00000000   14.61016667
 Cu
 328
Selective dynamics
Direct
    0.00000000    0.00000000    0.00000000 F F F
    0.14285714    0.00000000    0.00000000 F F F
    0.28571429    0.00000000    0.00000000 F F F
    0.42857143    0.00000000    0.00000000 F F F
    0.57142857    0.00000000    0.00000000 F F F
    0.71428571    0.00000000    0.00000000 F F F
    0.85714286    0.00000000    0.00000000 F F F
    0.00000000    0.14285714    0.00000000 F F F
    0.14285714    0.14285714    0.00000000 F F F
    0.28571429    0.14285714    0.00000000 F F F
    0.42857143    0.14285714    0.00000000 F F F
    0.57142857    0.14285714    0.00000000 F F F
    0.71428571    0.14285714    0.00000000 F F F
    0.85714286    0.14285714    0.00000000 F F F
    0.00000000    0.28571429    0.00000000 F F F
    0.14285714    0.28571429    0.00000000 F F F
    0.28571429    0.28571429    0.00000000 F F F
    0.42857143    0.28571429    0.00000000 F F F
    0.57142857    0.28571429    0.00000000 F F F
    0.71428571    0.28571429    0.00000000 F F F
    0.85714286    0.28571429    0.00000000 F F F
    0.00000000    0.42857143    0.00000000 F F F
    0.14285714    0.42857143    0.00000000 F F F
    0.28571429    0.42857143    0.00000000 F F F
    0.42857143    0.42857143    0.00000000 F F F
    0.57142857    0.42857143    0.00000000 F F F
    0.71428571    0.42857143    0.00000000 F F F
    0.85714286    0.42857143    0.00000000 F F F
    1.00000000    0.57142857    0.00000000 F F F
    0.14285714    0.57142857    0.00000000 F F F
    0.28571429    0.57142857    0.00000000 F F F
    0.42857143    0.57142857    0.00000000 F F F
    0.57142857    0.57142857    0.00000000 F F F
    0.71428571    0.57142857    0.00000000 F F F
    0.85714286    0.57142857    0.00000000 F F F
    0.00000000    0.71428571    0.00000000 F F F
    0.14285714    0.71428571    0.00000000 F F F
    0.28571429    0.71428571    0.00000000 F F F
    0.42857143    0.71428571    0.00000000 F F F
    0.57142857    0.71428571    0.00000000 F F F
    0.71428571    0.71428571    0.00000000 F F F
    0.85714286    0.71428571    0.00000000 F F F
    1.00000000    0.85714286    0.00000000 F F F
    0.14285714    0.85714286    0.00000000 F F F
    0.28571429    0.85714286    0.00000000 F F F
    0.42857143    0.85714286    0.00000000 F F F
    0.57142857    0.85714286    0.00000000 F F F
    0.71428571    0.85714286    0.00000000 F F F
    0.85714286    0.85714286    0.00000000 F F F
    0.04761905    0.04761905    0.14285403 T T T
    0.19047619    0.04761905    0.14285403 T T T
    0.33333333    0.04761905    0.14285403 T T T
    0.47619048    0.04761905    0.14285403 T T T
    0.61904762    0.04761905    0.14285403 T T T
    0.76190476    0.04761905    0.14285403 T T T
    0.90476190    0.04761905    0.14285403 T T T
    0.04761905    0.19047619    0.14285403 T T T
    0.19047619    0.19047619    0.14285403 T T T
    0.33333333    0.19047619    0.14285403 T T T
    0.47619048    0.19047619    0.14285403 T T T
    0.61904762    0.19047619    0.14285403 T T T
    0.76190476    0.19047619    0.14285403 T T T
    0.90476190    0.19047619    0.14285403 T T T
    0.04761905    0.33333333    0.14285403 T T T
    0.19047619    0.33333333    0.14285403 T T T
    0.33333333    0.33333333    0.14285403 T T T
    0.47619048    0.33333333    0.14285403 T T T
    0.61904762    0.33333333    0.14285403 T T T
    0.76190476    0.33333333    0.14285403 T T T
    0.90476190    0.33333333    0.14285403 T T T
    0.04761905    0.47619048    0.14285403 T T T
    0.19047619    0.47619048    0.14285403 T T T
    0.33333333    0.47619048    0.14285403 T T T
    0.47619048    0.47619048    0.14285403 T T T
    0.61904762    0.47619048    0.14285403 T T T
    0.76190476    0.47619048    0.14285403 T T T
    0.90476190    0.47619048    0.14285403 T T T
    0.04761905    0.61904762    0.14285403 T T T
    0.19047619    0.61904762    0.14285403 T T T
    0.33333333    0.61904762    0.14285403 T T T
    0.47619048    0.61904762    0.14285403 T T T
    0.61904762    0.61904762    0.14285403 T T T
    0.76190476    0.61904762    0.14285403 T T T
    0.90476190    0.61904762    0.14285403 T T T
    0.04761905    0.76190476    0.14285403 T T T
    0.19047619    0.76190476    0.14285403 T T T
    0.33333333    0.76190476    0.14285403 T T T
    0.47619048    0.76190476    0.14285403 T T T
    0.61904762    0.76190476    0.14285403 T T T
    0.76190476    0.76190476    0.14285403 T T T
    0.90476190    0.76190476    0.14285403 T T T
    0.04761905    0.90476190    0.14285403 T T T
    0.19047619    0.90476190    0.14285403 T T T
    0.33333333    0.90476190    0.14285403 T T T
    0.47619048    0.90476190    0.14285403 T T T
    0.61904762    0.90476190    0.14285403 T T T
    0.76190476    0.90476190    0.14285403 T T T
    0.90476190    0.90476190    0.14285403 T T T
    0.95238095    0.09523810    0.28570806 T T T
    0.09523810    0.09523810    0.28570806 T T T
    0.23809524    0.09523810    0.28570806 T T T
    0.38095238    0.09523810    0.28570806 T T T
    0.52380952    0.09523810    0.28570806 T T T
    0.66666667    0.09523810    0.28570806 T T T
    0.80952381    0.09523810    0.28570806 T T T
    0.95238095    0.23809524    0.28570806 T T T
    0.09523810    0.23809524    0.28570806 T T T
    0.23809524    0.23809524    0.28570806 T T T
    0.38095238    0.23809524    0.28570806 T T T
    0.52380952    0.23809524    0.28570806 T T T
    0.66666667    0.23809524    0.28570806 T T T
    0.80952381    0.23809524    0.28570806 T T T
    0.95238095    0.38095238    0.28570806 T T T
    0.09523810    0.38095238    0.28570806 T T T
    0.23809524    0.38095238    0.28570806 T T T
    0.38095238    0.38095238    0.28570806 T T T
    0.52380952    0.38095238    0.28570806 T T T
    0.66666667    0.38095238    0.28570806 T T T
    0.80952381    0.38095238    0.28570806 T T T
    0.95238095    0.52380952    0.28570806 T T T
    0.09523810    0.52380952    0.28570806 T T T
    0.23809524    0.52380952    0.28570806 T T T
    0.38095238    0.52380952    0.28570806 T T T
    0.52380952    0.52380952    0.28570806 T T T
    0.66666667    0.52380952    0.28570806 T T T
    0.80952381    0.52380952    0.28570806 T T T
    0.95238095    0.66666667    0.28570806 T T T
    0.09523810    0.66666667    0.28570806 T T T
    0.23809524    0.66666667    0.28570806 T T T
    0.38095238    0.66666667    0.28570806 T T T
    0.52380952    0.66666667    0.28570806 T T T
    0.66666667    0.66666667    0.28570806 T T T
    0.80952381    0.66666667    0.28570806 T T T
    0.95238095    0.80952381    0.28570806 T T T
    0.09523810    0.80952381    0.28570806 T T T
    0.23809524    0.80952381    0.28570806 T T T
    0.38095238    0.80952381    0.28570806 T T T
    0.52380952    0.80952381    0.28570806 T T T
    0.66666667    0.80952381    0.28570806 T T T
    0.80952381    0.80952381    0.28570806 T T T
    0.95238095    0.95238095    0.28570806 T T T
    0.09523810    0.95238095    0.28570806 T T T
    0.23809524    0.95238095    0.28570806 T T T
    0.38095238    0.95238095    0.28570806 T T T
    0.52380952    0.95238095    0.28570806 T T T
    0.66666667    0.95238095    0.28570806 T T T
    0.80952381    0.95238095    0.28570806 T T T
    0.00000000    0.00000000    0.42856210 T T T
    0.14285714    0.00000000    0.42856210 T T T
    0.28571429    0.00000000    0.42856210 T T T
    0.42857143    0.00000000    0.42856210 T T T
    0.57142857    0.00000000    0.42856210 T T T
    0.71428571    0.00000000    0.42856210 T T T
    0.85714286    0.00000000    0.42856210 T T T
    0.00000000    0.14285714    0.42856210 T T T
    0.14285714    0.14285714    0.42856210 T T T
    0.28571429    0.14285714    0.42856210 T T T
    0.42857143    0.14285714    0.42856210 T T T
    0.57142857    0.14285714    0.42856210 T T T
    0.71428571    0.14285714    0.42856210 T T T
    0.85714286    0.14285714    0.42856210 T T T
    0.00000000    0.28571429    0.42856210 T T T
    0.14285714    0.28571429    0.42856210 T T T
    0.28571429    0.28571429    0.42856210 T T T
    0.42857143    0.28571429    0.42856210 T T T
    0.57142857    0.28571429    0.42856210 T T T
    0.71428571    0.28571429    0.42856210 T T T
    0.85714286    0.28571429    0.42856210 T T T
    0.00000000    0.42857143    0.42856210 T T T
    0.14285714    0.42857143    0.42856210 T T T
    0.28571429    0.42857143    0.42856210 T T T
    0.42857143    0.42857143    0.42856210 T T T
    0.57142857    0.42857143    0.42856210 T T T
    0.71428571    0.42857143    0.42856210 T T T
    0.85714286    0.42857143    0.42856210 T T T
    1.00000000    0.57142857    0.42856210 T T T
    0.14285714    0.57142857    0.42856210 T T T
    0.28571429    0.57142857    0.42856210 T T T
    0.42857143    0.57142857    0.42856210 T T T
    0.57142857    0.57142857    0.42856210 T T T
    0.71428571    0.57142857    0.42856210 T T T
    0.85714286    0.57142857    0.42856210 T T T
    0.00000000    0.71428571    0.42856210 T T T
    0.14285714    0.71428571    0.42856210 T T T
    0.28571429    0.71428571    0.42856210 T T T
    0.42857143    0.71428571    0.42856210 T T T
    0.57142857    0.71428571    0.42856210 T T T
    0.71428571    0.71428571    0.42856210 T T T
    0.85714286    0.71428571    0.42856210 T T T
    1.00000000    0.85714286    0.42856210 T T T
    0.14285714    0.85714286    0.42856210 T T T
    0.28571429    0.85714286    0.42856210 T T T
    0.42857143    0.85714286    0.42856210 T T T
    0.57142857    0.85714286    0.42856210 T T T
    0.71428571    0.85714286    0.42856210 T T T
    0.85714286    0.85714286    0.42856210 T T T
    0.04761905    0.04761905    0.57141613 T T T
    0.19047619    0.04761905    0.57141613 T T T
    0.33333333    0.04761905    0.57141613 T T T
    0.47619048    0.04761905    0.57141613 T T T
    0.61904762    0.04761905    0.57141613 T T T
    0.76190476    0.04761905    0.57141613 T T T
    0.90476190    0.04761905    0.57141613 T T T
    0.04761905    0.19047619    0.57141613 T T T
    0.19047619    0.19047619    0.57141613 T T T
    0.33333333    0.19047619    0.57141613 T T T
    0.47619048    0.19047619    0.57141613 T T T
    0.61904762    0.19047619    0.57141613 T T T
    0.76190476    0.19047619    0.57141613 T T T
    0.90476190    0.19047619    0.57141613 T T T
    0.04761905    0.33333333    0.57141613 T T T
    0.19047619    0.33333333    0.57141613 T T T
    0.33333333    0.33333333    0.57141613 T T T
    0.47619048    0.33333333    0.57141613 T T T
    0.61904762    0.33333333    0.57141613 T T T
    0.76190476    0.33333333    0.57141613 T T T
    0.90476190    0.33333333    0.57141613 T T T
    0.04761905    0.47619048    0.57141613 T T T
    0.19047619    0.47619048    0.57141613 T T T
    0.33333333    0.47619048    0.57141613 T T T
    0.47619048    0.47619048    0.57141613 T T T
    0.61904762    0.47619048    0.57141613 T T T
    0.76190476    0.47619048    0.57141613 T T T
    0.90476190    0.47619048    0.57141613 T T T
    0.04761905    0.61904762    0.57141613 T T T
    0.19047619    0.61904762    0.57141613 T T T
    0.33333333    0.61904762    0.57141613 T T T
    0.47619048    0.61904762    0.57141613 T T T
    0.61904762    0.61904762    0.57141613 T T T
    0.76190476    0.61904762    0.57141613 T T T
    0.90476190    0.61904762    0.57141613 T T T
    0.04761905    0.76190476    0.57141613 T T T
    0.19047619    0.76190476    0.57141613 T T T
    0.33333333    0.76190476    0.57141613 T T T
    0.47619048    0.76190476    0.57141613 T T T
    0.61904762    0.76190476    0.57141613 T T T
    0.76190476    0.76190476    0.57141613 T T T
    0.90476190    0.76190476    0.57141613 T T T
    0.04761905    0.90476190    0.57141613 T T T
    0.19047619    0.90476190    0.57141613 T T T
    0.33333333    0.90476190    0.57141613 T T T
    0.47619048    0.90476190    0.57141613 T T T
    0.61904762    0.90476190    0.57141613 T T T
    0.76190476    0.90476190    0.57141613 T T T
    0.90476190    0.90476190    0.57141613 T T T
    0.95238095    0.09523810    0.71427016 T T T
    0.09523810    0.09523810    0.71427016 T T T
    0.23809524    0.09523810    0.71427016 T T T
    0.38095238    0.09523810    0.71427016 T T T
    0.52380952    0.09523810    0.71427016 T T T
    0.66666667    0.09523810    0.71427016 T T T
    0.80952381    0.09523810    0.71427016 T T T
    0.95238095    0.23809524    0.71427016 T T T
    0.09523810    0.23809524    0.71427016 T T T
    0.23809524    0.23809524    0.71427016 T T T
    0.38095238    0.23809524    0.71427016 T T T
    0.52380952    0.23809524    0.71427016 T T T
    0.66666667    0.23809524    0.71427016 T T T
    0.80952381    0.23809524    0.71427016 T T T
    0.95238095    0.38095238    0.71427016 T T T
    0.09523810    0.38095238    0.71427016 T T T
    0.23809524    0.38095238    0.71427016 T T T
    0.38095238    0.38095238    0.71427016 T T T
    0.52380952    0.38095238    0.71427016 T T T
    0.66666667    0.38095238    0.71427016 T T T
    0.80952381    0.38095238    0.71427016 T T T
    0.95238095    0.66666667    0.71427016 T T T
    0.09523810    0.66666667    0.71427016 T T T
    0.23809524    0.66666667    0.71427016 T T T
    0.38095238    0.66666667    0.71427016 T T T
    0.52380952    0.66666667    0.71427016 T T T
    0.66666667    0.66666667    0.71427016 T T T
    0.80952381    0.66666667    0.71427016 T T T
    0.95238095    0.80952381    0.71427016 T T T
    0.09523810    0.80952381    0.71427016 T T T
    0.23809524    0.80952381    0.71427016 T T T
    0.38095238    0.80952381    0.71427016 T T T
    0.52380952    0.80952381    0.71427016 T T T
    0.66666667    0.80952381    0.71427016 T T T
    0.80952381    0.80952381    0.71427016 T T T
    0.95238095    0.95238095    0.71427016 T T T
    0.09523810    0.95238095    0.71427016 T T T
    0.23809524    0.95238095    0.71427016 T T T
    0.38095238    0.95238095    0.71427016 T T T
    0.52380952    0.95238095    0.71427016 T T T
    0.66666667    0.95238095    0.71427016 T T T
    0.80952381    0.95238095    0.71427016 T T T
    0.00000000    0.00000000    0.85712419 F F F
    0.14285714    0.00000000    0.85712419 F F F
    0.28571429    0.00000000    0.85712419 F F F
    0.42857143    0.00000000    0.85712419 F F F
    0.57142857    0.00000000    0.85712419 F F F
    0.71428571    0.00000000    0.85712419 F F F
    0.85714286    0.00000000    0.85712419 F F F
    0.00000000    0.14285714    0.85712419 F F F
    0.14285714    0.14285714    0.85712419 F F F
    0.28571429    0.14285714    0.85712419 F F F
    0.42857143    0.14285714    0.85712419 F F F
    0.57142857    0.14285714    0.85712419 F F F
    0.71428571    0.14285714    0.85712419 F F F
    0.85714286    0.14285714    0.85712419 F F F
    0.00000000    0.28571429    0.85712419 F F F
    0.14285714    0.28571429    0.85712419 F F F
    0.28571429    0.28571429    0.85712419 F F F
    0.42857143    0.28571429    0.85712419 F F F
    0.57142857    0.28571429    0.85712419 F F F
    0.71428571    0.28571429    0.85712419 F F F
    0.85714286    0.28571429    0.85712419 F F F
    0.00000000    0.71428571    0.85712419 F F F
    0.14285714    0.71428571    0.85712419 F F F
    0.28571429    0.71428571    0.85712419 F F F
    0.42857143    0.71428571    0.85712419 F F F
    0.57142857    0.71428571    0.85712419 F F F
    0.71428571    0.71428571    0.85712419 F F F
    0.85714286    0.71428571    0.85712419 F F F
    1.00000000    0.85714286    0.85712419 F F F
    0.14285714    0.85714286    0.85712419 F F F
    0.28571429    0.85714286    0.85712419 F F F
    0.42857143    0.85714286    0.85712419 F F F
    0.57142857    0.85714286    0.85712419 F F F
    0.71428571    0.85714286    0.85712419 F F F
    0.85714286    0.85714286    0.85712419 F F F
    0.80952381    0.52380952    0.85712419 F F F
    0.66666667    0.52380952    0.85712419 F F F
    0.52380952    0.52380952    0.85712419 F F F
    0.38095238    0.52380952    0.85712419 F F F
    0.23809524    0.52380952    0.85712419 F F F
    0.09523810    0.52380952    0.85712419 F F F
