Cu
 1.0000000000000000
    13.6820249999999994    0.0000000000000000    0.0000000000000000
     0.0000000000000000   13.4336509332018821    0.0000000000000000
     0.0000000000000000    0.0000000000000000   14.6885500000000011
 Cu 
 207
Direct
  0.0464669886219327  0.1160388545416370  0.4412518594415377
  0.6792534365344312  0.0246042917330858  0.5570236680952170
  0.7793336512687263  0.1222397004929131  0.6812394688379724
  0.6848958761586824  0.0287878156521940  0.8166020471727977
  0.7877973107051036  0.1372765658249388  0.9548416964234044
  0.7850637972083808  0.3039028992863581  0.1789189538790418
  0.6977667779440541  0.2035578771696706  0.3120781152666532
  0.7785735298685683  0.3062700889772411  0.4319132930071381
  0.6798381453037833  0.2163392127018926  0.5619084252700232
  0.7796990942495718  0.3118233075602566  0.6837591184970606
  0.6958080035667231  0.2235375536801445  0.8172433630276643
  0.7795309904783831  0.1091680492438848  0.4358333531900698
  0.7871395133395821  0.3237188079565820  0.9441136123034608
  0.6746561638353967  0.3920248853262202  0.2978221812227891
  0.7694447642070523  0.4918860479148968  0.4272743054964581
  0.6817092133657116  0.3997889697526080  0.5542419095145539
  0.7648182560695508  0.4984590935031041  0.6948759407838078
  0.6805105603885386  0.4007715767941065  0.8173413985723573
  0.7700952527129572  0.5016972303444068  0.9417253575063569
  0.7729164725250827  0.6651077589427389  0.1673677796651133
  0.6653958387007767  0.5762264856435370  0.2964652739719032
  0.7675079164085723  0.6830254494646135  0.4201272419673827
  0.6811829754732940  0.5829632990719941  0.5535692767495769
  0.7613465477515204  0.4891317706016050  0.1643702067256468
  0.7622966995017181  0.6842239322955326  0.6943762318268309
  0.6079043489541931  0.0425070942694829  0.2603958865919372
  0.4922416455166540  0.9727233148737471  0.8078680332640048
  0.4937838148958210  0.3932754761063095  0.2979164042740774
  0.5945437535744887  0.4951092967707223  0.4324007475210283
  0.4966561967252654  0.3966401608241689  0.5528748583080018
  0.5800502849541641  0.4951465167344153  0.6835766634555487
  0.4921100860435495  0.3965359449258281  0.8148959563741824
  0.5830030642393941  0.4993300406535235  0.9347246664919273
  0.5925118906009889  0.6657553863109998  0.1630528540938350
  0.4869646488732476  0.5793604065864987  0.3030784522638382
  0.5862189624708330  0.6863305822405635  0.4217475516643916
  0.4993458570642868  0.5925511617193451  0.5611847323255187
  0.6893688982442290  0.1454426258592123  0.1408273791490651
  0.5856634891399479  0.6778593185040066  0.6802999615346647
  0.5807592443370042  0.6891965194449352  0.9382498612865121
  0.5791439863616679  0.8548104698939006  0.1748886037083306
  0.4876297550983864  0.7714824151777140  0.3036908340169723
  0.5789466471520111  0.8768893523566677  0.4277958001300332
  0.4918981291146595  0.7790603997856357  0.5607108938595027
  0.5762058247956716  0.8744774987093524  0.6823621119851856
  0.4850204922151505  0.7850230379692757  0.8063130805967912
  0.5820309859103455  0.8737703193991827  0.9430658574195546
  0.4917227164838536  0.9688003307004908  0.2998587335033069
  0.4866942210674219  0.9652048822077343  0.5549547096207589
  0.4804086017968828  0.5954170989237162  0.8067392628952482
  0.5822648694180865  0.4928984309273500  0.1760187356818746
  0.6695180355247120  0.5890450411394519  0.8164972036041677
  0.7745171127811853  0.8604679043752570  0.1652974595858679
  0.8600819323163055  0.4036151820202619  0.5636009000207644
  0.9640285337879442  0.5001042158983408  0.6858675635103533
  0.8699050396414273  0.4191359068802985  0.8127064958760394
  0.9534526139222810  0.5110915491805536  0.9384302739208430
  0.8662067566752726  0.5856282484724225  0.0451583035765954
  0.9473277895633139  0.6672069648950321  0.1699868264736819
  0.8530361916456078  0.5789956509423060  0.3036040997920148
  0.9553236819842087  0.6756037887042029  0.4295849488206800
  0.8635974937920372  0.5873329228095679  0.5697662464981226
  0.9532041126953062  0.6930971716399755  0.6837986050358952
  0.9503828928831802  0.4920498157551467  0.4313754591161142
  0.8632247419515751  0.5981564882515308  0.8163154293650495
  0.9559741704901137  0.8561801645578080  0.1762781213938748
  0.8707309407781376  0.7728818858125757  0.3053153646888223
  0.9506606295486231  0.8685371925039285  0.4250433160522992
  0.8604619930163843  0.7772589535428885  0.5645792130605132
  0.9540957935685688  0.8812515321015028  0.6903615401111749
  0.8714910621782956  0.7850230379692757  0.8113775696035347
  0.9486580020135909  0.8980823996835373  0.9349847330063211
  0.8663310072887600  0.9556170195603827  0.0476895268763765
  0.8601111677547730  0.9562572029359048  0.2912360307858842
  0.8622892079206107  0.9682122552741393  0.5524023814467731
  0.9500320676215691  0.7052606557748912  0.9458796137127217
  0.7613611654707543  0.6941244426379057  0.9461328722031785
  0.8637802152824596  0.3945111789009216  0.3089410459167174
  0.9702556821815481  0.3261157736184198  0.9408947785860413
  0.6876220807957886  0.7670011315490606  0.2969023491086594
  0.7687796579819141  0.8654181595464435  0.4295311654315776
  0.6711990732366001  0.7794549314007834  0.5536019552644746
  0.7693205135935649  0.8746487105423407  0.6848817616442738
  0.6723831084945393  0.7822613166632456  0.8103325379292032
  0.7590004038144936  0.8732939038639107  0.9316488012771852
  0.6816288159099255  0.9511059599607754  0.0574399787589653
  0.6785810214496758  0.9523044427916939  0.2983545006144241
  0.6793703782883014  0.9681005953830599  0.5463997467415094
  0.6745757663796111  0.9672668681963336  0.8096394810924155
  0.9600890584544318  0.4809805985528088  0.1764190474893710
  0.8715933862129326  0.1345595084753401  0.1400982397854111
  0.9697586797275987  0.1103069801328946  0.4352417359099434
  0.9597236154735863  0.1216739570447775  0.6829067539001467
  0.8703216446395907  0.0341921543804370  0.8184654033243579
  0.9660165436037427  0.1265646602740552  0.9450606084330991
  0.9609661216084606  0.2914044354782037  0.1810689278383502
  0.8773746941699051  0.2054263193470660  0.3189988800800623
  0.9606737672237839  0.3045803026255731  0.4422839558703888
  0.8710890748993659  0.2149992940089397  0.5592185750125096
  0.9622451720414190  0.3090764742397034  0.6867893699514246
  0.8760664082984790  0.2216914434809651  0.8344247730375018
  0.7892590826284851  0.0411820635620073  0.2620273614482028
  0.8432934817762721  0.9739441296828817  0.8160941685870966
  0.5897418328061814  0.2965110144969015  0.9418363282965302
  0.5880096330769748  0.3059499972894804  0.6914732904200891
  0.1302703729893782  0.3973250081561225  0.3106258956806492
  0.2192630476848270  0.4893253144128094  0.4359633864472667
  0.1206153694354452  0.3996400898978353  0.5667060397384356
  0.2121003652602591  0.4914096323796248  0.6881325930741972
  0.1260239255519555  0.4216222004549999  0.8133784478386225
  0.2166245493631241  0.5150294213392871  0.9544202797417034
  0.1258923660788515  0.5901988600139392  0.0584713943854227
  0.2146803927050269  0.6780975262716425  0.1862777469525583
  0.1099882875524635  0.5976651847307816  0.3114790772404355
  0.2081608899267468  0.6815217629314108  0.4435652259753345
  0.2252855480091576  0.4940448058090985  0.1780659084797342
  0.1201476024199632  0.5928042574724582  0.5609457706853297
  0.1156234183170982  0.6057791368158847  0.8138073533466542
  0.2039509867874088  0.6950772737084498  0.9430971743296648
  0.1264405305501195  0.7755617231984814  0.0617038441507160
  0.2216676624987895  0.8646737602725810  0.1812527444846496
  0.1219309641664883  0.7758445949225491  0.3147063529075368
  0.2081097279094283  0.8733311238276040  0.4364317784941331
  0.1179914888329760  0.7805343103478840  0.5601444662679433
  0.2107043730734299  0.8755866536274076  0.6897420099329069
  0.1115085303527801  0.7857376612721838  0.8162269250538684
  0.2073349887900365  0.8956482140580065  0.9406728370056948
  0.2079635507170905  0.6817153067426152  0.6814096694363976
  0.1284504669447684  0.9512920597792409  0.0554329733023341
  0.2184079111096492  0.3245674231287856  0.9546796654537035
  0.2245035000301487  0.3142053852366171  0.6914174646238055
  0.0414311843458844  0.1219866047397996  0.7043942390501443
  0.0365707927006415  0.1420481651703985  0.9478736839238726
  0.0297443178184515  0.3033743758019155  0.1831991585282414
  0.0394212479512350  0.3124262709720855  0.4386750223813786
  0.0344731499905894  0.3159249475592401  0.6867056312569993
  0.0400936630359903  0.3186717808797933  0.9538552137549314
  0.0444716699465170  0.4862807213827111  0.1849821799973448
  0.0355402434946578  0.5065432696172526  0.4475118374516204
  0.0316884744765481  0.5100419462044072  0.6854264035592349
  0.0331502463999296  0.5152825170924004  0.9471418213506437
  0.1271348722137253  0.2328127686324734  0.8220988456995414
  0.0392969973377476  0.6787153776689485  0.1843360985257224
  0.1192924658447854  0.1468793164577673  0.1405332725149862
  0.0420597462729384  0.0407130920194739  0.2718490933414122
  0.2239626444184978  0.1104856359586215  0.4271286137842060
  0.2308329724583897  0.1346935003446353  0.6927749845968457
  0.1372941870812250  0.0467278381522842  0.8301888205438929
  0.2203301411888954  0.1378199772948586  0.9441919045787364
  0.2172750378690285  0.3065827366722635  0.1680901110048303
  0.1348822634076459  0.2106222262786275  0.3101037883249197
  0.2253586366053270  0.3067167285415587  0.4372589534024801
  0.1291374997487576  0.2142325627568611  0.5676223997603574
  0.0303071000089533  0.8690954919593256  0.1901651286205922
  0.5007783935492002  0.2153714936458710  0.8153731988521670
  0.1256000116941750  0.9597186595593662  0.2985240884906951
  0.1284577758043856  0.9749192927316419  0.8124028580084487
  0.3855615305482921  0.6938936788630086  0.9495668394770075
  0.4050030971292622  0.8520115286241772  0.1685292285487676
  0.3124583166599971  0.7717950628727361  0.3101106644290961
  0.3995287612761996  0.8667580782393963  0.4318826568994216
  0.3083507375552961  0.7734550732534500  0.5590790105218010
  0.3983666525971119  0.8775593117031436  0.6913010474144826
  0.2968465925182857  0.7835193514360735  0.8162119474012069
  0.3956331391003887  0.8691327119230183  0.9338144336915488
  0.3068451124742133  0.9497064893259132  0.0493459191002516
  0.3154330225240780  0.9563688628269841  0.2967224130360042
  0.3066404644049399  0.5928191454579355  0.8190502125805472
  0.3099659955306320  0.9772939264152638  0.5663567881104670
  0.5138685611230790  0.1328548341381946  0.1348839742520535
  0.4014802267939139  0.0555340815620796  0.2669275047571067
  0.5943098700667477  0.1168055857937156  0.4389466625364654
  0.5891790506156797  0.1140364204949464  0.6791208117887741
  0.5075610152736894  0.0227060735847362  0.8160376619884194
  0.5994991603947515  0.1151753513839562  0.9436670059331927
  0.5961517026902085  0.3121880632044495  0.1725868108152268
  0.5057264915098458  0.2087612280939706  0.3001542017421733
  0.5944121941013847  0.3047738464367772  0.4289783538878922
  0.4993604747835206  0.2269171263834810  0.5635348621885753
  0.3126044938523354  0.9722692313166906  0.8046791548519083
  0.1232611766167652  0.9669467765085725  0.5527693339369780
  0.3951726809445238  0.6850799914604745  0.6843330349149507
  0.3989001993491456  0.6777997665620977  0.4315572333552324
  0.3068962744915318  0.1466559966756085  0.1352332258800222
  0.2307891193006878  0.0422093345599378  0.2722886874470250
  0.4098707976341218  0.1098231206048837  0.4325750329338158
  0.4062675298429869  0.1166641499316818  0.6851037032246204
  0.3155353465587144  0.0375047311491258  0.8160363003836321
  0.4031978088038868  0.1331079298913078  0.9481895762345499
  0.4037825175732390  0.2991238559481598  0.1715479063624388
  0.3220402316177608  0.2102202506707415  0.3002271156785387
  0.4081897599222337  0.3043793148216301  0.4304958624234522
  0.3105214688615171  0.2103095785836051  0.5497744842070864
  0.3051056038853895  0.5804844494900311  0.5607442531767941
  0.4028616012615088  0.2979774810664110  0.6886785965939456
  0.4025692468768328  0.3186196729306228  0.9490930010109914
  0.4028469835422751  0.4830649165196241  0.1627335577711891
  0.3177499310226373  0.3897619115336777  0.3017355014620231
  0.4032124265231206  0.4953772805093128  0.4376054818208740
  0.3110988687712526  0.3941538672494675  0.5585282413852967
  0.4014071381977445  0.4940596937945758  0.6926395049204993
  0.3146509745450690  0.4113197145047405  0.8227830521052111
  0.3972264704968741  0.5140840342614816  0.9486729459340778
  0.4059020868621420  0.6654204066377616  0.1760997511667251
  0.3180057411092286  0.5792040827389876  0.3060142764261959
  0.3219963784600595  0.2195699055504564  0.8201429004224379
  0.9688158368370177  0.0487228282062362  0.2638873135877945
