Cu
 1.0000000000000000
    13.8195248199999980    0.0000000000000000    0.0000000000000000
     0.0000000000000000   13.4274972359015532    0.0000000000000000
     0.0000000000000000    0.0000000000000000   15.8450159999999975
 Cu 
 242
Direct
  0.0287283691133452  0.1107502456954278  0.1381291126496809
  0.6631134231719550  0.1978029539897682  0.2477219335089341
  0.7551498728014874  0.3009792924883389  0.3658410947644356
  0.6753280254971887  0.1994935147548308  0.4791953507651870
  0.7702951113481192  0.2810798283286609  0.6065224547580135
  0.6917612967534721  0.2354942669059849  0.7512367295810872
  0.8804942694115004  0.3126717171630001  0.8954334915155658
  0.6848218396267549  0.3876074987403508  0.0117171229110779
  0.7647884097074180  0.4715397446533644  0.1242004425871199
  0.6736130605972597  0.3878383682721435  0.2476840667122077
  0.7781029051330288  0.4795754938405997  0.3630641963378264
  0.6815366326032619  0.3991062909044761  0.4873998233892599
  0.6954010745790602  0.4555948521511674  0.6380907409623316
  0.7613946606016515  0.2911785084935272  0.1351881247705903
  0.7884505836431500  0.3807409920205815  0.7728208037151870
  0.7635799745247681  0.6537404896632916  0.1250272009823150
  0.6901765823522721  0.5753640073218049  0.2439541872346483
  0.6883530753700691  0.6398212911174687  0.3943863483634222
  0.5950358291697037  0.5554496483536239  0.5135089797321759
  0.7927488501012001  0.6312195392071289  0.6596495705652805
  0.6990842692375583  0.5395196506599296  0.7883398792402606
  0.7034983139167008  0.6210463849997485  0.9345183368700921
  0.6826292895648199  0.8084528655813876  0.1450966032473552
  0.5962949173240817  0.7390654001713124  0.2632851869635220
  0.7909977045071797  0.8163173244708414  0.4132566353987903
  0.6877814204034255  0.7205734954151444  0.5398453368554503
  0.6997065771759288  0.7909738078034071  0.6899556302120492
  0.7981687180760817  0.4648147386143714  0.9168787207283351
  0.6111507103179830  0.7004878461491821  0.8085670598249948
  0.8004698102202908  0.1467956822720904  0.8918929460216388
  0.8698860899039217  0.1242970740286816  0.6372387380359855
  0.4907630687984825  0.5907503445051487  0.0115404111930209
  0.5760409647717537  0.6628412176584736  0.1283847236253975
  0.4936068713540611  0.5760342737044288  0.2448377458249332
  0.5093237648673364  0.6572780066826953  0.3893879311955254
  0.4124535745072019  0.5391994122771203  0.5108267482973825
  0.5969316975400891  0.6192366657666640  0.6609496639195569
  0.5100690871656174  0.5441072516787774  0.7845531995676118
  0.5181446180868031  0.6313238028666482  0.9322526401992905
  0.5041209810570023  0.8244647847218475  0.1407545438893845
  0.4032130252362758  0.7391547690223292  0.2658601291409237
  0.6053907438186429  0.8139043654933952  0.4147145070727602
  0.5143528813460315  0.7211320507339977  0.5307888613050310
  0.6974127211705388  0.0589907861483608  0.7754588572204660
  0.4958283659712691  0.7988159244801066  0.6879613122511203
  0.4212165386161226  0.7835636405732875  0.9678726736533432
  0.4927819515287791  0.8986409310655580  0.2853930851190054
  0.5055175558489278  0.9726532345157380  0.4238151605526934
  0.4222078896342251  0.8847142851154834  0.5503786174782025
  0.4292920695373083  0.9565221569072565  0.6987785938493217
  0.3316114316295281  0.8737144690362003  0.8258027634683360
  0.3403165066279027  0.9534985107811973  0.9712743742259395
  0.3137960578589557  0.9461851598063455  0.0193409713186783
  0.4094867575917124  0.9852542425090669  0.1568731770292943
  0.7622702333986615  0.1153750837355327  0.1243014207117241
  0.7657073993373381  0.1146005536933895  0.3651090033610567
  0.7699405405460242  0.0428001293058684  0.5106374143137501
  0.4250010392180762  0.7101769190802230  0.8065727418640665
  0.5975178247843687  0.7923217879729061  0.9582166404880880
  0.6839535029685629  0.8926681128559536  0.2862577103109269
  0.6978685979160892  0.9721170214096386  0.4310287853290900
  0.8886421617208686  0.5392887811281368  0.7886365024812853
  0.8900749172068851  0.6253584320612955  0.9371500792425832
  0.8624618114763800  0.8060622488166957  0.1491483504970902
  0.7756281456571817  0.7306125963460004  0.2812656042758176
  0.9735293061979533  0.8091007897512577  0.4169738926107743
  0.8783089554883838  0.7228747433288200  0.5414672979819017
  0.8794739738381249  0.7948836950353799  0.6939821329306328
  0.7899267559620761  0.7059691356781952  0.8132183646895657
  0.7916127763067327  0.7770843988745897  0.9584185967372959
  0.7845937216530140  0.7726680881535234  0.0091926697959786
  0.8714852765827588  0.9010538900430036  0.2784823947164205
  0.8831137516637130  0.9751034305144408  0.4232534697345840
  0.9736812651131368  0.6338857099291216  0.6562541811254722
  0.7787035046549449  0.8793670488629954  0.5584694897120961
  0.7029049505336028  0.8672352273375030  0.8337674130464749
  0.6916527546711981  0.9485087499327749  0.9791506679450498
  0.7734211233176103  0.9750512986846810  0.1502086208054317
  0.9784715890108294  0.5451498882739703  0.5088955416643315
  0.9641802148447531  0.7319382343027450  0.2679743586248192
  0.9684712451639852  0.7004431617236737  0.8035749537898860
  0.9667852248193292  0.7874288433797517  0.9602425141129552
  0.9613074677339011  0.7928803432917593  0.0118117899028942
  0.9664668347113251  0.8769391950770464  0.5586083346334266
  0.9761560245889843  0.9564178932477370  0.7066296430372805
  0.8784247337094764  0.8640030538924057  0.8377939157650586
  0.8759499742336289  0.9418582179362955  0.9848243763212357
  0.7831103131952695  0.9606107818412619  0.7053295496830047
  0.7863159226917615  0.5532228744824624  0.5119059520040875
  0.8747487751897968  0.6490188353679187  0.3984380956131568
  0.8629755773324771  0.5718488325151552  0.2442823661396113
  0.6038639185279888  0.8751145810354595  0.5632785728963605
  0.5997248471239403  0.9586223249061445  0.7054683946043347
  0.5156264417780465  0.8659915108275231  0.8410441491507489
  0.5185498418606261  0.9517856078033810  0.9910723977811070
  0.4993306571593102  0.9410836878941526  0.0098237830747533
  0.5923512216681266  0.9788643696613859  0.1514771584957691
  0.9423270756135882  0.1060583810170607  0.1276715656203816
  0.9563651849210250  0.1063860668041213  0.3676902566712459
  0.9537529388076309  0.0338483493957137  0.5134837352010250
  0.8770353950563688  0.0418096245404352  0.7801543400145508
  0.9753528131801563  0.1479276877182996  0.8754776896407048
  0.9434197325751462  0.2957363198953699  0.1289716589746579
  0.8533298042877279  0.1952708365443003  0.2518241698209709
  0.9447584182565257  0.2984397276386194  0.3616378803277950
  0.8640248174611256  0.2128094735562919  0.4846544806265896
  0.9557356408438359  0.2911710610892759  0.6227231326241641
  0.8792351812571219  0.2277936509100615  0.7588858225198385
  0.8656529486952356  0.4011617744778561  0.0111238764290296
  0.9598168231373385  0.4787637267771997  0.1211079875211232
  0.8586049494862440  0.3857828846987636  0.2466174852710782
  0.9547225814092785  0.4772295615014160  0.3603567203718821
  0.8727371285983188  0.3918525191636353  0.4844777689085326
  0.8759065574007193  0.4771774296716565  0.6337613038699363
  0.9700414872875487  0.3802718055527449  0.7724484468807101
  0.9739490022494128  0.4733941483119570  0.9232150980472347
  0.8496466096292303  0.5899162352289946  0.0109724092421236
  0.9677693396986132  0.6551406016625502  0.1277914771433492
  0.5874089388552505  0.4592142906173364  0.9152062705395818
  0.6003326827846748  0.3919269932061492  0.7661751808896878
  0.5172545730121560  0.4554682462788940  0.6339821935175073
  0.5075798554121339  0.3836752692956239  0.4910855249373054
  0.2281852995000442  0.4804691823507650  0.3625719279803818
  0.1310690804200890  0.3949953237577163  0.4868191991727870
  0.1342457453613081  0.4730068832908856  0.6353012202701470
  0.2340682803592951  0.4007149302227734  0.7544617184356266
  0.2305153361995260  0.4712046114620524  0.9220854052782278
  0.1119222571069556  0.5822230666373226  0.0132507281785011
  0.2150227629896174  0.6669968692307419  0.1214172330277228
  0.1285870848054234  0.5658685669012997  0.2479302008909300
  0.1367639216700649  0.6406405055851203  0.3984191622147938
  0.0408561377727599  0.5518078676747008  0.5160208105816998
  0.2367384155832354  0.6166077320659281  0.6593466361914688
  0.1392242088682754  0.5592031400963177  0.7866232511219934
  0.1260689084966669  0.3890746373778720  0.2496594512747731
  0.1499988195686744  0.6345485289074941  0.9310850806335569
  0.0406101090529389  0.7268367623905521  0.2712624588072364
  0.2267525440140274  0.8019140446486794  0.4109593830640498
  0.1367277409759734  0.7176541129486053  0.5415240981769915
  0.1460261793574461  0.7987712400545984  0.6796937282991697
  0.0472818290433805  0.7091566246977843  0.8044585123801704
  0.0555744441291142  0.7939900065252147  0.9524482651200858
  0.1279068877565064  0.8879092215393243  0.2973779262829395
  0.1461491937173565  0.9747534025146261  0.4372768067889613
  0.0405449838035744  0.8952821517481867  0.5587534906875448
  0.0588741234302435  0.9594191971610418  0.6973144110425639
  0.0422092957317757  0.9822008067660027  0.1518747598613975
  0.3908681724123130  0.1066243837401653  0.1249640896544377
  0.1325307804613788  0.8164662725558691  0.1498299528381668
  0.2189230418126630  0.4798733900106549  0.1197321605733940
  0.3210104882607676  0.3169763168202958  0.8949538454236967
  0.1352370963794106  0.2398807880100458  0.7647236203485059
  0.0356605901012446  0.1021261515723337  0.3674946115548259
  0.0472528844881075  0.0429863144121526  0.5102208795497587
  0.1408812846576585  0.1319008737693371  0.6431207137941674
  0.0414060843229482  0.1628448384338067  0.8974278094764941
  0.0398430783382027  0.2971587741073827  0.1308334431470436
  0.0327227177410283  0.2976651975964764  0.3639982439904133
  0.0354073252426053  0.2996759967443479  0.6232027787160328
  0.1476326021751011  0.3191956432872058  0.9115836803194141
  0.0290612314989854  0.4702885807391332  0.1396122288548018
  0.0393220763432874  0.4769986919696234  0.3719692047013397
  0.0619567185668251  0.3991509753299846  0.7727198255905833
  0.0501183954601411  0.4720685103552122  0.9192327732581654
  0.0215284109891700  0.6514615839623703  0.1332190513408128
  0.0477015250948401  0.6346155555457567  0.6649256775758385
  0.0477738864830228  0.8032769196266810  0.4223320443475726
  0.1093172471323798  0.0227293748484085  0.0123861029865795
  0.2134887015601449  0.1049338229751028  0.1285866798746055
  0.2111297203053901  0.1113311432270351  0.3724425396604208
  0.2196394195556715  0.0416383342426534  0.5137866695748367
  0.3300122449506910  0.1304709721530730  0.6299935575956505
  0.1439421713777853  0.0538073927894029  0.7884345462320769
  0.2361595244777741  0.1602307995415736  0.8848623440960868
  0.2130907139251401  0.2894358158987052  0.1341783435245506
  0.1265971466304001  0.2036044819015906  0.2562104071084561
  0.2204426309644991  0.2979184093410231  0.3694636849846033
  0.1236230935760926  0.2116402310888259  0.4925686411424262
  0.2235179899622624  0.2991993628722598  0.6195486328319266
  0.3050692744441263  0.0278382941648528  0.2493186501042346
  0.8655588788905981  0.9478980627841624  0.0094072483107620
  0.4015052964751647  0.1082479178669653  0.3635943314919974
  0.5042584676945499  0.1236938342843202  0.6239664257833506
  0.2189013333962083  0.7793111727457517  0.0089276022188933
  0.3124428998999399  0.8934128532810917  0.2834555673531664
  0.3237095680399809  0.9553901514610472  0.4243516068396524
  0.2215425240648756  0.8790691526929399  0.5584000672514308
  0.2447054044221468  0.9598734888203755  0.6987217936542319
  0.1461202491620833  0.8626923107441633  0.8282325495916192
  0.1445210624832465  0.9427891434677179  0.9695703683732474
  0.1282976392526929  0.9437498586161456  0.0196691502236414
  0.2157319045938074  0.9727426033667543  0.1655825402763872
  0.5765692029054873  0.1190913384569697  0.1163241488680097
  0.4914215574309445  0.0147457574909330  0.2407796874424108
  0.5771987469826763  0.1043529254434954  0.3590061379553040
  0.2406169859898262  0.7887246917194913  0.9561907668632208
  0.5918085112567566  0.0281212955264050  0.5168412578441069
  0.5065161430058488  0.0637347826564877  0.7770366404174032
  0.5969534059565442  0.1506385428658007  0.8789866794706929
  0.5795070752657033  0.2926009627055403  0.1249451562560743
  0.4861102315383369  0.2012064177326473  0.2481384682729254
  0.5772638722320408  0.2988418874681938  0.3658032279677092
  0.4901190524436565  0.1990541179039995  0.4842631903937492
  0.5983861614425607  0.2909550863659859  0.6093624645125004
  0.4996852279614052  0.2442077298800955  0.7433856803931279
  0.7009222484973978  0.3023570622748435  0.8992075489226391
  0.5832771035900204  0.4785254098411557  0.1324932710702214
  0.4947501812873471  0.3914354645255584  0.2435439636034449
  0.5844059412456699  0.4910072593664628  0.3628369955574676
  0.6972679983941732  0.1243864428796982  0.6322971210631785
  0.2422306449462998  0.7169987413744840  0.8026093504733602
  0.3285939617423110  0.7932750557170827  0.6832847628553991
  0.3265606067343780  0.7148315467373335  0.5415935206376569
  0.3188324104764693  0.0532116004492926  0.7747204546842996
  0.4123233240084729  0.1503704363127510  0.8827670480105542
  0.4079092793293304  0.3002494468717039  0.1311111329897048
  0.3056698739660425  0.2107688847914148  0.2544496010606740
  0.4029597603776363  0.2982163055110780  0.3676902566712459
  0.3107713518329204  0.2064940747511248  0.4785389929552609
  0.4129528680856625  0.3066169775066308  0.6115145607931228
  0.3074789086706091  0.2314726686102417  0.7509337952072755
  0.4979919714779307  0.3071904276339867  0.8961024715910669
  0.3116903414628401  0.3825805008706717  0.0155038025837272
  0.4010277113131592  0.4885868529847652  0.1238470191510064
  0.3153880083989745  0.3914801489510666  0.2345569105136908
  0.3998192761305087  0.4779072752882913  0.3518430022412092
  0.3143821851032355  0.3887022671653030  0.4922783290341896
  0.3216834491708663  0.4677862529106706  0.6385766981869883
  0.4056733124344863  0.3926419440142813  0.7658659353830882
  0.4144290404045885  0.4756953962256326  0.9173583668202042
  0.3943776997391721  0.6734761109294394  0.1163367711335852
  0.3139769613294124  0.5779780462140380  0.2462577507021767
  0.3220380199729614  0.6408490329041588  0.3893437532660111
  0.2276281168110377  0.5553602795026072  0.5149352957422069
  0.4280546897993848  0.6324260186958518  0.6559954246811743
  0.3280657236085775  0.5511524961005796  0.7928649614490768
  0.3313147499379790  0.6294247147825471  0.9386205731821290
  0.3197441639675708  0.8234593851479115  0.1435882425110835
  0.2292128312122382  0.7331819508127249  0.2640614562964153
  0.4193134341069186  0.8132564413235257  0.4093311108048109
  0.4084809342959734  0.0394115603714920  0.5176995719032406
  0.9577400512964960  0.9767418594497435  0.1510795571301412
