Cu
 1.0000000000000000
     7.6685730419681093    0.0000000000000000    0.0000000000000000
     3.8342865209840546    6.6411790651208911    0.0000000000000000
     0.0000000000000000    0.0000000000000000   25.0450909090909093
 Cu 
 108
Direct
  0.1102151078269077  0.1096457436671947 -0.0000084977496476
 -0.0004082079750905  0.7141606068290691  0.6667899490672353
  0.6668940259248887  0.3847961263898107  0.6662621543641147
  0.3341769472136479  0.3828003664585564  0.6659019752875007
 -0.0013300789733749  0.3845166955083239  0.6658850482538412
  0.6665031329665063  0.0498920928560745  0.6663920499839255
  0.3321670911578638  0.0476080162935040  0.6673385771886867
  0.0008332141389631  0.0509577118091755  0.6666855808114814
  0.5586741241945984  0.9378050992413841  0.5827532968658433
  0.2216913886980464  0.9407542607174497  0.5831161169739517
  0.8879428686804328  0.9413651450694143  0.5836054628732945
  0.5575407878404575  0.6050651629588594  0.5828137991319945
  0.2243803489628836  0.6029220099759638  0.5838212037047832
  0.8906695041058699  0.6045319315699622  0.5833571164137916
  0.5578596893531527  0.2696537717602999  0.5835921635285531
  0.2200488332275058  0.2723918227545472  0.5832579289067147
  0.8891509410682161  0.2696613075443650  0.5833074924328013
  0.7777675503024085  0.8254595010383132  0.5000747138610645
  0.4421333976724787  0.8287241859592797  0.4997545739144154
  0.1126951239115275  0.8267497601559950  0.5005007874934452
  0.7783531972579211  0.4961724122880491  0.4998228955484924
  0.4439287381784249  0.4918064562738872  0.5005757133903374
  0.1128350600468893  0.4945359671330492  0.4998964855604479
  0.7755858451914195  0.1610597688339231  0.5002499445111580
  0.3327204355952283  0.7183314948762469  0.6662478171597618
  0.4451062675818603  0.1639844171926477  0.4994992688202247
  0.6653768810826225  0.7141570762919749  0.6673614771683668
  0.4466951208266249  0.1616688204975917  0.7498615849887281
  0.0029033827557351  0.7155373129730092  0.9166255454730077
  0.6687109657055127  0.3813921686061593  0.9174071918820172
  0.3350786498259634  0.3831696086680674  0.9169979569393821
 -0.0003878932913941  0.3812095018192543  0.9164384725815247
  0.6637193896544099  0.0512977750539651  0.9160918811750558
  0.3318015678138257  0.0485724154620042  0.9172686762664038
  0.0031291593345010  0.0487170801132635  0.9169399577922874
  0.5524435274381944  0.9409917257373814  0.8329671863761645
  0.2214639270536983  0.9415362117236538  0.8338792307986463
  0.8908525145800579  0.9375143127070520  0.8334183154105974
  0.5536115319086580  0.6045712278283171  0.8329059602669606
  0.2211565846129538  0.6038550153814114  0.8333898535188120
  0.8876137649960900  0.6046038087425156  0.8337420180193770
  0.5567605118636794  0.2728838766573822  0.8333403720263995
  0.2211765427087555  0.2749442454467005  0.8330565773308964
  0.8924316654229750  0.2702929606359001  0.8334996288338223
  0.7760501482271905  0.8285397972644298  0.7506633702756149
  0.4459341482696625  0.8250698941369429  0.7493712732330466
  0.1096882084683813  0.8290349927026873  0.7503804817517050
  0.7780574852850146  0.4923703859489676  0.7507881875313326
  0.4447964609309440  0.4928005714743285  0.7499727467469149
  0.1116808227322778  0.4915742755938822  0.7500180094835461
  0.7753921069915661  0.1612391227083025  0.7497371812277396
  0.1107840812219457  0.1600014382887958  0.7507084948423708
  0.1128078915079947  0.1586839332497790  0.5000261835279350
  0.6683856695852785  0.6661118859374991  0.4163521671734446
  0.3318879773263732  0.6694395958351301  0.4165902659929155
  0.6666371499310713  0.3323037038955426  0.1664174227725056
  0.3327932295865594  0.3352913330353810  0.1661040388094038
  0.0012574437480060  0.3312833662875155  0.1664139351817704
  0.6656809872520467  0.0009722785902673  0.1666793523439569
  0.3294637915601764  0.0028450303478694  0.1664291786757159
  0.0037873870218548 -0.0027375089332000  0.1674418404096019
  0.5551210000908836  0.8872064572517978  0.0835895903070128
  0.2221961843690766  0.8915923964344706  0.0840306243723487
  0.8915405721496809  0.8886014200497604  0.0826121842861860
  0.5543905640904037  0.5561080417299736  0.0828371075093655
  0.2235153632423385  0.5544012779529777  0.0830264006361824
  0.8903220427466686  0.5536575949149922  0.0836615617011425
  0.5545994977525797  0.2248193308081321  0.0827691201772527
  0.2214060168163798  0.2223355734554719  0.0831343006995018
  0.8857815003838573  0.2246296762612857  0.0827900152583279
  0.7770081624847796  0.7790813626018522  0.0000105852732117
  0.4467967826380546  0.7752781516990683  0.0005390430004466
  0.1140078499896005  0.7754250481499262  0.0007508273950956
  0.7756611725923493  0.4446587645237463  0.0000447516480005
  0.4444323556827854  0.4466301453123879 -0.0001764406156713
  0.1130414530930762  0.4427401370510753 -0.0005738444981639
  0.7766517383733629  0.1116986006971723  0.0007515678249605
  0.4445239070972533  0.1126295936528643  0.0003563139282656
 -0.0027381598813737  0.6673044062802441  0.1664310355655861
  0.3321337002421510  0.6645676098500314  0.1663713184977963
  0.6656204749041484  0.6684042416029412  0.1670212389899441
  0.1102506485642777  0.1081020686034430  0.2506288886491747
  0.0033989296224441  0.6639245299143585  0.4168739259379277
  0.6674233806871954  0.3343592142239715  0.4168053534290045
  0.3341703682116569  0.3313444021812660  0.4165785958385589
  0.0008797822111684  0.3303407057448744  0.4164745801148826
  0.6656748424323640 -0.0017405859675103  0.4162126905220525
  0.3339161567134794  0.0020737608496373  0.4170659446888946
 -0.0008387487247368 -0.0012816979761010  0.4166066057168392
  0.5584554869104938  0.8873076802425763  0.3340399005540448
  0.2224862480692122  0.8873591492747007  0.3332892580109095
  0.8891771063684391  0.8870178602605745  0.3329646353246500
  0.5556356253342213  0.5538431412459720  0.3329598590010481
  0.3317125062036201  0.7193762073698841  0.9174022656300937
  0.2235800910554528  0.5566191353053277  0.3329556259318190
  0.5536324856552488  0.2216747398222210  0.3329336977413181
  0.2185053601688958  0.2248872809915549  0.3339361100285702
  0.8868994854560915  0.2245732376648688  0.3333885360621134
  0.7750906817072352  0.7787895792793276  0.2501513497625767
  0.4449371556999541  0.7801410223672819  0.2499903219892309
  0.1115242302247724  0.7806732110260168  0.2497369275599909
  0.7771774727959367  0.4431417235386031  0.2499423891333929
  0.4451591962398437  0.4470332213586649  0.2494132090119738
  0.1113286642898456  0.4458523951647350  0.2505301392879012
  0.7800571295047621  0.1092957726955316  0.2500471204698396
  0.4419269711766550  0.1127021563095728  0.2501134557105548
  0.8883054319515172  0.5548913847073481  0.3327486733261699
  0.6682227583888567  0.7162371846732108  0.9160988688462153
